$*$$$$$$$$$$$$$$$$$$$$$$$$$$$$$$$$$$$$$$$$$$$$$$$$$$$$$$$$$$$$$$$$$
$*
$*                    Simcenter v11.0.0.33 Translator
$*                    for NX Nastran version 11.0
$*
$*             FEM FILE: D:\University Files\CSDC\Current Cubesat\NX CUBESAT V10\Cubesat V10_fem1.fem
$*             SIM FILE: D:\University Files\CSDC\Current Cubesat\NX CUBESAT V10\Cubesat V10_fem1_sim1.sim
$*        ANALYSIS TYPE: Structural
$*        SOLUTION NAME: Solution 1
$*        SOLUTION TYPE: SOL 101 Linear Statics - Global Constraints
$*
$*    SOLVER INPUT FILE: cubesat_v10_fem1_sim1-solution_1.dat
$*        CREATION DATE:  7-Jul-2019
$*        CREATION TIME: 13:17:09
$*             HOSTNAME: DESKTOP-SC6MJFL
$*      NASTRAN LICENSE: Desktop Bundle
$*
$*                UNITS: mm (milli-newton)
$*                      ... LENGTH : mm
$*                      ... TIME   : sec
$*                      ... MASS   : kilogram (kg)
$*                      ... TEMPERATURE : deg Celsius
$*                      ... FORCE  : milli-newton
$*                      ... THERMAL ENERGY : mN-mm (micro-joule)
$*
$* IMPORTANT NOTE:
$*     This banner was generated by Simcenter and altering this 
$*     information may compromise the pre and post processing of results
$*
$*$$$$$$$$$$$$$$$$$$$$$$$$$$$$$$$$$$$$$$$$$$$$$$$$$$$$$$$$$$$$$$$$$
$*
$*$$$$$$$$$$$$$$$$$$$$$$$$$$$$$$$$$$$
$*
$* FILE MANAGEMENT
$*
$*$$$$$$$$$$$$$$$$$$$$$$$$$$$$$$$$$$$
$*
$*
$*$$$$$$$$$$$$$$$$$$$$$$$$$$$$$$$$$$$
$*
$* EXECUTIVE CONTROL
$*
$*$$$$$$$$$$$$$$$$$$$$$$$$$$$$$$$$$$$
$*
ID,NASTRAN,cubesat_v10_fem1_sim1-solution_1
SOL 101
CEND
$*
$*$$$$$$$$$$$$$$$$$$$$$$$$$$$$$$$$$$$
$*
$* CASE CONTROL
$*
$*$$$$$$$$$$$$$$$$$$$$$$$$$$$$$$$$$$$
$*
ECHO = NONE
SPC = 1
OUTPUT
DISPLACEMENT(PLOT,REAL) = ALL
SPCFORCES(PLOT,REAL) = ALL
STRESS(PLOT,REAL,VONMISES,CENTER) = ALL
$*  Step: Subcase - Static Loads 1
SUBCASE 1
LABEL = Subcase - Static Loads 1
LOAD = 2
$*
$*$$$$$$$$$$$$$$$$$$$$$$$$$$$$$$$$$$$
$*
$* BULK DATA
$*
$*$$$$$$$$$$$$$$$$$$$$$$$$$$$$$$$$$$$
$*
BEGIN BULK
$*
$* PARAM CARDS
$*
PARAM      K6ROT100.0000
PARAM     OIBULK     YES
PARAM    OMACHPR     YES
PARAM       POST      -2
PARAM    POSTEXT     YES
PARAM    UNITSYS   MN-MM
$*
$* GRID CARDS
$*
GRID*             173762               0-2.500000000E+008.9999980927E+00+
*       -3.300000000E+02               0
GRID*             173763               0-2.500000000E+008.9999980927E+00+
*       -1.000000000E+01               0
GRID*             173761               0-2.500000000E+009.1000000000E+01+
*       -3.300000000E+02               0
GRID*             173764               0-2.500000000E+009.1000000000E+01+
*       -1.000000000E+01               0
GRID*             173765               00.0000000000E+008.9999980927E+00+
*       -3.300000000E+02               0
GRID*             173766               00.0000000000E+008.9999980927E+00+
*       -1.000000000E+01               0
GRID*             173767               00.0000000000E+009.1000000000E+01+
*       -3.300000000E+02               0
GRID*             173768               00.0000000000E+009.1000000000E+01+
*       -1.000000000E+01               0
GRID*             173497               0-2.500000000E+008.9999980927E+00+
*       -3.270277778E+02               0
GRID*             173498               0-2.500000000E+008.9999980927E+00+
*       -3.240555556E+02               0
GRID*             173499               0-2.500000000E+008.9999980927E+00+
*       -3.210833333E+02               0
GRID*             173500               0-2.500000000E+008.9999980927E+00+
*       -3.181111111E+02               0
GRID*             173501               0-2.500000000E+008.9999980927E+00+
*       -3.151388889E+02               0
GRID*             173502               0-2.500000000E+008.9999980927E+00+
*       -3.121666667E+02               0
GRID*             173503               0-2.500000000E+008.9999980927E+00+
*       -3.091944444E+02               0
GRID*             173504               0-2.500000000E+008.9999980927E+00+
*       -3.062222222E+02               0
GRID*             173505               0-2.500000000E+008.9999980927E+00+
*       -3.032500000E+02               0
GRID*             173506               0-2.500000000E+008.9999980927E+00+
*       -3.002777778E+02               0
GRID*             173507               0-2.500000000E+008.9999980927E+00+
*       -2.973055556E+02               0
GRID*             173508               0-2.500000000E+008.9999980927E+00+
*       -2.943333333E+02               0
GRID*             173509               0-2.500000000E+008.9999980927E+00+
*       -2.913611111E+02               0
GRID*             173510               0-2.500000000E+008.9999980927E+00+
*       -2.883888889E+02               0
GRID*             173511               0-2.500000000E+008.9999980927E+00+
*       -2.854166667E+02               0
GRID*             173512               0-2.500000000E+008.9999980927E+00+
*       -2.824444444E+02               0
GRID*             173513               0-2.500000000E+008.9999980927E+00+
*       -2.794722222E+02               0
GRID*             173514               0-2.500000000E+008.9999980927E+00+
*       -2.765000000E+02               0
GRID*             173515               0-2.500000000E+008.9999980927E+00+
*       -2.735277778E+02               0
GRID*             173516               0-2.500000000E+008.9999980927E+00+
*       -2.705555556E+02               0
GRID*             173517               0-2.500000000E+008.9999980927E+00+
*       -2.675833333E+02               0
GRID*             173518               0-2.500000000E+008.9999980927E+00+
*       -2.646111111E+02               0
GRID*             173519               0-2.500000000E+008.9999980927E+00+
*       -2.616388889E+02               0
GRID*             173520               0-2.500000000E+008.9999980927E+00+
*       -2.586666667E+02               0
GRID*             173521               0-2.500000000E+008.9999980927E+00+
*       -2.556944444E+02               0
GRID*             173522               0-2.500000000E+008.9999980927E+00+
*       -2.527222222E+02               0
GRID*             173523               0-2.500000000E+008.9999980927E+00+
*       -2.497500000E+02               0
GRID*             173524               0-2.500000000E+008.9999980927E+00+
*       -2.467777778E+02               0
GRID*             173525               0-2.500000000E+008.9999980927E+00+
*       -2.438055556E+02               0
GRID*             173526               0-2.500000000E+008.9999980927E+00+
*       -2.408333333E+02               0
GRID*             173527               0-2.500000000E+008.9999980927E+00+
*       -2.378611111E+02               0
GRID*             173528               0-2.500000000E+008.9999980927E+00+
*       -2.348888889E+02               0
GRID*             173529               0-2.500000000E+008.9999980927E+00+
*       -2.319166667E+02               0
GRID*             173530               0-2.500000000E+008.9999980927E+00+
*       -2.289444444E+02               0
GRID*             173531               0-2.500000000E+008.9999980927E+00+
*       -2.259722222E+02               0
GRID*             173532               0-2.500000000E+008.9999980927E+00+
*       -2.244861111E+02               0
GRID*             173533               0-2.500000000E+008.9999980927E+00+
*       -2.274583333E+02               0
GRID*             173534               0-2.500000000E+008.9999980927E+00+
*       -2.304305556E+02               0
GRID*             173535               0-2.500000000E+008.9999980927E+00+
*       -2.334027778E+02               0
GRID*             173536               0-2.500000000E+008.9999980927E+00+
*       -2.363750000E+02               0
GRID*             173537               0-2.500000000E+008.9999980927E+00+
*       -2.393472222E+02               0
GRID*             173538               0-2.500000000E+008.9999980927E+00+
*       -2.423194444E+02               0
GRID*             173539               0-2.500000000E+008.9999980927E+00+
*       -2.452916667E+02               0
GRID*             173540               0-2.500000000E+008.9999980927E+00+
*       -2.482638889E+02               0
GRID*             173541               0-2.500000000E+008.9999980927E+00+
*       -2.512361111E+02               0
GRID*             173542               0-2.500000000E+008.9999980927E+00+
*       -2.542083333E+02               0
GRID*             173543               0-2.500000000E+008.9999980927E+00+
*       -2.571805556E+02               0
GRID*             173544               0-2.500000000E+008.9999980927E+00+
*       -2.601527778E+02               0
GRID*             173545               0-2.500000000E+008.9999980927E+00+
*       -2.631250000E+02               0
GRID*             173546               0-2.500000000E+008.9999980927E+00+
*       -2.660972222E+02               0
GRID*             173547               0-2.500000000E+008.9999980927E+00+
*       -2.690694444E+02               0
GRID*             173548               0-2.500000000E+008.9999980927E+00+
*       -2.720416667E+02               0
GRID*             173549               0-2.500000000E+008.9999980927E+00+
*       -2.750138889E+02               0
GRID*             173550               0-2.500000000E+008.9999980927E+00+
*       -2.779861111E+02               0
GRID*             173551               0-2.500000000E+008.9999980927E+00+
*       -2.809583333E+02               0
GRID*             173552               0-2.500000000E+008.9999980927E+00+
*       -2.839305556E+02               0
GRID*             173553               0-2.500000000E+008.9999980927E+00+
*       -2.869027778E+02               0
GRID*             173554               0-2.500000000E+008.9999980927E+00+
*       -2.898750000E+02               0
GRID*             173555               0-2.500000000E+008.9999980927E+00+
*       -2.928472222E+02               0
GRID*             173556               0-2.500000000E+008.9999980927E+00+
*       -2.958194444E+02               0
GRID*             173557               0-2.500000000E+008.9999980927E+00+
*       -2.987916667E+02               0
GRID*             173558               0-2.500000000E+008.9999980927E+00+
*       -3.017638889E+02               0
GRID*             173559               0-2.500000000E+008.9999980927E+00+
*       -3.047361111E+02               0
GRID*             173560               0-2.500000000E+008.9999980927E+00+
*       -3.077083333E+02               0
GRID*             173561               0-2.500000000E+008.9999980927E+00+
*       -3.106805556E+02               0
GRID*             173562               0-2.500000000E+008.9999980927E+00+
*       -3.136527778E+02               0
GRID*             173563               0-2.500000000E+008.9999980927E+00+
*       -3.166250000E+02               0
GRID*             173564               0-2.500000000E+008.9999980927E+00+
*       -3.195972222E+02               0
GRID*             173565               0-2.500000000E+008.9999980927E+00+
*       -3.225694444E+02               0
GRID*             173566               0-2.500000000E+008.9999980927E+00+
*       -3.255416667E+02               0
GRID*             173567               0-2.500000000E+008.9999980927E+00+
*       -3.285138889E+02               0
GRID*             172353               0-2.500000000E+008.7962962892E+01+
*       -3.300000000E+02               0
GRID*             172354               0-2.500000000E+008.4925925785E+01+
*       -3.300000000E+02               0
GRID*             172355               0-2.500000000E+008.1888888677E+01+
*       -3.300000000E+02               0
GRID*             172356               0-2.500000000E+007.8851851569E+01+
*       -3.300000000E+02               0
GRID*             172357               0-2.500000000E+007.5814814462E+01+
*       -3.300000000E+02               0
GRID*             172358               0-2.500000000E+007.2777777354E+01+
*       -3.300000000E+02               0
GRID*             172359               0-2.500000000E+006.9740740246E+01+
*       -3.300000000E+02               0
GRID*             172360               0-2.500000000E+006.6703703139E+01+
*       -3.300000000E+02               0
GRID*             172361               0-2.500000000E+006.3666666031E+01+
*       -3.300000000E+02               0
GRID*             172362               0-2.500000000E+006.0629628923E+01+
*       -3.300000000E+02               0
GRID*             172363               0-2.500000000E+005.7592591816E+01+
*       -3.300000000E+02               0
GRID*             172364               0-2.500000000E+005.4555554708E+01+
*       -3.300000000E+02               0
GRID*             172365               0-2.500000000E+005.1518517600E+01+
*       -3.300000000E+02               0
GRID*             172366               0-2.500000000E+004.8481480492E+01+
*       -3.300000000E+02               0
GRID*             172367               0-2.500000000E+004.5444443385E+01+
*       -3.300000000E+02               0
GRID*             172368               0-2.500000000E+004.2407406277E+01+
*       -3.300000000E+02               0
GRID*             172369               0-2.500000000E+003.9370369169E+01+
*       -3.300000000E+02               0
GRID*             172370               0-2.500000000E+003.6333332062E+01+
*       -3.300000000E+02               0
GRID*             172371               0-2.500000000E+003.3296294954E+01+
*       -3.300000000E+02               0
GRID*             172372               0-2.500000000E+003.0259257846E+01+
*       -3.300000000E+02               0
GRID*             172373               0-2.500000000E+002.7222220739E+01+
*       -3.300000000E+02               0
GRID*             172374               0-2.500000000E+002.4185183631E+01+
*       -3.300000000E+02               0
GRID*             172375               0-2.500000000E+002.1148146523E+01+
*       -3.300000000E+02               0
GRID*             172376               0-2.500000000E+001.8111109416E+01+
*       -3.300000000E+02               0
GRID*             172377               0-2.500000000E+001.5074072308E+01+
*       -3.300000000E+02               0
GRID*             172378               0-2.500000000E+001.2037035200E+01+
*       -3.300000000E+02               0
GRID*             172379               0-2.500000000E+008.9481481446E+01+
*       -3.300000000E+02               0
GRID*             172380               0-2.500000000E+008.6444444338E+01+
*       -3.300000000E+02               0
GRID*             172381               0-2.500000000E+008.3407407231E+01+
*       -3.300000000E+02               0
GRID*             172382               0-2.500000000E+008.0370370123E+01+
*       -3.300000000E+02               0
GRID*             172383               0-2.500000000E+007.7333333015E+01+
*       -3.300000000E+02               0
GRID*             172384               0-2.500000000E+007.4296295908E+01+
*       -3.300000000E+02               0
GRID*             172385               0-2.500000000E+007.1259258800E+01+
*       -3.300000000E+02               0
GRID*             172386               0-2.500000000E+006.8222221692E+01+
*       -3.300000000E+02               0
GRID*             172387               0-2.500000000E+006.5185184585E+01+
*       -3.300000000E+02               0
GRID*             172388               0-2.500000000E+006.2148147477E+01+
*       -3.300000000E+02               0
GRID*             172389               0-2.500000000E+005.9111110369E+01+
*       -3.300000000E+02               0
GRID*             172390               0-2.500000000E+005.6074073262E+01+
*       -3.300000000E+02               0
GRID*             172391               0-2.500000000E+005.3037036154E+01+
*       -3.300000000E+02               0
GRID*             172392               0-2.500000000E+004.9999999046E+01+
*       -3.300000000E+02               0
GRID*             172393               0-2.500000000E+004.6962961939E+01+
*       -3.300000000E+02               0
GRID*             172394               0-2.500000000E+004.3925924831E+01+
*       -3.300000000E+02               0
GRID*             172395               0-2.500000000E+004.0888887723E+01+
*       -3.300000000E+02               0
GRID*             172396               0-2.500000000E+003.7851850616E+01+
*       -3.300000000E+02               0
GRID*             172397               0-2.500000000E+003.4814813508E+01+
*       -3.300000000E+02               0
GRID*             172398               0-2.500000000E+003.1777776400E+01+
*       -3.300000000E+02               0
GRID*             172399               0-2.500000000E+002.8740739293E+01+
*       -3.300000000E+02               0
GRID*             172400               0-2.500000000E+002.5703702185E+01+
*       -3.300000000E+02               0
GRID*             172401               0-2.500000000E+002.2666665077E+01+
*       -3.300000000E+02               0
GRID*             172402               0-2.500000000E+001.9629627970E+01+
*       -3.300000000E+02               0
GRID*             172403               0-2.500000000E+001.6592590862E+01+
*       -3.300000000E+02               0
GRID*             172404               0-2.500000000E+001.3555553754E+01+
*       -3.300000000E+02               0
GRID*             172405               0-2.500000000E+001.0518516646E+01+
*       -3.300000000E+02               0
GRID*             172406               0-2.500000000E+001.2037035200E+01+
*       -1.000000000E+01               0
GRID*             172407               0-2.500000000E+001.5074072308E+01+
*       -1.000000000E+01               0
GRID*             172408               0-2.500000000E+001.8111109416E+01+
*       -1.000000000E+01               0
GRID*             172409               0-2.500000000E+002.1148146523E+01+
*       -1.000000000E+01               0
GRID*             172410               0-2.500000000E+002.4185183631E+01+
*       -1.000000000E+01               0
GRID*             172411               0-2.500000000E+002.7222220739E+01+
*       -1.000000000E+01               0
GRID*             172412               0-2.500000000E+003.0259257846E+01+
*       -1.000000000E+01               0
GRID*             172413               0-2.500000000E+003.3296294954E+01+
*       -1.000000000E+01               0
GRID*             172414               0-2.500000000E+003.6333332062E+01+
*       -1.000000000E+01               0
GRID*             172415               0-2.500000000E+003.9370369169E+01+
*       -1.000000000E+01               0
GRID*             172416               0-2.500000000E+004.2407406277E+01+
*       -1.000000000E+01               0
GRID*             172417               0-2.500000000E+004.5444443385E+01+
*       -1.000000000E+01               0
GRID*             172418               0-2.500000000E+004.8481480492E+01+
*       -1.000000000E+01               0
GRID*             172419               0-2.500000000E+005.1518517600E+01+
*       -1.000000000E+01               0
GRID*             172420               0-2.500000000E+005.4555554708E+01+
*       -1.000000000E+01               0
GRID*             172421               0-2.500000000E+005.7592591816E+01+
*       -1.000000000E+01               0
GRID*             172422               0-2.500000000E+006.0629628923E+01+
*       -1.000000000E+01               0
GRID*             172423               0-2.500000000E+006.3666666031E+01+
*       -1.000000000E+01               0
GRID*             172424               0-2.500000000E+006.6703703139E+01+
*       -1.000000000E+01               0
GRID*             172425               0-2.500000000E+006.9740740246E+01+
*       -1.000000000E+01               0
GRID*             172426               0-2.500000000E+007.2777777354E+01+
*       -1.000000000E+01               0
GRID*             172427               0-2.500000000E+007.5814814462E+01+
*       -1.000000000E+01               0
GRID*             172428               0-2.500000000E+007.8851851569E+01+
*       -1.000000000E+01               0
GRID*             172429               0-2.500000000E+008.1888888677E+01+
*       -1.000000000E+01               0
GRID*             172430               0-2.500000000E+008.4925925785E+01+
*       -1.000000000E+01               0
GRID*             172431               0-2.500000000E+008.7962962892E+01+
*       -1.000000000E+01               0
GRID*             172432               0-2.500000000E+001.0518516646E+01+
*       -1.000000000E+01               0
GRID*             172433               0-2.500000000E+001.3555553754E+01+
*       -1.000000000E+01               0
GRID*             172434               0-2.500000000E+001.6592590862E+01+
*       -1.000000000E+01               0
GRID*             172435               0-2.500000000E+001.9629627970E+01+
*       -1.000000000E+01               0
GRID*             172436               0-2.500000000E+002.2666665077E+01+
*       -1.000000000E+01               0
GRID*             172437               0-2.500000000E+002.5703702185E+01+
*       -1.000000000E+01               0
GRID*             172438               0-2.500000000E+002.8740739293E+01+
*       -1.000000000E+01               0
GRID*             172439               0-2.500000000E+003.1777776400E+01+
*       -1.000000000E+01               0
GRID*             172440               0-2.500000000E+003.4814813508E+01+
*       -1.000000000E+01               0
GRID*             172441               0-2.500000000E+003.7851850616E+01+
*       -1.000000000E+01               0
GRID*             172442               0-2.500000000E+004.0888887723E+01+
*       -1.000000000E+01               0
GRID*             172443               0-2.500000000E+004.3925924831E+01+
*       -1.000000000E+01               0
GRID*             172444               0-2.500000000E+004.6962961939E+01+
*       -1.000000000E+01               0
GRID*             172445               0-2.500000000E+004.9999999046E+01+
*       -1.000000000E+01               0
GRID*             172446               0-2.500000000E+005.3037036154E+01+
*       -1.000000000E+01               0
GRID*             172447               0-2.500000000E+005.6074073262E+01+
*       -1.000000000E+01               0
GRID*             172448               0-2.500000000E+005.9111110369E+01+
*       -1.000000000E+01               0
GRID*             172449               0-2.500000000E+006.2148147477E+01+
*       -1.000000000E+01               0
GRID*             172450               0-2.500000000E+006.5185184585E+01+
*       -1.000000000E+01               0
GRID*             172451               0-2.500000000E+006.8222221692E+01+
*       -1.000000000E+01               0
GRID*             172452               0-2.500000000E+007.1259258800E+01+
*       -1.000000000E+01               0
GRID*             172453               0-2.500000000E+007.4296295908E+01+
*       -1.000000000E+01               0
GRID*             172454               0-2.500000000E+007.7333333015E+01+
*       -1.000000000E+01               0
GRID*             172455               0-2.500000000E+008.0370370123E+01+
*       -1.000000000E+01               0
GRID*             172456               0-2.500000000E+008.3407407231E+01+
*       -1.000000000E+01               0
GRID*             172457               0-2.500000000E+008.6444444338E+01+
*       -1.000000000E+01               0
GRID*             172458               0-2.500000000E+008.9481481446E+01+
*       -1.000000000E+01               0
GRID*             173355               0-2.500000000E+009.1000000000E+01+
*       -2.259722222E+02               0
GRID*             173356               0-2.500000000E+009.1000000000E+01+
*       -2.289444444E+02               0
GRID*             173357               0-2.500000000E+009.1000000000E+01+
*       -2.319166667E+02               0
GRID*             173358               0-2.500000000E+009.1000000000E+01+
*       -2.348888889E+02               0
GRID*             173359               0-2.500000000E+009.1000000000E+01+
*       -2.378611111E+02               0
GRID*             173360               0-2.500000000E+009.1000000000E+01+
*       -2.408333333E+02               0
GRID*             173361               0-2.500000000E+009.1000000000E+01+
*       -2.438055556E+02               0
GRID*             173362               0-2.500000000E+009.1000000000E+01+
*       -2.467777778E+02               0
GRID*             173363               0-2.500000000E+009.1000000000E+01+
*       -2.497500000E+02               0
GRID*             173364               0-2.500000000E+009.1000000000E+01+
*       -2.527222222E+02               0
GRID*             173365               0-2.500000000E+009.1000000000E+01+
*       -2.556944444E+02               0
GRID*             173366               0-2.500000000E+009.1000000000E+01+
*       -2.586666667E+02               0
GRID*             173367               0-2.500000000E+009.1000000000E+01+
*       -2.616388889E+02               0
GRID*             173368               0-2.500000000E+009.1000000000E+01+
*       -2.646111111E+02               0
GRID*             173369               0-2.500000000E+009.1000000000E+01+
*       -2.675833333E+02               0
GRID*             173370               0-2.500000000E+009.1000000000E+01+
*       -2.705555556E+02               0
GRID*             173371               0-2.500000000E+009.1000000000E+01+
*       -2.735277778E+02               0
GRID*             173372               0-2.500000000E+009.1000000000E+01+
*       -2.765000000E+02               0
GRID*             173373               0-2.500000000E+009.1000000000E+01+
*       -2.794722222E+02               0
GRID*             173374               0-2.500000000E+009.1000000000E+01+
*       -2.824444444E+02               0
GRID*             173375               0-2.500000000E+009.1000000000E+01+
*       -2.854166667E+02               0
GRID*             173376               0-2.500000000E+009.1000000000E+01+
*       -2.883888889E+02               0
GRID*             173377               0-2.500000000E+009.1000000000E+01+
*       -2.913611111E+02               0
GRID*             173378               0-2.500000000E+009.1000000000E+01+
*       -2.943333333E+02               0
GRID*             173379               0-2.500000000E+009.1000000000E+01+
*       -2.973055556E+02               0
GRID*             173380               0-2.500000000E+009.1000000000E+01+
*       -3.002777778E+02               0
GRID*             173381               0-2.500000000E+009.1000000000E+01+
*       -3.032500000E+02               0
GRID*             173382               0-2.500000000E+009.1000000000E+01+
*       -3.062222222E+02               0
GRID*             173383               0-2.500000000E+009.1000000000E+01+
*       -3.091944444E+02               0
GRID*             173384               0-2.500000000E+009.1000000000E+01+
*       -3.121666667E+02               0
GRID*             173385               0-2.500000000E+009.1000000000E+01+
*       -3.151388889E+02               0
GRID*             173386               0-2.500000000E+009.1000000000E+01+
*       -3.181111111E+02               0
GRID*             173387               0-2.500000000E+009.1000000000E+01+
*       -3.210833333E+02               0
GRID*             173388               0-2.500000000E+009.1000000000E+01+
*       -3.240555556E+02               0
GRID*             173389               0-2.500000000E+009.1000000000E+01+
*       -3.270277778E+02               0
GRID*             173390               0-2.500000000E+009.1000000000E+01+
*       -3.285138889E+02               0
GRID*             173391               0-2.500000000E+009.1000000000E+01+
*       -3.255416667E+02               0
GRID*             173392               0-2.500000000E+009.1000000000E+01+
*       -3.225694444E+02               0
GRID*             173393               0-2.500000000E+009.1000000000E+01+
*       -3.195972222E+02               0
GRID*             173394               0-2.500000000E+009.1000000000E+01+
*       -3.166250000E+02               0
GRID*             173395               0-2.500000000E+009.1000000000E+01+
*       -3.136527778E+02               0
GRID*             173396               0-2.500000000E+009.1000000000E+01+
*       -3.106805556E+02               0
GRID*             173397               0-2.500000000E+009.1000000000E+01+
*       -3.077083333E+02               0
GRID*             173398               0-2.500000000E+009.1000000000E+01+
*       -3.047361111E+02               0
GRID*             173399               0-2.500000000E+009.1000000000E+01+
*       -3.017638889E+02               0
GRID*             173400               0-2.500000000E+009.1000000000E+01+
*       -2.987916667E+02               0
GRID*             173401               0-2.500000000E+009.1000000000E+01+
*       -2.958194444E+02               0
GRID*             173402               0-2.500000000E+009.1000000000E+01+
*       -2.928472222E+02               0
GRID*             173403               0-2.500000000E+009.1000000000E+01+
*       -2.898750000E+02               0
GRID*             173404               0-2.500000000E+009.1000000000E+01+
*       -2.869027778E+02               0
GRID*             173405               0-2.500000000E+009.1000000000E+01+
*       -2.839305556E+02               0
GRID*             173406               0-2.500000000E+009.1000000000E+01+
*       -2.809583333E+02               0
GRID*             173407               0-2.500000000E+009.1000000000E+01+
*       -2.779861111E+02               0
GRID*             173408               0-2.500000000E+009.1000000000E+01+
*       -2.750138889E+02               0
GRID*             173409               0-2.500000000E+009.1000000000E+01+
*       -2.720416667E+02               0
GRID*             173410               0-2.500000000E+009.1000000000E+01+
*       -2.690694444E+02               0
GRID*             173411               0-2.500000000E+009.1000000000E+01+
*       -2.660972222E+02               0
GRID*             173412               0-2.500000000E+009.1000000000E+01+
*       -2.631250000E+02               0
GRID*             173413               0-2.500000000E+009.1000000000E+01+
*       -2.601527778E+02               0
GRID*             173414               0-2.500000000E+009.1000000000E+01+
*       -2.571805556E+02               0
GRID*             173415               0-2.500000000E+009.1000000000E+01+
*       -2.542083333E+02               0
GRID*             173416               0-2.500000000E+009.1000000000E+01+
*       -2.512361111E+02               0
GRID*             173417               0-2.500000000E+009.1000000000E+01+
*       -2.482638889E+02               0
GRID*             173418               0-2.500000000E+009.1000000000E+01+
*       -2.452916667E+02               0
GRID*             173419               0-2.500000000E+009.1000000000E+01+
*       -2.423194444E+02               0
GRID*             173420               0-2.500000000E+009.1000000000E+01+
*       -2.393472222E+02               0
GRID*             173421               0-2.500000000E+009.1000000000E+01+
*       -2.363750000E+02               0
GRID*             173422               0-2.500000000E+009.1000000000E+01+
*       -2.334027778E+02               0
GRID*             173423               0-2.500000000E+009.1000000000E+01+
*       -2.304305556E+02               0
GRID*             173424               0-2.500000000E+009.1000000000E+01+
*       -2.274583333E+02               0
GRID*             173425               0-2.500000000E+009.1000000000E+01+
*       -2.244861111E+02               0
GRID*             172459               0-1.250000000E+008.9999980927E+00+
*       -3.300000000E+02               0
GRID*             172460               0-1.250000000E+008.9999980927E+00+
*       -1.000000000E+01               0
GRID*             172461               0-1.250000000E+009.1000000000E+01+
*       -3.300000000E+02               0
GRID*             172462               0-1.250000000E+009.1000000000E+01+
*       -1.000000000E+01               0
GRID*             173568               00.0000000000E+008.9999980927E+00+
*       -3.270277778E+02               0
GRID*             173569               00.0000000000E+008.9999980927E+00+
*       -3.240555556E+02               0
GRID*             173570               00.0000000000E+008.9999980927E+00+
*       -3.210833333E+02               0
GRID*             173571               00.0000000000E+008.9999980927E+00+
*       -3.181111111E+02               0
GRID*             173572               00.0000000000E+008.9999980927E+00+
*       -3.151388889E+02               0
GRID*             173573               00.0000000000E+008.9999980927E+00+
*       -3.121666667E+02               0
GRID*             173574               00.0000000000E+008.9999980927E+00+
*       -3.091944444E+02               0
GRID*             173575               00.0000000000E+008.9999980927E+00+
*       -3.062222222E+02               0
GRID*             173576               00.0000000000E+008.9999980927E+00+
*       -3.032500000E+02               0
GRID*             173577               00.0000000000E+008.9999980927E+00+
*       -3.002777778E+02               0
GRID*             173578               00.0000000000E+008.9999980927E+00+
*       -2.973055556E+02               0
GRID*             173579               00.0000000000E+008.9999980927E+00+
*       -2.943333333E+02               0
GRID*             173580               00.0000000000E+008.9999980927E+00+
*       -2.913611111E+02               0
GRID*             173581               00.0000000000E+008.9999980927E+00+
*       -2.883888889E+02               0
GRID*             173582               00.0000000000E+008.9999980927E+00+
*       -2.854166667E+02               0
GRID*             173583               00.0000000000E+008.9999980927E+00+
*       -2.824444444E+02               0
GRID*             173584               00.0000000000E+008.9999980927E+00+
*       -2.794722222E+02               0
GRID*             173585               00.0000000000E+008.9999980927E+00+
*       -2.765000000E+02               0
GRID*             173586               00.0000000000E+008.9999980927E+00+
*       -2.735277778E+02               0
GRID*             173587               00.0000000000E+008.9999980927E+00+
*       -2.705555556E+02               0
GRID*             173588               00.0000000000E+008.9999980927E+00+
*       -2.675833333E+02               0
GRID*             173589               00.0000000000E+008.9999980927E+00+
*       -2.646111111E+02               0
GRID*             173590               00.0000000000E+008.9999980927E+00+
*       -2.616388889E+02               0
GRID*             173591               00.0000000000E+008.9999980927E+00+
*       -2.586666667E+02               0
GRID*             173592               00.0000000000E+008.9999980927E+00+
*       -2.556944444E+02               0
GRID*             173593               00.0000000000E+008.9999980927E+00+
*       -2.527222222E+02               0
GRID*             173594               00.0000000000E+008.9999980927E+00+
*       -2.497500000E+02               0
GRID*             173595               00.0000000000E+008.9999980927E+00+
*       -2.467777778E+02               0
GRID*             173596               00.0000000000E+008.9999980927E+00+
*       -2.438055556E+02               0
GRID*             173597               00.0000000000E+008.9999980927E+00+
*       -2.408333333E+02               0
GRID*             173598               00.0000000000E+008.9999980927E+00+
*       -2.378611111E+02               0
GRID*             173599               00.0000000000E+008.9999980927E+00+
*       -2.348888889E+02               0
GRID*             173600               00.0000000000E+008.9999980927E+00+
*       -2.319166667E+02               0
GRID*             173601               00.0000000000E+008.9999980927E+00+
*       -2.289444444E+02               0
GRID*             173602               00.0000000000E+008.9999980927E+00+
*       -2.259722222E+02               0
GRID*             173603               00.0000000000E+008.9999980927E+00+
*       -2.244861111E+02               0
GRID*             173604               00.0000000000E+008.9999980927E+00+
*       -2.274583333E+02               0
GRID*             173605               00.0000000000E+008.9999980927E+00+
*       -2.304305556E+02               0
GRID*             173606               00.0000000000E+008.9999980927E+00+
*       -2.334027778E+02               0
GRID*             173607               00.0000000000E+008.9999980927E+00+
*       -2.363750000E+02               0
GRID*             173608               00.0000000000E+008.9999980927E+00+
*       -2.393472222E+02               0
GRID*             173609               00.0000000000E+008.9999980927E+00+
*       -2.423194444E+02               0
GRID*             173610               00.0000000000E+008.9999980927E+00+
*       -2.452916667E+02               0
GRID*             173611               00.0000000000E+008.9999980927E+00+
*       -2.482638889E+02               0
GRID*             173612               00.0000000000E+008.9999980927E+00+
*       -2.512361111E+02               0
GRID*             173613               00.0000000000E+008.9999980927E+00+
*       -2.542083333E+02               0
GRID*             173614               00.0000000000E+008.9999980927E+00+
*       -2.571805556E+02               0
GRID*             173615               00.0000000000E+008.9999980927E+00+
*       -2.601527778E+02               0
GRID*             173616               00.0000000000E+008.9999980927E+00+
*       -2.631250000E+02               0
GRID*             173617               00.0000000000E+008.9999980927E+00+
*       -2.660972222E+02               0
GRID*             173618               00.0000000000E+008.9999980927E+00+
*       -2.690694444E+02               0
GRID*             173619               00.0000000000E+008.9999980927E+00+
*       -2.720416667E+02               0
GRID*             173620               00.0000000000E+008.9999980927E+00+
*       -2.750138889E+02               0
GRID*             173621               00.0000000000E+008.9999980927E+00+
*       -2.779861111E+02               0
GRID*             173622               00.0000000000E+008.9999980927E+00+
*       -2.809583333E+02               0
GRID*             173623               00.0000000000E+008.9999980927E+00+
*       -2.839305556E+02               0
GRID*             173624               00.0000000000E+008.9999980927E+00+
*       -2.869027778E+02               0
GRID*             173625               00.0000000000E+008.9999980927E+00+
*       -2.898750000E+02               0
GRID*             173626               00.0000000000E+008.9999980927E+00+
*       -2.928472222E+02               0
GRID*             173627               00.0000000000E+008.9999980927E+00+
*       -2.958194444E+02               0
GRID*             173628               00.0000000000E+008.9999980927E+00+
*       -2.987916667E+02               0
GRID*             173629               00.0000000000E+008.9999980927E+00+
*       -3.017638889E+02               0
GRID*             173630               00.0000000000E+008.9999980927E+00+
*       -3.047361111E+02               0
GRID*             173631               00.0000000000E+008.9999980927E+00+
*       -3.077083333E+02               0
GRID*             173632               00.0000000000E+008.9999980927E+00+
*       -3.106805556E+02               0
GRID*             173633               00.0000000000E+008.9999980927E+00+
*       -3.136527778E+02               0
GRID*             173634               00.0000000000E+008.9999980927E+00+
*       -3.166250000E+02               0
GRID*             173635               00.0000000000E+008.9999980927E+00+
*       -3.195972222E+02               0
GRID*             173636               00.0000000000E+008.9999980927E+00+
*       -3.225694444E+02               0
GRID*             173637               00.0000000000E+008.9999980927E+00+
*       -3.255416667E+02               0
GRID*             173638               00.0000000000E+008.9999980927E+00+
*       -3.285138889E+02               0
GRID*             172463               00.0000000000E+008.7962962892E+01+
*       -3.300000000E+02               0
GRID*             172464               00.0000000000E+008.4925925785E+01+
*       -3.300000000E+02               0
GRID*             172465               00.0000000000E+008.1888888677E+01+
*       -3.300000000E+02               0
GRID*             172466               00.0000000000E+007.8851851569E+01+
*       -3.300000000E+02               0
GRID*             172467               00.0000000000E+007.5814814462E+01+
*       -3.300000000E+02               0
GRID*             172468               00.0000000000E+007.2777777354E+01+
*       -3.300000000E+02               0
GRID*             172469               00.0000000000E+006.9740740246E+01+
*       -3.300000000E+02               0
GRID*             172470               00.0000000000E+006.6703703139E+01+
*       -3.300000000E+02               0
GRID*             172471               00.0000000000E+006.3666666031E+01+
*       -3.300000000E+02               0
GRID*             172472               00.0000000000E+006.0629628923E+01+
*       -3.300000000E+02               0
GRID*             172473               00.0000000000E+005.7592591816E+01+
*       -3.300000000E+02               0
GRID*             172474               00.0000000000E+005.4555554708E+01+
*       -3.300000000E+02               0
GRID*             172475               00.0000000000E+005.1518517600E+01+
*       -3.300000000E+02               0
GRID*             172476               00.0000000000E+004.8481480492E+01+
*       -3.300000000E+02               0
GRID*             172477               00.0000000000E+004.5444443385E+01+
*       -3.300000000E+02               0
GRID*             172478               00.0000000000E+004.2407406277E+01+
*       -3.300000000E+02               0
GRID*             172479               00.0000000000E+003.9370369169E+01+
*       -3.300000000E+02               0
GRID*             172480               00.0000000000E+003.6333332062E+01+
*       -3.300000000E+02               0
GRID*             172481               00.0000000000E+003.3296294954E+01+
*       -3.300000000E+02               0
GRID*             172482               00.0000000000E+003.0259257846E+01+
*       -3.300000000E+02               0
GRID*             172483               00.0000000000E+002.7222220739E+01+
*       -3.300000000E+02               0
GRID*             172484               00.0000000000E+002.4185183631E+01+
*       -3.300000000E+02               0
GRID*             172485               00.0000000000E+002.1148146523E+01+
*       -3.300000000E+02               0
GRID*             172486               00.0000000000E+001.8111109416E+01+
*       -3.300000000E+02               0
GRID*             172487               00.0000000000E+001.5074072308E+01+
*       -3.300000000E+02               0
GRID*             172488               00.0000000000E+001.2037035200E+01+
*       -3.300000000E+02               0
GRID*             172489               00.0000000000E+008.9481481446E+01+
*       -3.300000000E+02               0
GRID*             172490               00.0000000000E+008.6444444338E+01+
*       -3.300000000E+02               0
GRID*             172491               00.0000000000E+008.3407407231E+01+
*       -3.300000000E+02               0
GRID*             172492               00.0000000000E+008.0370370123E+01+
*       -3.300000000E+02               0
GRID*             172493               00.0000000000E+007.7333333015E+01+
*       -3.300000000E+02               0
GRID*             172494               00.0000000000E+007.4296295908E+01+
*       -3.300000000E+02               0
GRID*             172495               00.0000000000E+007.1259258800E+01+
*       -3.300000000E+02               0
GRID*             172496               00.0000000000E+006.8222221692E+01+
*       -3.300000000E+02               0
GRID*             172497               00.0000000000E+006.5185184585E+01+
*       -3.300000000E+02               0
GRID*             172498               00.0000000000E+006.2148147477E+01+
*       -3.300000000E+02               0
GRID*             172499               00.0000000000E+005.9111110369E+01+
*       -3.300000000E+02               0
GRID*             172500               00.0000000000E+005.6074073262E+01+
*       -3.300000000E+02               0
GRID*             172501               00.0000000000E+005.3037036154E+01+
*       -3.300000000E+02               0
GRID*             172502               00.0000000000E+004.9999999046E+01+
*       -3.300000000E+02               0
GRID*             172503               00.0000000000E+004.6962961939E+01+
*       -3.300000000E+02               0
GRID*             172504               00.0000000000E+004.3925924831E+01+
*       -3.300000000E+02               0
GRID*             172505               00.0000000000E+004.0888887723E+01+
*       -3.300000000E+02               0
GRID*             172506               00.0000000000E+003.7851850616E+01+
*       -3.300000000E+02               0
GRID*             172507               00.0000000000E+003.4814813508E+01+
*       -3.300000000E+02               0
GRID*             172508               00.0000000000E+003.1777776400E+01+
*       -3.300000000E+02               0
GRID*             172509               00.0000000000E+002.8740739293E+01+
*       -3.300000000E+02               0
GRID*             172510               00.0000000000E+002.5703702185E+01+
*       -3.300000000E+02               0
GRID*             172511               00.0000000000E+002.2666665077E+01+
*       -3.300000000E+02               0
GRID*             172512               00.0000000000E+001.9629627970E+01+
*       -3.300000000E+02               0
GRID*             172513               00.0000000000E+001.6592590862E+01+
*       -3.300000000E+02               0
GRID*             172514               00.0000000000E+001.3555553754E+01+
*       -3.300000000E+02               0
GRID*             172515               00.0000000000E+001.0518516646E+01+
*       -3.300000000E+02               0
GRID*             172516               00.0000000000E+001.2037035200E+01+
*       -1.000000000E+01               0
GRID*             172517               00.0000000000E+001.5074072308E+01+
*       -1.000000000E+01               0
GRID*             172518               00.0000000000E+001.8111109416E+01+
*       -1.000000000E+01               0
GRID*             172519               00.0000000000E+002.1148146523E+01+
*       -1.000000000E+01               0
GRID*             172520               00.0000000000E+002.4185183631E+01+
*       -1.000000000E+01               0
GRID*             172521               00.0000000000E+002.7222220739E+01+
*       -1.000000000E+01               0
GRID*             172522               00.0000000000E+003.0259257846E+01+
*       -1.000000000E+01               0
GRID*             172523               00.0000000000E+003.3296294954E+01+
*       -1.000000000E+01               0
GRID*             172524               00.0000000000E+003.6333332062E+01+
*       -1.000000000E+01               0
GRID*             172525               00.0000000000E+003.9370369169E+01+
*       -1.000000000E+01               0
GRID*             172526               00.0000000000E+004.2407406277E+01+
*       -1.000000000E+01               0
GRID*             172527               00.0000000000E+004.5444443385E+01+
*       -1.000000000E+01               0
GRID*             172528               00.0000000000E+004.8481480492E+01+
*       -1.000000000E+01               0
GRID*             172529               00.0000000000E+005.1518517600E+01+
*       -1.000000000E+01               0
GRID*             172530               00.0000000000E+005.4555554708E+01+
*       -1.000000000E+01               0
GRID*             172531               00.0000000000E+005.7592591816E+01+
*       -1.000000000E+01               0
GRID*             172532               00.0000000000E+006.0629628923E+01+
*       -1.000000000E+01               0
GRID*             172533               00.0000000000E+006.3666666031E+01+
*       -1.000000000E+01               0
GRID*             172534               00.0000000000E+006.6703703139E+01+
*       -1.000000000E+01               0
GRID*             172535               00.0000000000E+006.9740740246E+01+
*       -1.000000000E+01               0
GRID*             172536               00.0000000000E+007.2777777354E+01+
*       -1.000000000E+01               0
GRID*             172537               00.0000000000E+007.5814814462E+01+
*       -1.000000000E+01               0
GRID*             172538               00.0000000000E+007.8851851569E+01+
*       -1.000000000E+01               0
GRID*             172539               00.0000000000E+008.1888888677E+01+
*       -1.000000000E+01               0
GRID*             172540               00.0000000000E+008.4925925785E+01+
*       -1.000000000E+01               0
GRID*             172541               00.0000000000E+008.7962962892E+01+
*       -1.000000000E+01               0
GRID*             172542               00.0000000000E+001.0518516646E+01+
*       -1.000000000E+01               0
GRID*             172543               00.0000000000E+001.3555553754E+01+
*       -1.000000000E+01               0
GRID*             172544               00.0000000000E+001.6592590862E+01+
*       -1.000000000E+01               0
GRID*             172545               00.0000000000E+001.9629627970E+01+
*       -1.000000000E+01               0
GRID*             172546               00.0000000000E+002.2666665077E+01+
*       -1.000000000E+01               0
GRID*             172547               00.0000000000E+002.5703702185E+01+
*       -1.000000000E+01               0
GRID*             172548               00.0000000000E+002.8740739293E+01+
*       -1.000000000E+01               0
GRID*             172549               00.0000000000E+003.1777776400E+01+
*       -1.000000000E+01               0
GRID*             172550               00.0000000000E+003.4814813508E+01+
*       -1.000000000E+01               0
GRID*             172551               00.0000000000E+003.7851850616E+01+
*       -1.000000000E+01               0
GRID*             172552               00.0000000000E+004.0888887723E+01+
*       -1.000000000E+01               0
GRID*             172553               00.0000000000E+004.3925924831E+01+
*       -1.000000000E+01               0
GRID*             172554               00.0000000000E+004.6962961939E+01+
*       -1.000000000E+01               0
GRID*             172555               00.0000000000E+004.9999999046E+01+
*       -1.000000000E+01               0
GRID*             172556               00.0000000000E+005.3037036154E+01+
*       -1.000000000E+01               0
GRID*             172557               00.0000000000E+005.6074073262E+01+
*       -1.000000000E+01               0
GRID*             172558               00.0000000000E+005.9111110369E+01+
*       -1.000000000E+01               0
GRID*             172559               00.0000000000E+006.2148147477E+01+
*       -1.000000000E+01               0
GRID*             172560               00.0000000000E+006.5185184585E+01+
*       -1.000000000E+01               0
GRID*             172561               00.0000000000E+006.8222221692E+01+
*       -1.000000000E+01               0
GRID*             172562               00.0000000000E+007.1259258800E+01+
*       -1.000000000E+01               0
GRID*             172563               00.0000000000E+007.4296295908E+01+
*       -1.000000000E+01               0
GRID*             172564               00.0000000000E+007.7333333015E+01+
*       -1.000000000E+01               0
GRID*             172565               00.0000000000E+008.0370370123E+01+
*       -1.000000000E+01               0
GRID*             172566               00.0000000000E+008.3407407231E+01+
*       -1.000000000E+01               0
GRID*             172567               00.0000000000E+008.6444444338E+01+
*       -1.000000000E+01               0
GRID*             172568               00.0000000000E+008.9481481446E+01+
*       -1.000000000E+01               0
GRID*             173426               00.0000000000E+009.1000000000E+01+
*       -2.259722222E+02               0
GRID*             173427               00.0000000000E+009.1000000000E+01+
*       -2.289444444E+02               0
GRID*             173428               00.0000000000E+009.1000000000E+01+
*       -2.319166667E+02               0
GRID*             173429               00.0000000000E+009.1000000000E+01+
*       -2.348888889E+02               0
GRID*             173430               00.0000000000E+009.1000000000E+01+
*       -2.378611111E+02               0
GRID*             173431               00.0000000000E+009.1000000000E+01+
*       -2.408333333E+02               0
GRID*             173432               00.0000000000E+009.1000000000E+01+
*       -2.438055556E+02               0
GRID*             173433               00.0000000000E+009.1000000000E+01+
*       -2.467777778E+02               0
GRID*             173434               00.0000000000E+009.1000000000E+01+
*       -2.497500000E+02               0
GRID*             173435               00.0000000000E+009.1000000000E+01+
*       -2.527222222E+02               0
GRID*             173436               00.0000000000E+009.1000000000E+01+
*       -2.556944444E+02               0
GRID*             173437               00.0000000000E+009.1000000000E+01+
*       -2.586666667E+02               0
GRID*             173438               00.0000000000E+009.1000000000E+01+
*       -2.616388889E+02               0
GRID*             173439               00.0000000000E+009.1000000000E+01+
*       -2.646111111E+02               0
GRID*             173440               00.0000000000E+009.1000000000E+01+
*       -2.675833333E+02               0
GRID*             173441               00.0000000000E+009.1000000000E+01+
*       -2.705555556E+02               0
GRID*             173442               00.0000000000E+009.1000000000E+01+
*       -2.735277778E+02               0
GRID*             173443               00.0000000000E+009.1000000000E+01+
*       -2.765000000E+02               0
GRID*             173444               00.0000000000E+009.1000000000E+01+
*       -2.794722222E+02               0
GRID*             173445               00.0000000000E+009.1000000000E+01+
*       -2.824444444E+02               0
GRID*             173446               00.0000000000E+009.1000000000E+01+
*       -2.854166667E+02               0
GRID*             173447               00.0000000000E+009.1000000000E+01+
*       -2.883888889E+02               0
GRID*             173448               00.0000000000E+009.1000000000E+01+
*       -2.913611111E+02               0
GRID*             173449               00.0000000000E+009.1000000000E+01+
*       -2.943333333E+02               0
GRID*             173450               00.0000000000E+009.1000000000E+01+
*       -2.973055556E+02               0
GRID*             173451               00.0000000000E+009.1000000000E+01+
*       -3.002777778E+02               0
GRID*             173452               00.0000000000E+009.1000000000E+01+
*       -3.032500000E+02               0
GRID*             173453               00.0000000000E+009.1000000000E+01+
*       -3.062222222E+02               0
GRID*             173454               00.0000000000E+009.1000000000E+01+
*       -3.091944444E+02               0
GRID*             173455               00.0000000000E+009.1000000000E+01+
*       -3.121666667E+02               0
GRID*             173456               00.0000000000E+009.1000000000E+01+
*       -3.151388889E+02               0
GRID*             173457               00.0000000000E+009.1000000000E+01+
*       -3.181111111E+02               0
GRID*             173458               00.0000000000E+009.1000000000E+01+
*       -3.210833333E+02               0
GRID*             173459               00.0000000000E+009.1000000000E+01+
*       -3.240555556E+02               0
GRID*             173460               00.0000000000E+009.1000000000E+01+
*       -3.270277778E+02               0
GRID*             173461               00.0000000000E+009.1000000000E+01+
*       -3.285138889E+02               0
GRID*             173462               00.0000000000E+009.1000000000E+01+
*       -3.255416667E+02               0
GRID*             173463               00.0000000000E+009.1000000000E+01+
*       -3.225694444E+02               0
GRID*             173464               00.0000000000E+009.1000000000E+01+
*       -3.195972222E+02               0
GRID*             173465               00.0000000000E+009.1000000000E+01+
*       -3.166250000E+02               0
GRID*             173466               00.0000000000E+009.1000000000E+01+
*       -3.136527778E+02               0
GRID*             173467               00.0000000000E+009.1000000000E+01+
*       -3.106805556E+02               0
GRID*             173468               00.0000000000E+009.1000000000E+01+
*       -3.077083333E+02               0
GRID*             173469               00.0000000000E+009.1000000000E+01+
*       -3.047361111E+02               0
GRID*             173470               00.0000000000E+009.1000000000E+01+
*       -3.017638889E+02               0
GRID*             173471               00.0000000000E+009.1000000000E+01+
*       -2.987916667E+02               0
GRID*             173472               00.0000000000E+009.1000000000E+01+
*       -2.958194444E+02               0
GRID*             173473               00.0000000000E+009.1000000000E+01+
*       -2.928472222E+02               0
GRID*             173474               00.0000000000E+009.1000000000E+01+
*       -2.898750000E+02               0
GRID*             173475               00.0000000000E+009.1000000000E+01+
*       -2.869027778E+02               0
GRID*             173476               00.0000000000E+009.1000000000E+01+
*       -2.839305556E+02               0
GRID*             173477               00.0000000000E+009.1000000000E+01+
*       -2.809583333E+02               0
GRID*             173478               00.0000000000E+009.1000000000E+01+
*       -2.779861111E+02               0
GRID*             173479               00.0000000000E+009.1000000000E+01+
*       -2.750138889E+02               0
GRID*             173480               00.0000000000E+009.1000000000E+01+
*       -2.720416667E+02               0
GRID*             173481               00.0000000000E+009.1000000000E+01+
*       -2.690694444E+02               0
GRID*             173482               00.0000000000E+009.1000000000E+01+
*       -2.660972222E+02               0
GRID*             173483               00.0000000000E+009.1000000000E+01+
*       -2.631250000E+02               0
GRID*             173484               00.0000000000E+009.1000000000E+01+
*       -2.601527778E+02               0
GRID*             173485               00.0000000000E+009.1000000000E+01+
*       -2.571805556E+02               0
GRID*             173486               00.0000000000E+009.1000000000E+01+
*       -2.542083333E+02               0
GRID*             173487               00.0000000000E+009.1000000000E+01+
*       -2.512361111E+02               0
GRID*             173488               00.0000000000E+009.1000000000E+01+
*       -2.482638889E+02               0
GRID*             173489               00.0000000000E+009.1000000000E+01+
*       -2.452916667E+02               0
GRID*             173490               00.0000000000E+009.1000000000E+01+
*       -2.423194444E+02               0
GRID*             173491               00.0000000000E+009.1000000000E+01+
*       -2.393472222E+02               0
GRID*             173492               00.0000000000E+009.1000000000E+01+
*       -2.363750000E+02               0
GRID*             173493               00.0000000000E+009.1000000000E+01+
*       -2.334027778E+02               0
GRID*             173494               00.0000000000E+009.1000000000E+01+
*       -2.304305556E+02               0
GRID*             173495               00.0000000000E+009.1000000000E+01+
*       -2.274583333E+02               0
GRID*             173496               00.0000000000E+009.1000000000E+01+
*       -2.244861111E+02               0
GRID*             162863               00.0000000000E+008.7870341068E+01+
*       -1.284619035E+01               0
GRID*             162864               00.0000000000E+008.7632578886E+01+
*       -1.586043797E+01               0
GRID*             162865               00.0000000000E+008.8009429677E+01+
*       -1.884622038E+01               0
GRID*             162866               00.0000000000E+008.8185666041E+01+
*       -2.189152208E+01               0
GRID*             162867               00.0000000000E+008.8384651963E+01+
*       -2.481345791E+01               0
GRID*             162868               00.0000000000E+008.8963967658E+01+
*       -2.763242501E+01               0
GRID*             162869               00.0000000000E+008.8521386664E+01+
*       -3.028367868E+01               0
GRID*             162870               00.0000000000E+008.8293148386E+01+
*       -3.335906693E+01               0
GRID*             162871               00.0000000000E+008.8139305579E+01+
*       -3.645852955E+01               0
GRID*             162872               00.0000000000E+008.8043882460E+01+
*       -3.954080940E+01               0
GRID*             162873               00.0000000000E+008.7991095482E+01+
*       -4.259668253E+01               0
GRID*             162874               00.0000000000E+008.7964276815E+01+
*       -4.562814715E+01               0
GRID*             162875               00.0000000000E+008.7952196096E+01+
*       -4.864060359E+01               0
GRID*             162876               00.0000000000E+008.7947964637E+01+
*       -5.163955120E+01               0
GRID*             162877               00.0000000000E+008.7947658887E+01+
*       -5.462945731E+01               0
GRID*             162878               00.0000000000E+008.7949195185E+01+
*       -5.761360638E+01               0
GRID*             162879               00.0000000000E+008.7951561597E+01+
*       -6.059429568E+01               0
GRID*             162880               00.0000000000E+008.7954339650E+01+
*       -6.357309930E+01               0
GRID*             162881               00.0000000000E+008.7957483835E+01+
*       -6.655102596E+01               0
GRID*             162882               00.0000000000E+008.7960490422E+01+
*       -6.952961897E+01               0
GRID*             162883               00.0000000000E+008.7964176047E+01+
*       -7.250896454E+01               0
GRID*             162884               00.0000000000E+008.7968973785E+01+
*       -7.548973137E+01               0
GRID*             162885               00.0000000000E+008.7975731821E+01+
*       -7.847215724E+01               0
GRID*             162886               00.0000000000E+008.7985537766E+01+
*       -8.145622936E+01               0
GRID*             162887               00.0000000000E+008.7999594369E+01+
*       -8.444169219E+01               0
GRID*             162888               00.0000000000E+008.8019041376E+01+
*       -8.742804180E+01               0
GRID*             162889               00.0000000000E+008.8044699237E+01+
*       -9.041460571E+01               0
GRID*             162890               00.0000000000E+008.8076789217E+01+
*       -9.340074177E+01               0
GRID*             162891               00.0000000000E+008.8114932998E+01+
*       -9.638605130E+01               0
GRID*             162892               00.0000000000E+008.8158734069E+01+
*       -9.937052726E+01               0
GRID*             162893               00.0000000000E+008.8208717211E+01+
*       -1.023552431E+02               0
GRID*             162894               00.0000000000E+008.8266959095E+01+
*       -1.053461129E+02               0
GRID*             162895               00.0000000000E+008.8336805832E+01+
*       -1.083732740E+02               0
GRID*             162896               00.0000000000E+008.8418986727E+01+
*       -1.116165852E+02               0
GRID*             162897               00.0000000000E+008.9253815545E+01+
*       -1.144161864E+02               0
GRID*             162898               00.0000000000E+008.7738322200E+01+
*       -1.148476733E+02               0
GRID*             162899               00.0000000000E+008.6201363977E+01+
*       -1.149813634E+02               0
GRID*             162900               00.0000000000E+008.4579209224E+01+
*       -1.149673724E+02               0
GRID*             162901               00.0000000000E+008.2827914939E+01+
*       -1.167105563E+02               0
GRID*             162902               00.0000000000E+008.2988474781E+01+
*       -1.185596420E+02               0
GRID*             162903               00.0000000000E+008.3201027214E+01+
*       -1.202287207E+02               0
GRID*             162904               00.0000000000E+008.3429001271E+01+
*       -1.217428617E+02               0
GRID*             162905               00.0000000000E+008.3269068565E+01+
*       -1.233700988E+02               0
GRID*             162906               00.0000000000E+008.4783514827E+01+
*       -1.250730106E+02               0
GRID*             162907               00.0000000000E+008.6331034797E+01+
*       -1.250366729E+02               0
GRID*             162908               00.0000000000E+008.7827916154E+01+
*       -1.251653934E+02               0
GRID*             162909               00.0000000000E+008.9308096616E+01+
*       -1.256069996E+02               0
GRID*             162910               00.0000000000E+008.8538718424E+01+
*       -1.284493629E+02               0
GRID*             162911               00.0000000000E+008.8461238045E+01+
*       -1.318017225E+02               0
GRID*             162912               00.0000000000E+008.8391404104E+01+
*       -1.349120967E+02               0
GRID*             162913               00.0000000000E+008.8332477797E+01+
*       -1.379772820E+02               0
GRID*             162914               00.0000000000E+008.8282451848E+01+
*       -1.410304156E+02               0
GRID*             162915               00.0000000000E+008.8239468558E+01+
*       -1.440791060E+02               0
GRID*             162916               00.0000000000E+008.8202234824E+01+
*       -1.471256709E+02               0
GRID*             162917               00.0000000000E+008.8169834607E+01+
*       -1.501710798E+02               0
GRID*             162918               00.0000000000E+008.8141581265E+01+
*       -1.532159048E+02               0
GRID*             162919               00.0000000000E+008.8116956182E+01+
*       -1.562605936E+02               0
GRID*             162920               00.0000000000E+008.8095601376E+01+
*       -1.593055485E+02               0
GRID*             162921               00.0000000000E+008.8077336779E+01+
*       -1.623511316E+02               0
GRID*             162922               00.0000000000E+008.8062180451E+01+
*       -1.653976338E+02               0
GRID*             162923               00.0000000000E+008.8050353557E+01+
*       -1.684452253E+02               0
GRID*             162924               00.0000000000E+008.8042253297E+01+
*       -1.714939043E+02               0
GRID*             162925               00.0000000000E+008.8038381938E+01+
*       -1.745434659E+02               0
GRID*             162926               00.0000000000E+008.8039235991E+01+
*       -1.775935174E+02               0
GRID*             162927               00.0000000000E+008.8045188445E+01+
*       -1.806435556E+02               0
GRID*             162928               00.0000000000E+008.8056425111E+01+
*       -1.836930934E+02               0
GRID*             162929               00.0000000000E+008.8072981610E+01+
*       -1.867417879E+02               0
GRID*             162930               00.0000000000E+008.8094821295E+01+
*       -1.897895191E+02               0
GRID*             162931               00.0000000000E+008.8121825492E+01+
*       -1.928364295E+02               0
GRID*             162932               00.0000000000E+008.8153776907E+01+
*       -1.958829559E+02               0
GRID*             162933               00.0000000000E+008.8190696228E+01+
*       -1.989299150E+02               0
GRID*             162934               00.0000000000E+008.8233566963E+01+
*       -2.019792582E+02               0
GRID*             162935               00.0000000000E+008.8284923980E+01+
*       -2.050380545E+02               0
GRID*             162936               00.0000000000E+008.8348629203E+01+
*       -2.081388145E+02               0
GRID*             162937               00.0000000000E+008.8425716397E+01+
*       -2.114744033E+02               0
GRID*             162938               00.0000000000E+008.9258136059E+01+
*       -2.143526267E+02               0
GRID*             162939               00.0000000000E+008.7738005296E+01+
*       -2.147764670E+02               0
GRID*             162940               00.0000000000E+008.6196452413E+01+
*       -2.148967987E+02               0
GRID*             162941               00.0000000000E+008.4566207224E+01+
*       -2.148498490E+02               0
GRID*             162942               00.0000000000E+008.2820211422E+01+
*       -2.165943912E+02               0
GRID*             162943               00.0000000000E+008.2986939086E+01+
*       -2.184769487E+02               0
GRID*             162944               00.0000000000E+008.3201305800E+01+
*       -2.201601963E+02               0
GRID*             162945               00.0000000000E+008.3421216425E+01+
*       -2.216811525E+02               0
GRID*             162946               00.0000000000E+008.3252858789E+01+
*       -2.232916058E+02               0
GRID*             162947               00.0000000000E+008.4778096946E+01+
*       -2.249759184E+02               0
GRID*             162948               00.0000000000E+008.6325613113E+01+
*       -2.249620878E+02               0
GRID*             162949               00.0000000000E+008.7822102118E+01+
*       -2.250992680E+02               0
GRID*             162950               00.0000000000E+008.9300703350E+01+
*       -2.255458250E+02               0
GRID*             162951               00.0000000000E+008.8526495451E+01+
*       -2.283184704E+02               0
GRID*             162952               00.0000000000E+008.8442910036E+01+
*       -2.315862304E+02               0
GRID*             162953               00.0000000000E+008.8369536402E+01+
*       -2.346265988E+02               0
GRID*             162954               00.0000000000E+008.8307054397E+01+
*       -2.376268208E+02               0
GRID*             162955               00.0000000000E+008.8253680830E+01+
*       -2.406175864E+02               0
GRID*             162956               00.0000000000E+008.8207902926E+01+
*       -2.436052116E+02               0
GRID*             162957               00.0000000000E+008.8168682308E+01+
*       -2.465911828E+02               0
GRID*             162958               00.0000000000E+008.8135280184E+01+
*       -2.495758580E+02               0
GRID*             162959               00.0000000000E+008.8107114543E+01+
*       -2.525592741E+02               0
GRID*             162960               00.0000000000E+008.8083672609E+01+
*       -2.555413478E+02               0
GRID*             162961               00.0000000000E+008.8064463588E+01+
*       -2.585219297E+02               0
GRID*             162962               00.0000000000E+008.8049002883E+01+
*       -2.615008406E+02               0
GRID*             162963               00.0000000000E+008.8036820390E+01+
*       -2.644779322E+02               0
GRID*             162964               00.0000000000E+008.8027478022E+01+
*       -2.674531375E+02               0
GRID*             162965               00.0000000000E+008.8020581137E+01+
*       -2.704264648E+02               0
GRID*             162966               00.0000000000E+008.8015780690E+01+
*       -2.733979616E+02               0
GRID*             162967               00.0000000000E+008.8012780105E+01+
*       -2.763677954E+02               0
GRID*             162968               00.0000000000E+008.8011164900E+01+
*       -2.793347869E+02               0
GRID*             162969               00.0000000000E+008.8010863848E+01+
*       -2.823000019E+02               0
GRID*             162970               00.0000000000E+008.8011708646E+01+
*       -2.852630838E+02               0
GRID*             162971               00.0000000000E+008.8013635648E+01+
*       -2.882243655E+02               0
GRID*             162972               00.0000000000E+008.8016664315E+01+
*       -2.911847403E+02               0
GRID*             162973               00.0000000000E+008.8021108597E+01+
*       -2.941462315E+02               0
GRID*             162974               00.0000000000E+008.8028030997E+01+
*       -2.971130392E+02               0
GRID*             162975               00.0000000000E+008.8039759303E+01+
*       -3.000935449E+02               0
GRID*             162976               00.0000000000E+008.8060774904E+01+
*       -3.031045523E+02               0
GRID*             162977               00.0000000000E+008.8105361715E+01+
*       -3.061766644E+02               0
GRID*             162978               00.0000000000E+008.8214219712E+01+
*       -3.093493011E+02               0
GRID*             162979               00.0000000000E+008.8559094268E+01+
*       -3.124692209E+02               0
GRID*             162980               00.0000000000E+008.8582807599E+01+
*       -3.156749927E+02               0
GRID*             162981               00.0000000000E+008.9195705890E+01+
*       -3.183691708E+02               0
GRID*             162982               00.0000000000E+008.8872814171E+01+
*       -3.212038952E+02               0
GRID*             162983               00.0000000000E+008.9058264096E+01+
*       -3.238443140E+02               0
GRID*             162984               00.0000000000E+008.7804017734E+01+
*       -3.264511691E+02               0
GRID*             162985               00.0000000000E+008.4718114213E+01+
*       -3.268548686E+02               0
GRID*             162986               00.0000000000E+008.1965054348E+01+
*       -3.276457842E+02               0
GRID*             162987               00.0000000000E+007.9256926037E+01+
*       -3.271294284E+02               0
GRID*             162988               00.0000000000E+007.6453296017E+01+
*       -3.273613387E+02               0
GRID*             162989               00.0000000000E+007.3155589296E+01+
*       -3.276828511E+02               0
GRID*             162990               00.0000000000E+006.9999438030E+01+
*       -3.277681644E+02               0
GRID*             162991               00.0000000000E+006.6896575296E+01+
*       -3.277771279E+02               0
GRID*             162992               00.0000000000E+006.3819352816E+01+
*       -3.277610883E+02               0
GRID*             162993               00.0000000000E+006.0756344589E+01+
*       -3.277400751E+02               0
GRID*             162994               00.0000000000E+005.7702573748E+01+
*       -3.277215180E+02               0
GRID*             162995               00.0000000000E+005.4655596275E+01+
*       -3.277080309E+02               0
GRID*             162996               00.0000000000E+005.1614058333E+01+
*       -3.277005235E+02               0
GRID*             162997               00.0000000000E+004.8577209542E+01+
*       -3.276992983E+02               0
GRID*             162998               00.0000000000E+004.5544721331E+01+
*       -3.277043729E+02               0
GRID*             162999               00.0000000000E+004.2516577859E+01+
*       -3.277154719E+02               0
GRID*             163000               00.0000000000E+003.9492946149E+01+
*       -3.277317093E+02               0
GRID*             163001               00.0000000000E+003.6473897822E+01+
*       -3.277506722E+02               0
GRID*             163002               00.0000000000E+003.3458455628E+01+
*       -3.277660744E+02               0
GRID*             163003               00.0000000000E+003.0440013815E+01+
*       -3.277616425E+02               0
GRID*             163004               00.0000000000E+002.7380405665E+01+
*       -3.276931540E+02               0
GRID*             163005               00.0000000000E+002.4036308373E+01+
*       -3.274092156E+02               0
GRID*             163006               00.0000000000E+002.1067360884E+01+
*       -3.278557625E+02               0
GRID*             163007               00.0000000000E+001.8100142531E+01+
*       -3.274808085E+02               0
GRID*             163008               00.0000000000E+001.5128209877E+01+
*       -3.277685793E+02               0
GRID*             163009               00.0000000000E+001.2259855679E+01+
*       -3.269722755E+02               0
GRID*             163010               00.0000000000E+001.1684460766E+01+
*       -3.240287825E+02               0
GRID*             163011               00.0000000000E+001.0843143070E+01+
*       -3.212693138E+02               0
GRID*             163012               00.0000000000E+001.1100883680E+01+
*       -3.183331323E+02               0
GRID*             163013               00.0000000000E+001.0873813935E+01+
*       -3.153658649E+02               0
GRID*             163014               00.0000000000E+001.1821844836E+01+
*       -3.126573111E+02               0
GRID*             163015               00.0000000000E+001.1904883870E+01+
*       -3.093423024E+02               0
GRID*             163016               00.0000000000E+001.1973431930E+01+
*       -3.062561776E+02               0
GRID*             163017               00.0000000000E+001.2023142429E+01+
*       -3.032239560E+02               0
GRID*             163018               00.0000000000E+001.2051541990E+01+
*       -3.002108255E+02               0
GRID*             163019               00.0000000000E+001.2064180146E+01+
*       -2.972116400E+02               0
GRID*             163020               00.0000000000E+001.2067091022E+01+
*       -2.942236260E+02               0
GRID*             163021               00.0000000000E+001.2064788636E+01+
*       -2.912438864E+02               0
GRID*             163022               00.0000000000E+001.2060068870E+01+
*       -2.882697412E+02               0
GRID*             163023               00.0000000000E+001.2054426199E+01+
*       -2.852990970E+02               0
GRID*             163024               00.0000000000E+001.2048527017E+01+
*       -2.823305212E+02               0
GRID*             163025               00.0000000000E+001.2042581620E+01+
*       -2.793631298E+02               0
GRID*             163026               00.0000000000E+001.2036576841E+01+
*       -2.763964502E+02               0
GRID*             163027               00.0000000000E+001.2031450942E+01+
*       -2.734285522E+02               0
GRID*             163028               00.0000000000E+001.2026603495E+01+
*       -2.704600851E+02               0
GRID*             163029               00.0000000000E+001.2021909151E+01+
*       -2.674910422E+02               0
GRID*             163030               00.0000000000E+001.2017340946E+01+
*       -2.645213155E+02               0
GRID*             163031               00.0000000000E+001.2012899016E+01+
*       -2.615507373E+02               0
GRID*             163032               00.0000000000E+001.2008589079E+01+
*       -2.585790165E+02               0
GRID*             163033               00.0000000000E+001.2004392917E+01+
*       -2.556056378E+02               0
GRID*             163034               00.0000000000E+001.2000208750E+01+
*       -2.526297197E+02               0
GRID*             163035               00.0000000000E+001.1995730911E+01+
*       -2.496498254E+02               0
GRID*             163036               00.0000000000E+001.1990132975E+01+
*       -2.466636354E+02               0
GRID*             163037               00.0000000000E+001.1981330737E+01+
*       -2.436673062E+02               0
GRID*             163038               00.0000000000E+001.1964941051E+01+
*       -2.406548488E+02               0
GRID*             163039               00.0000000000E+001.1932798041E+01+
*       -2.376188508E+02               0
GRID*             163040               00.0000000000E+001.1869129826E+01+
*       -2.345557494E+02               0
GRID*             163041               00.0000000000E+001.1743456659E+01+
*       -2.314868438E+02               0
GRID*             163042               00.0000000000E+001.1519879546E+01+
*       -2.285335380E+02               0
GRID*             163043               00.0000000000E+001.1474040438E+01+
*       -2.257196665E+02               0
GRID*             163044               00.0000000000E+001.3544184190E+01+
*       -2.254814163E+02               0
GRID*             163045               00.0000000000E+001.5431882284E+01+
*       -2.252236228E+02               0
GRID*             163046               00.0000000000E+001.7058004644E+01+
*       -2.231186349E+02               0
GRID*             163047               00.0000000000E+001.6845242746E+01+
*       -2.214458295E+02               0
GRID*             163048               00.0000000000E+001.6666561919E+01+
*       -2.199303075E+02               0
GRID*             163049               00.0000000000E+001.6910991088E+01+
*       -2.183623644E+02               0
GRID*             163050               00.0000000000E+001.7279304977E+01+
*       -2.164445195E+02               0
GRID*             163051               00.0000000000E+001.5553161571E+01+
*       -2.139673878E+02               0
GRID*             163052               00.0000000000E+001.3495960148E+01+
*       -2.140007523E+02               0
GRID*             163053               00.0000000000E+001.1399405923E+01+
*       -2.139947452E+02               0
GRID*             163054               00.0000000000E+001.1333974555E+01+
*       -2.110034981E+02               0
GRID*             163055               00.0000000000E+001.1375721711E+01+
*       -2.080067386E+02               0
GRID*             163056               00.0000000000E+001.1436714806E+01+
*       -2.049992666E+02               0
GRID*             163057               00.0000000000E+001.1497201553E+01+
*       -2.019845749E+02               0
GRID*             163058               00.0000000000E+001.1553480204E+01+
*       -1.989669777E+02               0
GRID*             163059               00.0000000000E+001.1606135288E+01+
*       -1.959486565E+02               0
GRID*             163060               00.0000000000E+001.1656662909E+01+
*       -1.929295493E+02               0
GRID*             163061               00.0000000000E+001.1706022515E+01+
*       -1.899080941E+02               0
GRID*             163062               00.0000000000E+001.1753907688E+01+
*       -1.868822121E+02               0
GRID*             163063               00.0000000000E+001.1798825558E+01+
*       -1.838503819E+02               0
GRID*             163064               00.0000000000E+001.1838929410E+01+
*       -1.808124273E+02               0
GRID*             163065               00.0000000000E+001.1873056836E+01+
*       -1.777694318E+02               0
GRID*             163066               00.0000000000E+001.1900896034E+01+
*       -1.747230174E+02               0
GRID*             163067               00.0000000000E+001.1922812430E+01+
*       -1.716747942E+02               0
GRID*             163068               00.0000000000E+001.1939647551E+01+
*       -1.686260615E+02               0
GRID*             163069               00.0000000000E+001.1952461320E+01+
*       -1.655776502E+02               0
GRID*             163070               00.0000000000E+001.1962292134E+01+
*       -1.625298797E+02               0
GRID*             163071               00.0000000000E+001.1969994315E+01+
*       -1.594825819E+02               0
GRID*             163072               00.0000000000E+001.1976153838E+01+
*       -1.564351290E+02               0
GRID*             163073               00.0000000000E+001.1981043714E+01+
*       -1.533864042E+02               0
GRID*             163074               00.0000000000E+001.1984560612E+01+
*       -1.503346849E+02               0
GRID*             163075               00.0000000000E+001.1985972479E+01+
*       -1.472773234E+02               0
GRID*             163076               00.0000000000E+001.1983175143E+01+
*       -1.442099727E+02               0
GRID*             163077               00.0000000000E+001.1971512076E+01+
*       -1.411256816E+02               0
GRID*             163078               00.0000000000E+001.1942082830E+01+
*       -1.380153484E+02               0
GRID*             163079               00.0000000000E+001.1877652525E+01+
*       -1.348731682E+02               0
GRID*             163080               00.0000000000E+001.1745222305E+01+
*       -1.317201358E+02               0
GRID*             163081               00.0000000000E+001.1508733005E+01+
*       -1.286858568E+02               0
GRID*             163082               00.0000000000E+001.1460379035E+01+
*       -1.257985087E+02               0
GRID*             163083               00.0000000000E+001.3531632304E+01+
*       -1.255795678E+02               0
GRID*             163084               00.0000000000E+001.5429983531E+01+
*       -1.253529280E+02               0
GRID*             163085               00.0000000000E+001.7077145941E+01+
*       -1.232352842E+02               0
GRID*             163086               00.0000000000E+001.6859335260E+01+
*       -1.215278073E+02               0
GRID*             163087               00.0000000000E+001.6690404202E+01+
*       -1.199972245E+02               0
GRID*             163088               00.0000000000E+001.6949911766E+01+
*       -1.184380707E+02               0
GRID*             163089               00.0000000000E+001.7329888841E+01+
*       -1.165628151E+02               0
GRID*             163090               00.0000000000E+001.5594884505E+01+
*       -1.141260577E+02               0
GRID*             163091               00.0000000000E+001.3528523010E+01+
*       -1.141155804E+02               0
GRID*             163092               00.0000000000E+001.1422462441E+01+
*       -1.140805381E+02               0
GRID*             163093               00.0000000000E+001.1363439825E+01+
*       -1.111625722E+02               0
GRID*             163094               00.0000000000E+001.1413073597E+01+
*       -1.082340502E+02               0
GRID*             163095               00.0000000000E+001.1483889657E+01+
*       -1.052917809E+02               0
GRID*             163096               00.0000000000E+001.1555378960E+01+
*       -1.023393785E+02               0
GRID*             163097               00.0000000000E+001.1623058685E+01+
*       -9.938070382E+01               0
GRID*             163098               00.0000000000E+001.1686490886E+01+
*       -9.641754050E+01               0
GRID*             163099               00.0000000000E+001.1745733080E+01+
*       -9.344984094E+01               0
GRID*             163100               00.0000000000E+001.1800092365E+01+
*       -9.047681497E+01               0
GRID*             163101               00.0000000000E+001.1848136710E+01+
*       -8.749812894E+01               0
GRID*             163102               00.0000000000E+001.1888477238E+01+
*       -8.451461931E+01               0
GRID*             163103               00.0000000000E+001.1920644766E+01+
*       -8.152806155E+01               0
GRID*             163104               00.0000000000E+001.1945127436E+01+
*       -7.854035665E+01               0
GRID*             163105               00.0000000000E+001.1962969825E+01+
*       -7.555297085E+01               0
GRID*             163106               00.0000000000E+001.1975368176E+01+
*       -7.256678031E+01               0
GRID*             163107               00.0000000000E+001.1983417280E+01+
*       -6.958209562E+01               0
GRID*             163108               00.0000000000E+001.1988132695E+01+
*       -6.660042227E+01               0
GRID*             163109               00.0000000000E+001.1990429903E+01+
*       -6.362282754E+01               0
GRID*             163110               00.0000000000E+001.1990717966E+01+
*       -6.064733165E+01               0
GRID*             163111               00.0000000000E+001.1989407740E+01+
*       -5.767404747E+01               0
GRID*             163112               00.0000000000E+001.1986728477E+01+
*       -5.470253546E+01               0
GRID*             163113               00.0000000000E+001.1982781185E+01+
*       -5.173182485E+01               0
GRID*             163114               00.0000000000E+001.1977369615E+01+
*       -4.875992001E+01               0
GRID*             163115               00.0000000000E+001.1969591897E+01+
*       -4.578287044E+01               0
GRID*             163116               00.0000000000E+001.1957406761E+01+
*       -4.279297482E+01               0
GRID*             163117               00.0000000000E+001.1936907186E+01+
*       -3.977497022E+01               0
GRID*             163118               00.0000000000E+001.1895191869E+01+
*       -3.670037797E+01               0
GRID*             163119               00.0000000000E+001.1794579383E+01+
*       -3.353449697E+01               0
GRID*             163120               00.0000000000E+001.1456477169E+01+
*       -3.046095203E+01               0
GRID*             163121               00.0000000000E+001.1412144747E+01+
*       -2.750685242E+01               0
GRID*             163122               00.0000000000E+001.1692109766E+01+
*       -2.477649877E+01               0
GRID*             163123               00.0000000000E+001.1791294098E+01+
*       -2.178811126E+01               0
GRID*             163124               00.0000000000E+001.1835986713E+01+
*       -1.877155845E+01               0
GRID*             163125               00.0000000000E+001.1307751025E+01+
*       -1.604518724E+01               0
GRID*             163126               00.0000000000E+001.2377171765E+01+
*       -1.337841033E+01               0
GRID*             163127               00.0000000000E+001.5478412583E+01+
*       -1.262218878E+01               0
GRID*             163128               00.0000000000E+001.8218444890E+01+
*       -1.249944493E+01               0
GRID*             163129               00.0000000000E+002.0970863220E+01+
*       -1.266925450E+01               0
GRID*             163130               00.0000000000E+002.3821754857E+01+
*       -1.265399922E+01               0
GRID*             163131               00.0000000000E+002.6834861375E+01+
*       -1.260178686E+01               0
GRID*             163132               00.0000000000E+002.9909214156E+01+
*       -1.259901155E+01               0
GRID*             163133               00.0000000000E+003.3008762036E+01+
*       -1.260974522E+01               0
GRID*             163134               00.0000000000E+003.6105133702E+01+
*       -1.262304328E+01               0
GRID*             163135               00.0000000000E+003.9189833028E+01+
*       -1.263487525E+01               0
GRID*             163136               00.0000000000E+004.2262685591E+01+
*       -1.264390276E+01               0
GRID*             163137               00.0000000000E+004.5325891307E+01+
*       -1.264977859E+01               0
GRID*             163138               00.0000000000E+004.8381859279E+01+
*       -1.265266293E+01               0
GRID*             163139               00.0000000000E+005.1432734798E+01+
*       -1.265311476E+01               0
GRID*             163140               00.0000000000E+005.4480507229E+01+
*       -1.265187640E+01               0
GRID*             163141               00.0000000000E+005.7527304392E+01+
*       -1.264923002E+01               0
GRID*             163142               00.0000000000E+006.0576449547E+01+
*       -1.264581926E+01               0
GRID*             163143               00.0000000000E+006.3633990072E+01+
*       -1.264279294E+01               0
GRID*             163144               00.0000000000E+006.6711764351E+01+
*       -1.264145066E+01               0
GRID*             163145               00.0000000000E+006.9833136367E+01+
*       -1.264099896E+01               0
GRID*             163146               00.0000000000E+007.3030504643E+01+
*       -1.262313630E+01               0
GRID*             163147               00.0000000000E+007.6091938097E+01+
*       -1.238501002E+01               0
GRID*             163148               00.0000000000E+007.8982853480E+01+
*       -1.234182097E+01               0
GRID*             163149               00.0000000000E+008.1929304764E+01+
*       -1.250192359E+01               0
GRID*             163150               00.0000000000E+008.4901447258E+01+
*       -1.253511480E+01               0
GRID*             163151               00.0000000000E+008.6400001526E+01+
*       -1.964999962E+01               0
GRID*             163152               00.0000000000E+008.4900001526E+01+
*       -1.814999962E+01               0
GRID*             163153               00.0000000000E+008.3400001526E+01+
*       -1.814999962E+01               0
GRID*             163154               00.0000000000E+008.1900001526E+01+
*       -1.814999962E+01               0
GRID*             163155               00.0000000000E+008.0400001526E+01+
*       -1.814999962E+01               0
GRID*             163156               00.0000000000E+007.8900001526E+01+
*       -1.814999962E+01               0
GRID*             163157               00.0000000000E+007.7400001526E+01+
*       -1.964999962E+01               0
GRID*             163158               00.0000000000E+007.7400001526E+01+
*       -2.114999962E+01               0
GRID*             163159               00.0000000000E+007.7400001526E+01+
*       -2.264999962E+01               0
GRID*             163160               00.0000000000E+007.7400001526E+01+
*       -2.414999962E+01               0
GRID*             163161               00.0000000000E+007.7400001526E+01+
*       -2.564999962E+01               0
GRID*             163162               00.0000000000E+007.8900001526E+01+
*       -2.714999962E+01               0
GRID*             163163               00.0000000000E+008.0400001526E+01+
*       -2.714999962E+01               0
GRID*             163164               00.0000000000E+008.1900001526E+01+
*       -2.714999962E+01               0
GRID*             163165               00.0000000000E+008.3400001526E+01+
*       -2.714999962E+01               0
GRID*             163166               00.0000000000E+008.4900001526E+01+
*       -2.714999962E+01               0
GRID*             163167               00.0000000000E+008.6400001526E+01+
*       -2.564999962E+01               0
GRID*             163168               00.0000000000E+008.6400001526E+01+
*       -2.414999962E+01               0
GRID*             163169               00.0000000000E+008.6400001526E+01+
*       -2.264999962E+01               0
GRID*             163170               00.0000000000E+008.6400001526E+01+
*       -2.114999962E+01               0
GRID*             163171               00.0000000000E+008.6400001526E+01+
*       -3.200000000E+02               0
GRID*             163172               00.0000000000E+008.6400001526E+01+
*       -3.185000000E+02               0
GRID*             163173               00.0000000000E+008.6400001526E+01+
*       -3.170000000E+02               0
GRID*             163174               00.0000000000E+008.4900001526E+01+
*       -3.155000000E+02               0
GRID*             163175               00.0000000000E+008.3400001526E+01+
*       -3.155000000E+02               0
GRID*             163176               00.0000000000E+008.1900001526E+01+
*       -3.155000000E+02               0
GRID*             163177               00.0000000000E+008.0400001526E+01+
*       -3.155000000E+02               0
GRID*             163178               00.0000000000E+007.8900001526E+01+
*       -3.155000000E+02               0
GRID*             163179               00.0000000000E+007.7400001526E+01+
*       -3.170000000E+02               0
GRID*             163180               00.0000000000E+007.7400001526E+01+
*       -3.185000000E+02               0
GRID*             163181               00.0000000000E+007.7400001526E+01+
*       -3.200000000E+02               0
GRID*             163182               00.0000000000E+007.7400001526E+01+
*       -3.215000000E+02               0
GRID*             163183               00.0000000000E+007.7400001526E+01+
*       -3.230000000E+02               0
GRID*             163184               00.0000000000E+007.8900001526E+01+
*       -3.245000000E+02               0
GRID*             163185               00.0000000000E+008.0400001526E+01+
*       -3.245000000E+02               0
GRID*             163186               00.0000000000E+008.1900001526E+01+
*       -3.245000000E+02               0
GRID*             163187               00.0000000000E+008.3400001526E+01+
*       -3.245000000E+02               0
GRID*             163188               00.0000000000E+008.4900001526E+01+
*       -3.245000000E+02               0
GRID*             163189               00.0000000000E+008.6400001526E+01+
*       -3.230000000E+02               0
GRID*             163190               00.0000000000E+008.6400001526E+01+
*       -3.215000000E+02               0
GRID*             163191               00.0000000000E+001.3599995136E+01+
*       -3.230000000E+02               0
GRID*             163192               00.0000000000E+001.5099996567E+01+
*       -3.245000014E+02               0
GRID*             163193               00.0000000000E+001.6599999428E+01+
*       -3.245000014E+02               0
GRID*             163194               00.0000000000E+001.8100002289E+01+
*       -3.245000014E+02               0
GRID*             163195               00.0000000000E+001.9600002289E+01+
*       -3.245000007E+02               0
GRID*             163196               00.0000000000E+002.1100002289E+01+
*       -3.245000000E+02               0
GRID*             163197               00.0000000000E+002.2600002289E+01+
*       -3.230000000E+02               0
GRID*             163198               00.0000000000E+002.2600002289E+01+
*       -3.215000000E+02               0
GRID*             163199               00.0000000000E+002.2600002289E+01+
*       -3.200000000E+02               0
GRID*             163200               00.0000000000E+002.2600002289E+01+
*       -3.185000000E+02               0
GRID*             163201               00.0000000000E+002.2600002289E+01+
*       -3.170000000E+02               0
GRID*             163202               00.0000000000E+002.1100002289E+01+
*       -3.155000000E+02               0
GRID*             163203               00.0000000000E+001.9600002289E+01+
*       -3.154999993E+02               0
GRID*             163204               00.0000000000E+001.8100002289E+01+
*       -3.154999986E+02               0
GRID*             163205               00.0000000000E+001.6599999428E+01+
*       -3.154999986E+02               0
GRID*             163206               00.0000000000E+001.5099996567E+01+
*       -3.154999986E+02               0
GRID*             163207               00.0000000000E+001.3599995136E+01+
*       -3.170000000E+02               0
GRID*             163208               00.0000000000E+001.3599995852E+01+
*       -3.185000000E+02               0
GRID*             163209               00.0000000000E+001.3599996567E+01+
*       -3.200000000E+02               0
GRID*             163210               00.0000000000E+001.3599995852E+01+
*       -3.215000000E+02               0
GRID*             163211               00.0000000000E+001.8100002289E+01+
*       -1.814999819E+01               0
GRID*             163212               00.0000000000E+001.6599999428E+01+
*       -1.814999819E+01               0
GRID*             163213               00.0000000000E+001.5099996567E+01+
*       -1.814999819E+01               0
GRID*             163214               00.0000000000E+001.3599995136E+01+
*       -1.964999962E+01               0
GRID*             163215               00.0000000000E+001.3599995852E+01+
*       -2.114999962E+01               0
GRID*             163216               00.0000000000E+001.3599996567E+01+
*       -2.264999962E+01               0
GRID*             163217               00.0000000000E+001.3599995852E+01+
*       -2.414999962E+01               0
GRID*             163218               00.0000000000E+001.3599995136E+01+
*       -2.564999962E+01               0
GRID*             163219               00.0000000000E+001.5099996567E+01+
*       -2.715000105E+01               0
GRID*             163220               00.0000000000E+001.6599999428E+01+
*       -2.715000105E+01               0
GRID*             163221               00.0000000000E+001.8100002289E+01+
*       -2.715000105E+01               0
GRID*             163222               00.0000000000E+001.9600002289E+01+
*       -2.715000033E+01               0
GRID*             163223               00.0000000000E+002.1100002289E+01+
*       -2.714999962E+01               0
GRID*             163224               00.0000000000E+002.2600002289E+01+
*       -2.564999962E+01               0
GRID*             163225               00.0000000000E+002.2600002289E+01+
*       -2.414999962E+01               0
GRID*             163226               00.0000000000E+002.2600002289E+01+
*       -2.264999962E+01               0
GRID*             163227               00.0000000000E+002.2600002289E+01+
*       -2.114999962E+01               0
GRID*             163228               00.0000000000E+002.2600002289E+01+
*       -1.964999962E+01               0
GRID*             163229               00.0000000000E+002.1100002289E+01+
*       -1.814999962E+01               0
GRID*             163230               00.0000000000E+001.9600002289E+01+
*       -1.814999890E+01               0
GRID*             163231               00.0000000000E+008.4873206149E+01+
*       -1.489059092E+01               0
GRID*             163232               00.0000000000E+008.6404280816E+01+
*       -1.674187204E+01               0
GRID*             163233               00.0000000000E+008.6400001526E+01+
*       -1.814999962E+01               0
GRID*             163234               00.0000000000E+008.7384235272E+01+
*       -1.968059405E+01               0
GRID*             163235               00.0000000000E+008.7451515432E+01+
*       -2.108299694E+01               0
GRID*             163236               00.0000000000E+008.7448605955E+01+
*       -2.591501660E+01               0
GRID*             163237               00.0000000000E+008.7415702586E+01+
*       -2.757843589E+01               0
GRID*             163238               00.0000000000E+008.5993754469E+01+
*       -2.945839725E+01               0
GRID*             163239               00.0000000000E+008.5565686363E+01+
*       -3.288483900E+01               0
GRID*             163240               00.0000000000E+008.5246509558E+01+
*       -3.616425065E+01               0
GRID*             163241               00.0000000000E+008.5054776307E+01+
*       -3.937552478E+01               0
GRID*             163242               00.0000000000E+008.4957385090E+01+
*       -4.252014887E+01               0
GRID*             163243               00.0000000000E+008.4911328916E+01+
*       -4.560921191E+01               0
GRID*             163244               00.0000000000E+008.4892522329E+01+
*       -4.865825685E+01               0
GRID*             163245               00.0000000000E+008.4887389985E+01+
*       -5.168042762E+01               0
GRID*             163246               00.0000000000E+008.4888729208E+01+
*       -5.468530886E+01               0
GRID*             163247               00.0000000000E+008.4892909141E+01+
*       -5.767950659E+01               0
GRID*             163248               00.0000000000E+008.4898227155E+01+
*       -6.066749826E+01               0
GRID*             163249               00.0000000000E+008.4903966061E+01+
*       -6.365238480E+01               0
GRID*             163250               00.0000000000E+008.4910802984E+01+
*       -6.663519783E+01               0
GRID*             163251               00.0000000000E+008.4916398661E+01+
*       -6.962059819E+01               0
GRID*             163252               00.0000000000E+008.4923823401E+01+
*       -7.260700596E+01               0
GRID*             163253               00.0000000000E+008.4933233370E+01+
*       -7.559675013E+01               0
GRID*             163254               00.0000000000E+008.4946514438E+01+
*       -7.859012873E+01               0
GRID*             163255               00.0000000000E+008.4965969412E+01+
*       -8.158704697E+01               0
GRID*             163256               00.0000000000E+008.4994156262E+01+
*       -8.458686834E+01               0
GRID*             163257               00.0000000000E+008.5033474312E+01+
*       -8.758833549E+01               0
GRID*             163258               00.0000000000E+008.5085507162E+01+
*       -9.058972401E+01               0
GRID*             163259               00.0000000000E+008.5150434253E+01+
*       -9.358927973E+01               0
GRID*             163260               00.0000000000E+008.5227299229E+01+
*       -9.658560551E+01               0
GRID*             163261               00.0000000000E+008.5315246677E+01+
*       -9.957763698E+01               0
GRID*             163262               00.0000000000E+008.5415158958E+01+
*       -1.025642300E+02               0
GRID*             163263               00.0000000000E+008.5531263972E+01+
*       -1.055418480E+02               0
GRID*             163264               00.0000000000E+008.5673296650E+01+
*       -1.084872863E+02               0
GRID*             163265               00.0000000000E+008.5853782899E+01+
*       -1.112555561E+02               0
GRID*             163266               00.0000000000E+008.7490761009E+01+
*       -1.130937010E+02               0
GRID*             163267               00.0000000000E+008.6024143949E+01+
*       -1.131598452E+02               0
GRID*             163268               00.0000000000E+008.2732474740E+01+
*       -1.145330020E+02               0
GRID*             163269               00.0000000000E+008.4522974678E+01+
*       -1.132571351E+02               0
GRID*             163270               00.0000000000E+008.0537709899E+01+
*       -1.167420329E+02               0
GRID*             163271               00.0000000000E+008.0855594851E+01+
*       -1.188515026E+02               0
GRID*             163272               00.0000000000E+008.1373085395E+01+
*       -1.206733135E+02               0
GRID*             163273               00.0000000000E+008.2149333098E+01+
*       -1.218938472E+02               0
GRID*             163274               00.0000000000E+008.3114453431E+01+
*       -1.254913193E+02               0
GRID*             163275               00.0000000000E+008.1410527035E+01+
*       -1.233355412E+02               0
GRID*             163276               00.0000000000E+008.4765964550E+01+
*       -1.268085246E+02               0
GRID*             163277               00.0000000000E+008.6212776527E+01+
*       -1.268732921E+02               0
GRID*             163278               00.0000000000E+008.7621763617E+01+
*       -1.269465114E+02               0
GRID*             163279               00.0000000000E+008.6082640455E+01+
*       -1.287899191E+02               0
GRID*             163280               00.0000000000E+008.5905940196E+01+
*       -1.316901521E+02               0
GRID*             163281               00.0000000000E+008.5765257086E+01+
*       -1.347481982E+02               0
GRID*             163282               00.0000000000E+008.5651110483E+01+
*       -1.378166284E+02               0
GRID*             163283               00.0000000000E+008.5555089782E+01+
*       -1.408802851E+02               0
GRID*             163284               00.0000000000E+008.5472568908E+01+
*       -1.439399984E+02               0
GRID*             163285               00.0000000000E+008.5400843491E+01+
*       -1.469973447E+02               0
GRID*             163286               00.0000000000E+008.5338114927E+01+
*       -1.500534118E+02               0
GRID*             163287               00.0000000000E+008.5283069152E+01+
*       -1.531090197E+02               0
GRID*             163288               00.0000000000E+008.5234733064E+01+
*       -1.561649079E+02               0
GRID*             163289               00.0000000000E+008.5192458291E+01+
*       -1.592218013E+02               0
GRID*             163290               00.0000000000E+008.5155960628E+01+
*       -1.622803898E+02               0
GRID*             163291               00.0000000000E+008.5125371349E+01+
*       -1.653412509E+02               0
GRID*             163292               00.0000000000E+008.5101261232E+01+
*       -1.684047298E+02               0
GRID*             163293               00.0000000000E+008.5084594369E+01+
*       -1.714708062E+02               0
GRID*             163294               00.0000000000E+008.5076571047E+01+
*       -1.745389917E+02               0
GRID*             163295               00.0000000000E+008.5078347481E+01+
*       -1.776083337E+02               0
GRID*             163296               00.0000000000E+008.5090709574E+01+
*       -1.806775784E+02               0
GRID*             163297               00.0000000000E+008.5113891821E+01+
*       -1.837454829E+02               0
GRID*             163298               00.0000000000E+008.5147698497E+01+
*       -1.868111324E+02               0
GRID*             163299               00.0000000000E+008.5191744859E+01+
*       -1.898741024E+02               0
GRID*             163300               00.0000000000E+008.5245567557E+01+
*       -1.929344576E+02               0
GRID*             163301               00.0000000000E+008.5308756066E+01+
*       -1.959926238E+02               0
GRID*             163302               00.0000000000E+008.5381551271E+01+
*       -1.990491767E+02               0
GRID*             163303               00.0000000000E+008.5465962243E+01+
*       -2.021046982E+02               0
GRID*             163304               00.0000000000E+008.5567263236E+01+
*       -2.051583251E+02               0
GRID*             163305               00.0000000000E+008.5696647957E+01+
*       -2.081918303E+02               0
GRID*             163306               00.0000000000E+008.5869406844E+01+
*       -2.110643028E+02               0
GRID*             163307               00.0000000000E+008.7494409667E+01+
*       -2.129737581E+02               0
GRID*             163308               00.0000000000E+008.6029698887E+01+
*       -2.130185176E+02               0
GRID*             163309               00.0000000000E+008.2720265257E+01+
*       -2.143451778E+02               0
GRID*             163310               00.0000000000E+008.4525284725E+01+
*       -2.130767552E+02               0
GRID*             163311               00.0000000000E+008.0524961629E+01+
*       -2.165081837E+02               0
GRID*             163312               00.0000000000E+008.0839821370E+01+
*       -2.186737859E+02               0
GRID*             163313               00.0000000000E+008.1361801544E+01+
*       -2.205361765E+02               0
GRID*             163314               00.0000000000E+008.2134759437E+01+
*       -2.217894453E+02               0
GRID*             163315               00.0000000000E+008.3099277445E+01+
*       -2.253501812E+02               0
GRID*             163316               00.0000000000E+008.1381442535E+01+
*       -2.231886179E+02               0
GRID*             163317               00.0000000000E+008.4746683007E+01+
*       -2.266553628E+02               0
GRID*             163318               00.0000000000E+008.6196113754E+01+
*       -2.267497755E+02               0
GRID*             163319               00.0000000000E+008.7610816546E+01+
*       -2.268373568E+02               0
GRID*             163320               00.0000000000E+008.6055179915E+01+
*       -2.286259316E+02               0
GRID*             163321               00.0000000000E+008.5866864815E+01+
*       -2.314366605E+02               0
GRID*             163322               00.0000000000E+008.5719847108E+01+
*       -2.344118059E+02               0
GRID*             163323               00.0000000000E+008.5597950289E+01+
*       -2.374100883E+02               0
GRID*             163324               00.0000000000E+008.5494441398E+01+
*       -2.404095296E+02               0
GRID*             163325               00.0000000000E+008.5405558096E+01+
*       -2.434076774E+02               0
GRID*             163326               00.0000000000E+008.5329166427E+01+
*       -2.464043463E+02               0
GRID*             163327               00.0000000000E+008.5263882266E+01+
*       -2.493994148E+02               0
GRID*             163328               00.0000000000E+008.5208660143E+01+
*       -2.523926321E+02               0
GRID*             163329               00.0000000000E+008.5162585326E+01+
*       -2.553836363E+02               0
GRID*             163330               00.0000000000E+008.5124767856E+01+
*       -2.583719839E+02               0
GRID*             163331               00.0000000000E+008.5094308003E+01+
*       -2.613572127E+02               0
GRID*             163332               00.0000000000E+008.5070312650E+01+
*       -2.643389443E+02               0
GRID*             163333               00.0000000000E+008.5051931951E+01+
*       -2.673169534E+02               0
GRID*             163334               00.0000000000E+008.5038386587E+01+
*       -2.702911291E+02               0
GRID*             163335               00.0000000000E+008.5028967450E+01+
*       -2.732612760E+02               0
GRID*             163336               00.0000000000E+008.5023263765E+01+
*       -2.762291913E+02               0
GRID*             163337               00.0000000000E+008.5020118325E+01+
*       -2.791896211E+02               0
GRID*             163338               00.0000000000E+008.5019721938E+01+
*       -2.821476233E+02               0
GRID*             163339               00.0000000000E+008.5021595248E+01+
*       -2.851006913E+02               0
GRID*             163340               00.0000000000E+008.5025696773E+01+
*       -2.880496173E+02               0
GRID*             163341               00.0000000000E+008.5032193543E+01+
*       -2.909958095E+02               0
GRID*             163342               00.0000000000E+008.5041842094E+01+
*       -2.939422685E+02               0
GRID*             163343               00.0000000000E+008.5056591870E+01+
*       -2.968950744E+02               0
GRID*             163344               00.0000000000E+008.5080165385E+01+
*       -2.998663973E+02               0
GRID*             163345               00.0000000000E+008.5113665398E+01+
*       -3.028851061E+02               0
GRID*             163346               00.0000000000E+008.5171046974E+01+
*       -3.060183946E+02               0
GRID*             163347               00.0000000000E+008.5244613729E+01+
*       -3.095440417E+02               0
GRID*             163348               00.0000000000E+008.6333273387E+01+
*       -3.127268099E+02               0
GRID*             163349               00.0000000000E+008.6400001526E+01+
*       -3.155000000E+02               0
GRID*             163350               00.0000000000E+008.7649525064E+01+
*       -3.169348717E+02               0
GRID*             163351               00.0000000000E+008.7727549504E+01+
*       -3.185207613E+02               0
GRID*             163352               00.0000000000E+008.7567820077E+01+
*       -3.223688189E+02               0
GRID*             163353               00.0000000000E+008.7601723679E+01+
*       -3.202579070E+02               0
GRID*             163354               00.0000000000E+008.7668614687E+01+
*       -3.235772769E+02               0
GRID*             163355               00.0000000000E+008.6400001526E+01+
*       -3.245000000E+02               0
GRID*             163356               00.0000000000E+008.3500087579E+01+
*       -3.258614719E+02               0
GRID*             163357               00.0000000000E+008.1948345665E+01+
*       -3.259948893E+02               0
GRID*             163358               00.0000000000E+008.0406226168E+01+
*       -3.259834985E+02               0
GRID*             163359               00.0000000000E+007.7400001526E+01+
*       -3.245000000E+02               0
GRID*             163360               00.0000000000E+007.3542056903E+01+
*       -3.254197086E+02               0
GRID*             163361               00.0000000000E+007.0243416592E+01+
*       -3.255937151E+02               0
GRID*             163362               00.0000000000E+006.7078599913E+01+
*       -3.255990344E+02               0
GRID*             163363               00.0000000000E+006.3965617313E+01+
*       -3.255588707E+02               0
GRID*             163364               00.0000000000E+006.0879511425E+01+
*       -3.255123748E+02               0
GRID*             163365               00.0000000000E+005.7810729098E+01+
*       -3.254729242E+02               0
GRID*             163366               00.0000000000E+005.4754815800E+01+
*       -3.254448161E+02               0
GRID*             163367               00.0000000000E+005.1709334125E+01+
*       -3.254293473E+02               0
GRID*             163368               00.0000000000E+004.8672910855E+01+
*       -3.254268653E+02               0
GRID*             163369               00.0000000000E+004.5644916162E+01+
*       -3.254373167E+02               0
GRID*             163370               00.0000000000E+004.2625289920E+01+
*       -3.254602157E+02               0
GRID*             163371               00.0000000000E+003.9614381951E+01+
*       -3.254941381E+02               0
GRID*             163372               00.0000000000E+003.6612769654E+01+
*       -3.255353551E+02               0
GRID*             163373               00.0000000000E+003.3621080513E+01+
*       -3.255745393E+02               0
GRID*             163374               00.0000000000E+003.0640205573E+01+
*       -3.255888354E+02               0
GRID*             163375               00.0000000000E+002.7676044861E+01+
*       -3.255220273E+02               0
GRID*             163376               00.0000000000E+002.4791622817E+01+
*       -3.252355088E+02               0
GRID*             163377               00.0000000000E+002.2623652182E+01+
*       -3.260387289E+02               0
GRID*             163378               00.0000000000E+002.1006653244E+01+
*       -3.260757423E+02               0
GRID*             163379               00.0000000000E+001.9275025156E+01+
*       -3.259141516E+02               0
GRID*             163380               00.0000000000E+001.6919748119E+01+
*       -3.259031766E+02               0
GRID*             163381               00.0000000000E+001.5186860438E+01+
*       -3.260377912E+02               0
GRID*             163382               00.0000000000E+001.3586019756E+01+
*       -3.259714343E+02               0
GRID*             163383               00.0000000000E+001.3599995136E+01+
*       -3.245000014E+02               0
GRID*             163384               00.0000000000E+001.2484394333E+01+
*       -3.229267343E+02               0
GRID*             163385               00.0000000000E+001.2316214862E+01+
*       -3.213736984E+02               0
GRID*             163386               00.0000000000E+001.2391443032E+01+
*       -3.172988219E+02               0
GRID*             163387               00.0000000000E+001.2376601396E+01+
*       -3.196035185E+02               0
GRID*             163388               00.0000000000E+001.2338214195E+01+
*       -3.155167982E+02               0
GRID*             163389               00.0000000000E+001.2575075129E+01+
*       -3.139949074E+02               0
GRID*             163390               00.0000000000E+001.4740919942E+01+
*       -3.124153995E+02               0
GRID*             163391               00.0000000000E+001.4815752270E+01+
*       -3.092961058E+02               0
GRID*             163392               00.0000000000E+001.4962876224E+01+
*       -3.062314480E+02               0
GRID*             163393               00.0000000000E+001.5069162258E+01+
*       -3.031692846E+02               0
GRID*             163394               00.0000000000E+001.5122831357E+01+
*       -3.001192115E+02               0
GRID*             163395               00.0000000000E+001.5143070027E+01+
*       -2.970960796E+02               0
GRID*             163396               00.0000000000E+001.5144705877E+01+
*       -2.940958727E+02               0
GRID*             163397               00.0000000000E+001.5137302634E+01+
*       -2.911120531E+02               0
GRID*             163398               00.0000000000E+001.5126150432E+01+
*       -2.881387936E+02               0
GRID*             163399               00.0000000000E+001.5113845065E+01+
*       -2.851718145E+02               0
GRID*             163400               00.0000000000E+001.5101457362E+01+
*       -2.822082943E+02               0
GRID*             163401               00.0000000000E+001.5089278023E+01+
*       -2.792465147E+02               0
GRID*             163402               00.0000000000E+001.5076224380E+01+
*       -2.762872450E+02               0
GRID*             163403               00.0000000000E+001.5066217116E+01+
*       -2.733232894E+02               0
GRID*             163404               00.0000000000E+001.5056286633E+01+
*       -2.703588478E+02               0
GRID*             163405               00.0000000000E+001.5046602688E+01+
*       -2.673932656E+02               0
GRID*             163406               00.0000000000E+001.5037174044E+01+
*       -2.644262809E+02               0
GRID*             163407               00.0000000000E+001.5028021683E+01+
*       -2.614576129E+02               0
GRID*             163408               00.0000000000E+001.5019193822E+01+
*       -2.584867570E+02               0
GRID*             163409               00.0000000000E+001.5010722647E+01+
*       -2.555127861E+02               0
GRID*             163410               00.0000000000E+001.5002524165E+01+
*       -2.525340933E+02               0
GRID*             163411               00.0000000000E+001.4994189868E+01+
*       -2.495480206E+02               0
GRID*             163412               00.0000000000E+001.4984475709E+01+
*       -2.465501415E+02               0
GRID*             163413               00.0000000000E+001.4970292740E+01+
*       -2.435328966E+02               0
GRID*             163414               00.0000000000E+001.4945245220E+01+
*       -2.404836882E+02               0
GRID*             163415               00.0000000000E+001.4896300432E+01+
*       -2.373828563E+02               0
GRID*             163416               00.0000000000E+001.4791707721E+01+
*       -2.342043868E+02               0
GRID*             163417               00.0000000000E+001.4540562730E+01+
*       -2.309500557E+02               0
GRID*             163418               00.0000000000E+001.3871163898E+01+
*       -2.280565164E+02               0
GRID*             163419               00.0000000000E+001.7291793986E+01+
*       -2.249641889E+02               0
GRID*             163420               00.0000000000E+001.5952413517E+01+
*       -2.274030516E+02               0
GRID*             163421               00.0000000000E+001.9142723357E+01+
*       -2.230291534E+02               0
GRID*             163422               00.0000000000E+001.8716159832E+01+
*       -2.211804815E+02               0
GRID*             163423               00.0000000000E+001.7982727336E+01+
*       -2.199059042E+02               0
GRID*             163424               00.0000000000E+001.8849580955E+01+
*       -2.185731736E+02               0
GRID*             163425               00.0000000000E+001.7794342192E+01+
*       -2.138695688E+02               0
GRID*             163426               00.0000000000E+001.9576443067E+01+
*       -2.164759275E+02               0
GRID*             163427               00.0000000000E+001.5865066352E+01+
*       -2.110697231E+02               0
GRID*             163428               00.0000000000E+001.3603632672E+01+
*       -2.110429058E+02               0
GRID*             163429               00.0000000000E+001.3735580977E+01+
*       -2.080877122E+02               0
GRID*             163430               00.0000000000E+001.3864818631E+01+
*       -2.051104454E+02               0
GRID*             163431               00.0000000000E+001.3983725542E+01+
*       -2.021187034E+02               0
GRID*             163432               00.0000000000E+001.4092755175E+01+
*       -1.991211482E+02               0
GRID*             163433               00.0000000000E+001.4195316857E+01+
*       -1.961221298E+02               0
GRID*             163434               00.0000000000E+001.4295233947E+01+
*       -1.931214617E+02               0
GRID*             163435               00.0000000000E+001.4394727920E+01+
*       -1.901157025E+02               0
GRID*             163436               00.0000000000E+001.4493110049E+01+
*       -1.870999713E+02               0
GRID*             163437               00.0000000000E+001.4586595872E+01+
*       -1.840704642E+02               0
GRID*             163438               00.0000000000E+001.4670232851E+01+
*       -1.810268122E+02               0
GRID*             163439               00.0000000000E+001.4741117390E+01+
*       -1.779718556E+02               0
GRID*             163440               00.0000000000E+001.4798506895E+01+
*       -1.749094917E+02               0
GRID*             163441               00.0000000000E+001.4843206698E+01+
*       -1.718434177E+02               0
GRID*             163442               00.0000000000E+001.4877144176E+01+
*       -1.687765629E+02               0
GRID*             163443               00.0000000000E+001.4902735122E+01+
*       -1.657107565E+02               0
GRID*             163444               00.0000000000E+001.4922305306E+01+
*       -1.626466789E+02               0
GRID*             163445               00.0000000000E+001.4937738705E+01+
*       -1.595839851E+02               0
GRID*             163446               00.0000000000E+001.4950333915E+01+
*       -1.565214342E+02               0
GRID*             163447               00.0000000000E+001.4960766497E+01+
*       -1.534569006E+02               0
GRID*             163448               00.0000000000E+001.4969024878E+01+
*       -1.503871797E+02               0
GRID*             163449               00.0000000000E+001.4974038884E+01+
*       -1.473072983E+02               0
GRID*             163450               00.0000000000E+001.4972676874E+01+
*       -1.442088929E+02               0
GRID*             163451               00.0000000000E+001.4958109649E+01+
*       -1.410776949E+02               0
GRID*             163452               00.0000000000E+001.4916214243E+01+
*       -1.378904732E+02               0
GRID*             163453               00.0000000000E+001.4812751215E+01+
*       -1.346140981E+02               0
GRID*             163454               00.0000000000E+001.4549764711E+01+
*       -1.312431229E+02               0
GRID*             163455               00.0000000000E+001.3853339042E+01+
*       -1.282399216E+02               0
GRID*             163456               00.0000000000E+001.7313018881E+01+
*       -1.251517843E+02               0
GRID*             163457               00.0000000000E+001.5933289079E+01+
*       -1.276162627E+02               0
GRID*             163458               00.0000000000E+001.9191825288E+01+
*       -1.232341703E+02               0
GRID*             163459               00.0000000000E+001.8753671042E+01+
*       -1.213357922E+02               0
GRID*             163460               00.0000000000E+001.8020066444E+01+
*       -1.200181918E+02               0
GRID*             163461               00.0000000000E+001.8908482769E+01+
*       -1.187270328E+02               0
GRID*             163462               00.0000000000E+001.7865277728E+01+
*       -1.141025774E+02               0
GRID*             163463               00.0000000000E+001.9650161935E+01+
*       -1.167082045E+02               0
GRID*             163464               00.0000000000E+001.5941217523E+01+
*       -1.113313638E+02               0
GRID*             163465               00.0000000000E+001.3657218882E+01+
*       -1.112482567E+02               0
GRID*             163466               00.0000000000E+001.3808683932E+01+
*       -1.083695494E+02               0
GRID*             163467               00.0000000000E+001.3959445668E+01+
*       -1.054625513E+02               0
GRID*             163468               00.0000000000E+001.4101853198E+01+
*       -1.025353412E+02               0
GRID*             163469               00.0000000000E+001.4235439164E+01+
*       -9.959563581E+01               0
GRID*             163470               00.0000000000E+001.4361787263E+01+
*       -9.664673504E+01               0
GRID*             163471               00.0000000000E+001.4481635084E+01+
*       -9.368805316E+01               0
GRID*             163472               00.0000000000E+001.4593412719E+01+
*       -9.071730505E+01               0
GRID*             163473               00.0000000000E+001.4693282051E+01+
*       -8.773325862E+01               0
GRID*             163474               00.0000000000E+001.4777158999E+01+
*       -8.473775673E+01               0
GRID*             163475               00.0000000000E+001.4843561753E+01+
*       -8.173515615E+01               0
GRID*             163476               00.0000000000E+001.4893563883E+01+
*       -7.873005978E+01               0
GRID*             163477               00.0000000000E+001.4929592771E+01+
*       -7.572594748E+01               0
GRID*             163478               00.0000000000E+001.4954382558E+01+
*       -7.272500363E+01               0
GRID*             163479               00.0000000000E+001.4970252149E+01+
*       -6.972633746E+01               0
GRID*             163480               00.0000000000E+001.4979267070E+01+
*       -6.673381316E+01               0
GRID*             163481               00.0000000000E+001.4983645218E+01+
*       -6.375212359E+01               0
GRID*             163482               00.0000000000E+001.4983884157E+01+
*       -6.077305839E+01               0
GRID*             163483               00.0000000000E+001.4980956175E+01+
*       -5.779899299E+01               0
GRID*             163484               00.0000000000E+001.4975242117E+01+
*       -5.482899219E+01               0
GRID*             163485               00.0000000000E+001.4966799267E+01+
*       -5.186142347E+01               0
GRID*             163486               00.0000000000E+001.4955067185E+01+
*       -4.889319620E+01               0
GRID*             163487               00.0000000000E+001.4938355317E+01+
*       -4.591842745E+01               0
GRID*             163488               00.0000000000E+001.4913440467E+01+
*       -4.292553288E+01               0
GRID*             163489               00.0000000000E+001.4879633856E+01+
*       -3.988827599E+01               0
GRID*             163490               00.0000000000E+001.4825283278E+01+
*       -3.673830419E+01               0
GRID*             163491               00.0000000000E+001.4760265371E+01+
*       -3.319899137E+01               0
GRID*             163492               00.0000000000E+001.3676875458E+01+
*       -3.003534537E+01               0
GRID*             163493               00.0000000000E+001.3599995136E+01+
*       -2.715000105E+01               0
GRID*             163494               00.0000000000E+001.2466247310E+01+
*       -2.401958721E+01               0
GRID*             163495               00.0000000000E+001.2504772279E+01+
*       -2.263960046E+01               0
GRID*             163496               00.0000000000E+001.3193572951E+01+
*       -1.731234196E+01               0
GRID*             163497               00.0000000000E+001.2828590831E+01+
*       -1.616594573E+01               0
GRID*             163498               00.0000000000E+001.4088066699E+01+
*       -1.524794405E+01               0
GRID*             163499               00.0000000000E+001.6084050078E+01+
*       -1.478874998E+01               0
GRID*             163500               00.0000000000E+001.8284327911E+01+
*       -1.478189762E+01               0
GRID*             163501               00.0000000000E+002.0716871780E+01+
*       -1.549204860E+01               0
GRID*             163502               00.0000000000E+002.3342781652E+01+
*       -1.535268611E+01               0
GRID*             163503               00.0000000000E+002.6384968041E+01+
*       -1.516596663E+01               0
GRID*             163504               00.0000000000E+002.9516919307E+01+
*       -1.516991585E+01               0
GRID*             163505               00.0000000000E+003.2703280265E+01+
*       -1.519734038E+01               0
GRID*             163506               00.0000000000E+003.5872064384E+01+
*       -1.522683700E+01               0
GRID*             163507               00.0000000000E+003.9009487214E+01+
*       -1.525173698E+01               0
GRID*             163508               00.0000000000E+004.2119271049E+01+
*       -1.527023317E+01               0
GRID*             163509               00.0000000000E+004.5208220759E+01+
*       -1.528200535E+01               0
GRID*             163510               00.0000000000E+004.8282204629E+01+
*       -1.528745320E+01               0
GRID*             163511               00.0000000000E+005.1345838325E+01+
*       -1.528767965E+01               0
GRID*             163512               00.0000000000E+005.4403170758E+01+
*       -1.528442876E+01               0
GRID*             163513               00.0000000000E+005.7458020948E+01+
*       -1.527786266E+01               0
GRID*             163514               00.0000000000E+006.0516084780E+01+
*       -1.526895870E+01               0
GRID*             163515               00.0000000000E+006.3587283790E+01+
*       -1.526020057E+01               0
GRID*             163516               00.0000000000E+006.6691691754E+01+
*       -1.525659762E+01               0
GRID*             163517               00.0000000000E+006.9883909659E+01+
*       -1.527002716E+01               0
GRID*             163518               00.0000000000E+007.3406687624E+01+
*       -1.536482978E+01               0
GRID*             163519               00.0000000000E+007.6462123598E+01+
*       -1.460282203E+01               0
GRID*             163520               00.0000000000E+007.9066527792E+01+
*       -1.455832187E+01               0
GRID*             163521               00.0000000000E+008.1947559218E+01+
*       -1.509140174E+01               0
GRID*             163522               00.0000000000E+008.4822710763E+01+
*       -1.663047723E+01               0
GRID*             163523               00.0000000000E+008.3098191131E+01+
*       -1.673558768E+01               0
GRID*             163524               00.0000000000E+008.1905924522E+01+
*       -1.720776483E+01               0
GRID*             163525               00.0000000000E+008.0727028085E+01+
*       -1.667973381E+01               0
GRID*             163526               00.0000000000E+007.7400001526E+01+
*       -1.814999962E+01               0
GRID*             163527               00.0000000000E+007.8934682582E+01+
*       -1.645624223E+01               0
GRID*             163528               00.0000000000E+007.5273846757E+01+
*       -1.987870906E+01               0
GRID*             163529               00.0000000000E+007.5613581385E+01+
*       -2.147975540E+01               0
GRID*             163530               00.0000000000E+007.6252311030E+01+
*       -2.267680047E+01               0
GRID*             163531               00.0000000000E+007.5557210307E+01+
*       -2.390239313E+01               0
GRID*             163532               00.0000000000E+007.7400001526E+01+
*       -2.714999962E+01               0
GRID*             163533               00.0000000000E+007.5052297148E+01+
*       -2.561527455E+01               0
GRID*             163534               00.0000000000E+007.8913426984E+01+
*       -2.914374761E+01               0
GRID*             163535               00.0000000000E+008.0343200841E+01+
*       -2.841292250E+01               0
GRID*             163536               00.0000000000E+008.1615771678E+01+
*       -2.915427016E+01               0
GRID*             163537               00.0000000000E+008.3533279901E+01+
*       -2.952153490E+01               0
GRID*             163538               00.0000000000E+008.6400001526E+01+
*       -2.714999962E+01               0
GRID*             163539               00.0000000000E+008.4571675080E+01+
*       -3.131805890E+02               0
GRID*             163540               00.0000000000E+008.2934733279E+01+
*       -3.134090151E+02               0
GRID*             163541               00.0000000000E+008.1378913611E+01+
*       -3.137068649E+02               0
GRID*             163542               00.0000000000E+008.0243004211E+01+
*       -3.143194783E+02               0
GRID*             163543               00.0000000000E+007.7400001526E+01+
*       -3.155000000E+02               0
GRID*             163544               00.0000000000E+007.8895848428E+01+
*       -3.136051087E+02               0
GRID*             163545               00.0000000000E+007.3914272689E+01+
*       -3.161414988E+02               0
GRID*             163546               00.0000000000E+007.3951658075E+01+
*       -3.180000550E+02               0
GRID*             163547               00.0000000000E+007.3941349750E+01+
*       -3.197923275E+02               0
GRID*             163548               00.0000000000E+007.3885822476E+01+
*       -3.215797835E+02               0
GRID*             163549               00.0000000000E+007.3768965604E+01+
*       -3.234222832E+02               0
GRID*             163550               00.0000000000E+008.7178373767E+01+
*       -3.213670009E+02               0
GRID*             163551               00.0000000000E+001.8097662001E+01+
*       -3.254209453E+02               0
GRID*             163552               00.0000000000E+002.2600002289E+01+
*       -3.245000000E+02               0
GRID*             163553               00.0000000000E+002.5103255524E+01+
*       -3.233515934E+02               0
GRID*             163554               00.0000000000E+002.5273784790E+01+
*       -3.215719856E+02               0
GRID*             163555               00.0000000000E+002.5391455363E+01+
*       -3.198240117E+02               0
GRID*             163556               00.0000000000E+002.5496448453E+01+
*       -3.180564543E+02               0
GRID*             163557               00.0000000000E+002.2600002289E+01+
*       -3.155000000E+02               0
GRID*             163558               00.0000000000E+002.5621600753E+01+
*       -3.162031058E+02               0
GRID*             163559               00.0000000000E+002.1203574280E+01+
*       -3.128225382E+02               0
GRID*             163560               00.0000000000E+001.9442537843E+01+
*       -3.133907202E+02               0
GRID*             163561               00.0000000000E+001.7763983847E+01+
*       -3.136452817E+02               0
GRID*             163562               00.0000000000E+001.6149428199E+01+
*       -3.139861830E+02               0
GRID*             163563               00.0000000000E+001.3599995136E+01+
*       -3.154999986E+02               0
GRID*             163564               00.0000000000E+001.5089661512E+01+
*       -3.145631470E+02               0
GRID*             163565               00.0000000000E+001.2796809526E+01+
*       -3.184751366E+02               0
GRID*             163566               00.0000000000E+001.8066212770E+01+
*       -1.653305676E+01               0
GRID*             163567               00.0000000000E+001.6369993206E+01+
*       -1.656296794E+01               0
GRID*             163568               00.0000000000E+001.3599995136E+01+
*       -1.814999819E+01               0
GRID*             163569               00.0000000000E+001.4685385328E+01+
*       -1.679409453E+01               0
GRID*             163570               00.0000000000E+001.5436351577E+01+
*       -2.950853771E+01               0
GRID*             163571               00.0000000000E+001.7077625891E+01+
*       -2.924689373E+01               0
GRID*             163572               00.0000000000E+001.8635496767E+01+
*       -2.892189901E+01               0
GRID*             163573               00.0000000000E+001.9764881401E+01+
*       -2.829741996E+01               0
GRID*             163574               00.0000000000E+002.2600002289E+01+
*       -2.714999962E+01               0
GRID*             163575               00.0000000000E+002.1102985825E+01+
*       -2.895661915E+01               0
GRID*             163576               00.0000000000E+002.5234189545E+01+
*       -2.567797746E+01               0
GRID*             163577               00.0000000000E+002.4654059891E+01+
*       -2.395205956E+01               0
GRID*             163578               00.0000000000E+002.3887321383E+01+
*       -2.266913106E+01               0
GRID*             163579               00.0000000000E+002.4683349963E+01+
*       -2.141502642E+01               0
GRID*             163580               00.0000000000E+002.2600002289E+01+
*       -1.814999962E+01               0
GRID*             163581               00.0000000000E+002.5313464797E+01+
*       -1.969469354E+01               0
GRID*             163582               00.0000000000E+001.9560890541E+01+
*       -1.662428018E+01               0
GRID*             163583               00.0000000000E+008.2780792035E+01+
*       -3.250650247E+01               0
GRID*             163584               00.0000000000E+008.2254786911E+01+
*       -3.592168366E+01               0
GRID*             163585               00.0000000000E+008.1988141492E+01+
*       -3.927058760E+01               0
GRID*             163586               00.0000000000E+008.1874729872E+01+
*       -4.249987055E+01               0
GRID*             163587               00.0000000000E+008.1828763778E+01+
*       -4.563375683E+01               0
GRID*             163588               00.0000000000E+008.1814678370E+01+
*       -4.870735509E+01               0
GRID*             163589               00.0000000000E+008.1814955939E+01+
*       -5.174363339E+01               0
GRID*             163590               00.0000000000E+008.1821320898E+01+
*       -5.475715738E+01               0
GRID*             163591               00.0000000000E+008.1829928169E+01+
*       -5.775717786E+01               0
GRID*             163592               00.0000000000E+008.1839136721E+01+
*       -6.074967745E+01               0
GRID*             163593               00.0000000000E+008.1849744413E+01+
*       -6.373713599E+01               0
GRID*             163594               00.0000000000E+008.1860266262E+01+
*       -6.672351896E+01               0
GRID*             163595               00.0000000000E+008.1868224437E+01+
*       -6.971492789E+01               0
GRID*             163596               00.0000000000E+008.1877279884E+01+
*       -7.271045958E+01               0
GRID*             163597               00.0000000000E+008.1890212794E+01+
*       -7.570962438E+01               0
GRID*             163598               00.0000000000E+008.1908714081E+01+
*       -7.871485693E+01               0
GRID*             163599               00.0000000000E+008.1936455638E+01+
*       -8.172607571E+01               0
GRID*             163600               00.0000000000E+008.1977712053E+01+
*       -8.474218062E+01               0
GRID*             163601               00.0000000000E+008.2036578483E+01+
*       -8.776075938E+01               0
GRID*             163602               00.0000000000E+008.2115543861E+01+
*       -9.077825813E+01               0
GRID*             163603               00.0000000000E+008.2214229191E+01+
*       -9.379094163E+01               0
GRID*             163604               00.0000000000E+008.2330265667E+01+
*       -9.679581066E+01               0
GRID*             163605               00.0000000000E+008.2461350456E+01+
*       -9.979072981E+01               0
GRID*             163606               00.0000000000E+008.2607246206E+01+
*       -1.027745831E+02               0
GRID*             163607               00.0000000000E+008.2771991129E+01+
*       -1.057500672E+02               0
GRID*             163608               00.0000000000E+008.2972795821E+01+
*       -1.087448641E+02               0
GRID*             163609               00.0000000000E+008.3270245256E+01+
*       -1.118938167E+02               0
GRID*             163610               00.0000000000E+008.0372533700E+01+
*       -1.143886881E+02               0
GRID*             163611               00.0000000000E+007.8041286073E+01+
*       -1.170204579E+02               0
GRID*             163612               00.0000000000E+007.8402721137E+01+
*       -1.195251613E+02               0
GRID*             163613               00.0000000000E+007.9102566830E+01+
*       -1.223210383E+02               0
GRID*             163614               00.0000000000E+008.0962224903E+01+
*       -1.256337210E+02               0
GRID*             163615               00.0000000000E+008.3609161053E+01+
*       -1.282023556E+02               0
GRID*             163616               00.0000000000E+008.3298865925E+01+
*       -1.314971574E+02               0
GRID*             163617               00.0000000000E+008.3100813812E+01+
*       -1.346038591E+02               0
GRID*             163618               00.0000000000E+008.2942558030E+01+
*       -1.376792137E+02               0
GRID*             163619               00.0000000000E+008.2808476710E+01+
*       -1.407466362E+02               0
GRID*             163620               00.0000000000E+008.2692295826E+01+
*       -1.438113224E+02               0
GRID*             163621               00.0000000000E+008.2590535843E+01+
*       -1.468749092E+02               0
GRID*             163622               00.0000000000E+008.2500825906E+01+
*       -1.499382558E+02               0
GRID*             163623               00.0000000000E+008.2421388613E+01+
*       -1.530021209E+02               0
GRID*             163624               00.0000000000E+008.2350897168E+01+
*       -1.560673519E+02               0
GRID*             163625               00.0000000000E+008.2288486851E+01+
*       -1.591349091E+02               0
GRID*             163626               00.0000000000E+008.2233841570E+01+
*       -1.622057997E+02               0
GRID*             163627               00.0000000000E+008.2187306319E+01+
*       -1.652809346E+02               0
GRID*             163628               00.0000000000E+008.2149971424E+01+
*       -1.683609106E+02               0
GRID*             163629               00.0000000000E+008.2123649890E+01+
*       -1.714457284E+02               0
GRID*             163630               00.0000000000E+008.2110625918E+01+
*       -1.745345407E+02               0
GRID*             163631               00.0000000000E+008.2113086938E+01+
*       -1.776255620E+02               0
GRID*             163632               00.0000000000E+008.2132373774E+01+
*       -1.807163220E+02               0
GRID*             163633               00.0000000000E+008.2168506914E+01+
*       -1.838043142E+02               0
GRID*             163634               00.0000000000E+008.2220549802E+01+
*       -1.868876693E+02               0
GRID*             163635               00.0000000000E+008.2287255542E+01+
*       -1.899654139E+02               0
GRID*             163636               00.0000000000E+008.2367469049E+01+
*       -1.930373054E+02               0
GRID*             163637               00.0000000000E+008.2460393874E+01+
*       -1.961034184E+02               0
GRID*             163638               00.0000000000E+008.2566126479E+01+
*       -1.991637783E+02               0
GRID*             163639               00.0000000000E+008.2686557630E+01+
*       -2.022188472E+02               0
GRID*             163640               00.0000000000E+008.2827114786E+01+
*       -2.052731765E+02               0
GRID*             163641               00.0000000000E+008.3004848275E+01+
*       -2.083604256E+02               0
GRID*             163642               00.0000000000E+008.3282515650E+01+
*       -2.116309024E+02               0
GRID*             163643               00.0000000000E+008.0373718789E+01+
*       -2.140832768E+02               0
GRID*             163644               00.0000000000E+007.8015761372E+01+
*       -2.166432439E+02               0
GRID*             163645               00.0000000000E+007.8358731186E+01+
*       -2.191974013E+02               0
GRID*             163646               00.0000000000E+007.9057764026E+01+
*       -2.220331988E+02               0
GRID*             163647               00.0000000000E+008.0923218285E+01+
*       -2.254063172E+02               0
GRID*             163648               00.0000000000E+008.3575843684E+01+
*       -2.279834225E+02               0
GRID*             163649               00.0000000000E+008.3250005789E+01+
*       -2.311659455E+02               0
GRID*             163650               00.0000000000E+008.3028797707E+01+
*       -2.342011176E+02               0
GRID*             163651               00.0000000000E+008.2857361348E+01+
*       -2.372068692E+02               0
GRID*             163652               00.0000000000E+008.2710689895E+01+
*       -2.402106630E+02               0
GRID*             163653               00.0000000000E+008.2583664514E+01+
*       -2.432145830E+02               0
GRID*             163654               00.0000000000E+008.2473711859E+01+
*       -2.462183446E+02               0
GRID*             163655               00.0000000000E+008.2379212947E+01+
*       -2.492212762E+02               0
GRID*             163656               00.0000000000E+008.2298943712E+01+
*       -2.522226030E+02               0
GRID*             163657               00.0000000000E+008.2231796744E+01+
*       -2.552214642E+02               0
GRID*             163658               00.0000000000E+008.2176630352E+01+
*       -2.582169354E+02               0
GRID*             163659               00.0000000000E+008.2132223712E+01+
*       -2.612081217E+02               0
GRID*             163660               00.0000000000E+008.2097313707E+01+
*       -2.641942923E+02               0
GRID*             163661               00.0000000000E+008.2070666008E+01+
*       -2.671749659E+02               0
GRID*             163662               00.0000000000E+008.2051133735E+01+
*       -2.701498521E+02               0
GRID*             163663               00.0000000000E+008.2038011040E+01+
*       -2.731215052E+02               0
GRID*             163664               00.0000000000E+008.2030050833E+01+
*       -2.760874670E+02               0
GRID*             163665               00.0000000000E+008.2025789083E+01+
*       -2.790410207E+02               0
GRID*             163666               00.0000000000E+008.2025307752E+01+
*       -2.819870606E+02               0
GRID*             163667               00.0000000000E+008.2028482119E+01+
*       -2.849286733E+02               0
GRID*             163668               00.0000000000E+008.2035063734E+01+
*       -2.878631004E+02               0
GRID*             163669               00.0000000000E+008.2045424222E+01+
*       -2.907916158E+02               0
GRID*             163670               00.0000000000E+008.2060713095E+01+
*       -2.937168555E+02               0
GRID*             163671               00.0000000000E+008.2083473596E+01+
*       -2.966437187E+02               0
GRID*             163672               00.0000000000E+008.2114340401E+01+
*       -2.995860943E+02               0
GRID*             163673               00.0000000000E+008.2158163085E+01+
*       -3.025526032E+02               0
GRID*             163674               00.0000000000E+008.2234292643E+01+
*       -3.055597675E+02               0
GRID*             163675               00.0000000000E+008.2334827620E+01+
*       -3.086235383E+02               0
GRID*             163676               00.0000000000E+008.4072052391E+01+
*       -3.112130769E+02               0
GRID*             163677               00.0000000000E+007.0432120991E+01+
*       -3.235174750E+02               0
GRID*             163678               00.0000000000E+006.7232045237E+01+
*       -3.234762197E+02               0
GRID*             163679               00.0000000000E+006.4094756740E+01+
*       -3.233972053E+02               0
GRID*             163680               00.0000000000E+006.0991883112E+01+
*       -3.233190680E+02               0
GRID*             163681               00.0000000000E+005.7911871699E+01+
*       -3.232557601E+02               0
GRID*             163682               00.0000000000E+005.4849284870E+01+
*       -3.232115616E+02               0
GRID*             163683               00.0000000000E+005.1801124906E+01+
*       -3.231874756E+02               0
GRID*             163684               00.0000000000E+004.8765701414E+01+
*       -3.231835877E+02               0
GRID*             163685               00.0000000000E+004.5742256471E+01+
*       -3.231996919E+02               0
GRID*             163686               00.0000000000E+004.2730770870E+01+
*       -3.232352451E+02               0
GRID*             163687               00.0000000000E+003.9731802251E+01+
*       -3.232888395E+02               0
GRID*             163688               00.0000000000E+003.6746383781E+01+
*       -3.233568837E+02               0
GRID*             163689               00.0000000000E+003.3776306236E+01+
*       -3.234306714E+02               0
GRID*             163690               00.0000000000E+003.0826193419E+01+
*       -3.234901096E+02               0
GRID*             163691               00.0000000000E+002.7912989210E+01+
*       -3.234913496E+02               0
GRID*             163692               00.0000000000E+001.3936020853E+01+
*       -3.141352301E+02               0
GRID*             163693               00.0000000000E+001.7304418598E+01+
*       -3.116758877E+02               0
GRID*             163694               00.0000000000E+001.7673448492E+01+
*       -3.092253762E+02               0
GRID*             163695               00.0000000000E+001.7996066667E+01+
*       -3.062007959E+02               0
GRID*             163696               00.0000000000E+001.8167493750E+01+
*       -3.030801325E+02               0
GRID*             163697               00.0000000000E+001.8232215867E+01+
*       -2.999829568E+02               0
GRID*             163698               00.0000000000E+001.8246254934E+01+
*       -2.969418025E+02               0
GRID*             163699               00.0000000000E+001.8237625223E+01+
*       -2.939379267E+02               0
GRID*             163700               00.0000000000E+001.8219988507E+01+
*       -2.909574883E+02               0
GRID*             163701               00.0000000000E+001.8199622735E+01+
*       -2.879907224E+02               0
GRID*             163702               00.0000000000E+001.8179174413E+01+
*       -2.850313256E+02               0
GRID*             163703               00.0000000000E+001.8159508775E+01+
*       -2.820754621E+02               0
GRID*             163704               00.0000000000E+001.8139392664E+01+
*       -2.791229919E+02               0
GRID*             163705               00.0000000000E+001.8120491629E+01+
*       -2.761697827E+02               0
GRID*             163706               00.0000000000E+001.8105359997E+01+
*       -2.732102732E+02               0
GRID*             163707               00.0000000000E+001.8089763546E+01+
*       -2.702507965E+02               0
GRID*             163708               00.0000000000E+001.8074682844E+01+
*       -2.672891662E+02               0
GRID*             163709               00.0000000000E+001.8060013360E+01+
*       -2.643253226E+02               0
GRID*             163710               00.0000000000E+001.8045783322E+01+
*       -2.613590644E+02               0
GRID*             163711               00.0000000000E+001.8032136607E+01+
*       -2.583898545E+02               0
GRID*             163712               00.0000000000E+001.8019272718E+01+
*       -2.554165888E+02               0
GRID*             163713               00.0000000000E+001.8007337556E+01+
*       -2.524372837E+02               0
GRID*             163714               00.0000000000E+001.7996215197E+01+
*       -2.494486063E+02               0
GRID*             163715               00.0000000000E+001.7985104018E+01+
*       -2.464449715E+02               0
GRID*             163716               00.0000000000E+001.7971910437E+01+
*       -2.434168142E+02               0
GRID*             163717               00.0000000000E+001.7952741128E+01+
*       -2.403472127E+02               0
GRID*             163718               00.0000000000E+001.7920668496E+01+
*       -2.372024247E+02               0
GRID*             163719               00.0000000000E+001.7859012420E+01+
*       -2.338934002E+02               0
GRID*             163720               00.0000000000E+001.7702770675E+01+
*       -2.300547312E+02               0
GRID*             163721               00.0000000000E+001.9310796168E+01+
*       -2.251381534E+02               0
GRID*             163722               00.0000000000E+001.7421914934E+01+
*       -2.264931191E+02               0
GRID*             163723               00.0000000000E+002.1656305633E+01+
*       -2.226620982E+02               0
GRID*             163724               00.0000000000E+002.1165393387E+01+
*       -2.198065209E+02               0
GRID*             163725               00.0000000000E+002.0180864055E+01+
*       -2.138850096E+02               0
GRID*             163726               00.0000000000E+001.8195555766E+01+
*       -2.110831889E+02               0
GRID*             163727               00.0000000000E+002.2142700467E+01+
*       -2.168133285E+02               0
GRID*             163728               00.0000000000E+001.6101686894E+01+
*       -2.081454520E+02               0
GRID*             163729               00.0000000000E+001.6296118450E+01+
*       -2.052026605E+02               0
GRID*             163730               00.0000000000E+001.6466316048E+01+
*       -2.022385052E+02               0
GRID*             163731               00.0000000000E+001.6620728218E+01+
*       -1.992668193E+02               0
GRID*             163732               00.0000000000E+001.6767372781E+01+
*       -1.962941268E+02               0
GRID*             163733               00.0000000000E+001.6913414705E+01+
*       -1.933199439E+02               0
GRID*             163734               00.0000000000E+001.7063350912E+01+
*       -1.903381238E+02               0
GRID*             163735               00.0000000000E+001.7216538165E+01+
*       -1.873389701E+02               0
GRID*             163736               00.0000000000E+001.7365154289E+01+
*       -1.843143169E+02               0
GRID*             163737               00.0000000000E+001.7497783897E+01+
*       -1.812636465E+02               0
GRID*             163738               00.0000000000E+001.7608946028E+01+
*       -1.781934607E+02               0
GRID*             163739               00.0000000000E+001.7697613043E+01+
*       -1.751113084E+02               0
GRID*             163740               00.0000000000E+001.7765286542E+01+
*       -1.720238178E+02               0
GRID*             163741               00.0000000000E+001.7815560970E+01+
*       -1.689360987E+02               0
GRID*             163742               00.0000000000E+001.7852837928E+01+
*       -1.658511720E+02               0
GRID*             163743               00.0000000000E+001.7881189623E+01+
*       -1.627700283E+02               0
GRID*             163744               00.0000000000E+001.7903792270E+01+
*       -1.596920356E+02               0
GRID*             163745               00.0000000000E+001.7922803586E+01+
*       -1.566153247E+02               0
GRID*             163746               00.0000000000E+001.7939441756E+01+
*       -1.535369618E+02               0
GRID*             163747               00.0000000000E+001.7954056163E+01+
*       -1.504527862E+02               0
GRID*             163748               00.0000000000E+001.7965941526E+01+
*       -1.473565776E+02               0
GRID*             163749               00.0000000000E+001.7972799249E+01+
*       -1.442380626E+02               0
GRID*             163750               00.0000000000E+001.7970120283E+01+
*       -1.410789410E+02               0
GRID*             163751               00.0000000000E+001.7949718417E+01+
*       -1.378423471E+02               0
GRID*             163752               00.0000000000E+001.7891844637E+01+
*       -1.344306958E+02               0
GRID*             163753               00.0000000000E+001.7717695091E+01+
*       -1.304366966E+02               0
GRID*             163754               00.0000000000E+001.9356719708E+01+
*       -1.254070033E+02               0
GRID*             163755               00.0000000000E+001.7425729861E+01+
*       -1.267259984E+02               0
GRID*             163756               00.0000000000E+002.1746364266E+01+
*       -1.230147216E+02               0
GRID*             163757               00.0000000000E+002.1248030623E+01+
*       -1.201173682E+02               0
GRID*             163758               00.0000000000E+002.0281418877E+01+
*       -1.142251089E+02               0
GRID*             163759               00.0000000000E+001.8301865412E+01+
*       -1.114199564E+02               0
GRID*             163760               00.0000000000E+002.2241053856E+01+
*       -1.172084510E+02               0
GRID*             163761               00.0000000000E+001.6211156355E+01+
*       -1.084941456E+02               0
GRID*             163762               00.0000000000E+001.6440065892E+01+
*       -1.056259099E+02               0
GRID*             163763               00.0000000000E+001.6647780681E+01+
*       -1.027283480E+02               0
GRID*             163764               00.0000000000E+001.6842109996E+01+
*       -9.981362029E+01               0
GRID*             163765               00.0000000000E+001.7028678915E+01+
*       -9.688603468E+01               0
GRID*             163766               00.0000000000E+001.7210073682E+01+
*       -9.394326728E+01               0
GRID*             163767               00.0000000000E+001.7383940201E+01+
*       -9.097954550E+01               0
GRID*             163768               00.0000000000E+001.7541953789E+01+
*       -8.799098827E+01               0
GRID*             163769               00.0000000000E+001.7673969407E+01+
*       -8.498074393E+01               0
GRID*             163770               00.0000000000E+001.7776633415E+01+
*       -8.195790666E+01               0
GRID*             163771               00.0000000000E+001.7852254381E+01+
*       -7.893147441E+01               0
GRID*             163772               00.0000000000E+001.7905552653E+01+
*       -7.590770092E+01               0
GRID*             163773               00.0000000000E+001.7941413925E+01+
*       -7.288760888E+01               0
GRID*             163774               00.0000000000E+001.7963787332E+01+
*       -6.987576893E+01               0
GRID*             163775               00.0000000000E+001.7976129680E+01+
*       -6.687288619E+01               0
GRID*             163776               00.0000000000E+001.7981494903E+01+
*       -6.388424843E+01               0
GRID*             163777               00.0000000000E+001.7981241536E+01+
*       -6.090440154E+01               0
GRID*             163778               00.0000000000E+001.7976144799E+01+
*       -5.793025371E+01               0
GRID*             163779               00.0000000000E+001.7966884769E+01+
*       -5.496320754E+01               0
GRID*             163780               00.0000000000E+001.7953349528E+01+
*       -5.200145096E+01               0
GRID*             163781               00.0000000000E+001.7934566830E+01+
*       -4.904202135E+01               0
GRID*             163782               00.0000000000E+001.7908216955E+01+
*       -4.607997280E+01               0
GRID*             163783               00.0000000000E+001.7874009133E+01+
*       -4.310483937E+01               0
GRID*             163784               00.0000000000E+001.7827996976E+01+
*       -4.010697664E+01               0
GRID*             163785               00.0000000000E+001.7754231049E+01+
*       -3.707079434E+01               0
GRID*             163786               00.0000000000E+001.7668007249E+01+
*       -3.400280057E+01               0
GRID*             163787               00.0000000000E+001.5937179530E+01+
*       -3.147814832E+01               0
GRID*             163788               00.0000000000E+002.5834140843E+01+
*       -1.762753436E+01               0
GRID*             163789               00.0000000000E+002.9051698578E+01+
*       -1.769812784E+01               0
GRID*             163790               00.0000000000E+003.2383201987E+01+
*       -1.775934665E+01               0
GRID*             163791               00.0000000000E+003.5646050608E+01+
*       -1.781032801E+01               0
GRID*             163792               00.0000000000E+003.8840524427E+01+
*       -1.784986204E+01               0
GRID*             163793               00.0000000000E+004.1985660910E+01+
*       -1.787819707E+01               0
GRID*             163794               00.0000000000E+004.5097451701E+01+
*       -1.789573044E+01               0
GRID*             163795               00.0000000000E+004.8186616605E+01+
*       -1.790309630E+01               0
GRID*             163796               00.0000000000E+005.1260352071E+01+
*       -1.790165027E+01               0
GRID*             163797               00.0000000000E+005.4324814156E+01+
*       -1.789514880E+01               0
GRID*             163798               00.0000000000E+005.7384484759E+01+
*       -1.788275539E+01               0
GRID*             163799               00.0000000000E+006.0445988105E+01+
*       -1.786514047E+01               0
GRID*             163800               00.0000000000E+006.3519101897E+01+
*       -1.784543009E+01               0
GRID*             163801               00.0000000000E+006.6616367893E+01+
*       -1.783060444E+01               0
GRID*             163802               00.0000000000E+006.9742319163E+01+
*       -1.782377927E+01               0
GRID*             163803               00.0000000000E+007.5057956252E+01+
*       -1.659273456E+01               0
GRID*             163804               00.0000000000E+007.2796917635E+01+
*       -1.787607734E+01               0
GRID*             163805               00.0000000000E+007.7012033513E+01+
*       -1.643341811E+01               0
GRID*             163806               00.0000000000E+007.5127926535E+01+
*       -1.818640437E+01               0
GRID*             163807               00.0000000000E+007.2771280681E+01+
*       -2.022478785E+01               0
GRID*             163808               00.0000000000E+007.3208604959E+01+
*       -2.273957694E+01               0
GRID*             163809               00.0000000000E+007.4655201035E+01+
*       -2.761316598E+01               0
GRID*             163810               00.0000000000E+007.6817949082E+01+
*       -2.966048310E+01               0
GRID*             163811               00.0000000000E+007.2380224517E+01+
*       -2.529656190E+01               0
GRID*             163812               00.0000000000E+007.9815523907E+01+
*       -3.178101815E+01               0
GRID*             163813               00.0000000000E+008.2246537642E+01+
*       -3.111946331E+02               0
GRID*             163814               00.0000000000E+007.9704967275E+01+
*       -3.113843610E+02               0
GRID*             163815               00.0000000000E+007.3805146373E+01+
*       -3.141178143E+02               0
GRID*             163816               00.0000000000E+007.6707577894E+01+
*       -3.128179796E+02               0
GRID*             163817               00.0000000000E+007.0640198030E+01+
*       -3.155501641E+02               0
GRID*             163818               00.0000000000E+007.0657859811E+01+
*       -3.175841018E+02               0
GRID*             163819               00.0000000000E+007.0631810989E+01+
*       -3.195580363E+02               0
GRID*             163820               00.0000000000E+007.0558883239E+01+
*       -3.215203134E+02               0
GRID*             163821               00.0000000000E+002.8095723749E+01+
*       -3.215409578E+02               0
GRID*             163822               00.0000000000E+002.8246002255E+01+
*       -3.196179879E+02               0
GRID*             163823               00.0000000000E+002.8382806687E+01+
*       -3.176744914E+02               0
GRID*             163824               00.0000000000E+002.5825491324E+01+
*       -3.141302095E+02               0
GRID*             163825               00.0000000000E+002.3428004987E+01+
*       -3.122701286E+02               0
GRID*             163826               00.0000000000E+002.8520870757E+01+
*       -3.156607922E+02               0
GRID*             163827               00.0000000000E+002.0610983802E+01+
*       -3.098000594E+02               0
GRID*             163828               00.0000000000E+001.9198972705E+01+
*       -3.115303859E+02               0
GRID*             163829               00.0000000000E+001.7767664143E+01+
*       -3.143956456E+01               0
GRID*             163830               00.0000000000E+002.0278872917E+01+
*       -3.113268072E+01               0
GRID*             163831               00.0000000000E+002.5670680081E+01+
*       -2.770275960E+01               0
GRID*             163832               00.0000000000E+002.3195783934E+01+
*       -2.951707337E+01               0
GRID*             163833               00.0000000000E+002.8370949180E+01+
*       -2.536089940E+01               0
GRID*             163834               00.0000000000E+002.7577867854E+01+
*       -2.275503595E+01               0
GRID*             163835               00.0000000000E+002.8474112805E+01+
*       -2.017500547E+01               0
GRID*             163836               00.0000000000E+007.9038693018E+01+
*       -3.575691369E+01               0
GRID*             163837               00.0000000000E+007.8795395049E+01+
*       -3.928989787E+01               0
GRID*             163838               00.0000000000E+007.8728108587E+01+
*       -4.257594468E+01               0
GRID*             163839               00.0000000000E+007.8713889036E+01+
*       -4.572496998E+01               0
GRID*             163840               00.0000000000E+007.8719155654E+01+
*       -4.880017583E+01               0
GRID*             163841               00.0000000000E+007.8731853593E+01+
*       -5.183564079E+01               0
GRID*             163842               00.0000000000E+007.8746654607E+01+
*       -5.484826082E+01               0
GRID*             163843               00.0000000000E+007.8761334697E+01+
*       -5.784797896E+01               0
GRID*             163844               00.0000000000E+007.8776366236E+01+
*       -6.083973744E+01               0
GRID*             163845               00.0000000000E+007.8790458924E+01+
*       -6.382866455E+01               0
GRID*             163846               00.0000000000E+007.8803944919E+01+
*       -6.681750409E+01               0
GRID*             163847               00.0000000000E+007.8814101744E+01+
*       -6.981315582E+01               0
GRID*             163848               00.0000000000E+007.8824812098E+01+
*       -7.281511369E+01               0
GRID*             163849               00.0000000000E+007.8838450396E+01+
*       -7.582529292E+01               0
GRID*             163850               00.0000000000E+007.8859443704E+01+
*       -7.884316232E+01               0
GRID*             163851               00.0000000000E+007.8892325455E+01+
*       -8.187055642E+01               0
GRID*             163852               00.0000000000E+007.8943822528E+01+
*       -8.490606774E+01               0
GRID*             163853               00.0000000000E+007.9020916752E+01+
*       -8.794558189E+01               0
GRID*             163854               00.0000000000E+007.9127762293E+01+
*       -9.098223105E+01               0
GRID*             163855               00.0000000000E+007.9262188075E+01+
*       -9.400879410E+01               0
GRID*             163856               00.0000000000E+007.9418536446E+01+
*       -9.702004180E+01               0
GRID*             163857               00.0000000000E+007.9591362856E+01+
*       -1.000125627E+02               0
GRID*             163858               00.0000000000E+007.9777141238E+01+
*       -1.029835878E+02               0
GRID*             163859               00.0000000000E+007.9976476307E+01+
*       -1.059344480E+02               0
GRID*             163860               00.0000000000E+008.0183113998E+01+
*       -1.088621246E+02               0
GRID*             163861               00.0000000000E+008.0368525308E+01+
*       -1.117426636E+02               0
GRID*             163862               00.0000000000E+007.7805522119E+01+
*       -1.144916074E+02               0
GRID*             163863               00.0000000000E+007.5372390525E+01+
*       -1.172996571E+02               0
GRID*             163864               00.0000000000E+007.5604715886E+01+
*       -1.199108971E+02               0
GRID*             163865               00.0000000000E+007.8429094267E+01+
*       -1.254643961E+02               0
GRID*             163866               00.0000000000E+007.5775446091E+01+
*       -1.226563613E+02               0
GRID*             163867               00.0000000000E+008.0843572424E+01+
*       -1.284095267E+02               0
GRID*             163868               00.0000000000E+008.0603317045E+01+
*       -1.314478469E+02               0
GRID*             163869               00.0000000000E+008.0384134857E+01+
*       -1.345103785E+02               0
GRID*             163870               00.0000000000E+008.0199074112E+01+
*       -1.375682487E+02               0
GRID*             163871               00.0000000000E+008.0036847823E+01+
*       -1.406293073E+02               0
GRID*             163872               00.0000000000E+007.9893939277E+01+
*       -1.436927729E+02               0
GRID*             163873               00.0000000000E+007.9767362977E+01+
*       -1.467581466E+02               0
GRID*             163874               00.0000000000E+007.9654628445E+01+
*       -1.498253472E+02               0
GRID*             163875               00.0000000000E+007.9553683881E+01+
*       -1.528947481E+02               0
GRID*             163876               00.0000000000E+007.9462929693E+01+
*       -1.559671450E+02               0
GRID*             163877               00.0000000000E+007.9381312189E+01+
*       -1.590436822E+02               0
GRID*             163878               00.0000000000E+007.9308489683E+01+
*       -1.621257313E+02               0
GRID*             163879               00.0000000000E+007.9245054545E+01+
*       -1.652146855E+02               0
GRID*             163880               00.0000000000E+007.9192769797E+01+
*       -1.683116067E+02               0
GRID*             163881               00.0000000000E+007.9154679680E+01+
*       -1.714167284E+02               0
GRID*             163882               00.0000000000E+007.9134804318E+01+
*       -1.745288866E+02               0
GRID*             163883               00.0000000000E+007.9137159836E+01+
*       -1.776451259E+02               0
GRID*             163884               00.0000000000E+007.9164058751E+01+
*       -1.807609243E+02               0
GRID*             163885               00.0000000000E+007.9214788299E+01+
*       -1.838715971E+02               0
GRID*             163886               00.0000000000E+007.9286749160E+01+
*       -1.869738023E+02               0
GRID*             163887               00.0000000000E+007.9377051135E+01+
*       -1.900658816E+02               0
GRID*             163888               00.0000000000E+007.9483374795E+01+
*       -1.931472692E+02               0
GRID*             163889               00.0000000000E+007.9604223821E+01+
*       -1.962175422E+02               0
GRID*             163890               00.0000000000E+007.9739008446E+01+
*       -1.992755613E+02               0
GRID*             163891               00.0000000000E+007.9887917174E+01+
*       -2.023191654E+02               0
GRID*             163892               00.0000000000E+008.0052863934E+01+
*       -2.053514422E+02               0
GRID*             163893               00.0000000000E+008.0230842731E+01+
*       -2.083690227E+02               0
GRID*             163894               00.0000000000E+008.0396211679E+01+
*       -2.113508167E+02               0
GRID*             163895               00.0000000000E+007.7805412060E+01+
*       -2.140504546E+02               0
GRID*             163896               00.0000000000E+007.5335055136E+01+
*       -2.167695606E+02               0
GRID*             163897               00.0000000000E+007.5538455198E+01+
*       -2.194129405E+02               0
GRID*             163898               00.0000000000E+007.8368877769E+01+
*       -2.250988881E+02               0
GRID*             163899               00.0000000000E+007.5693105763E+01+
*       -2.221688701E+02               0
GRID*             163900               00.0000000000E+008.0780293945E+01+
*       -2.280919220E+02               0
GRID*             163901               00.0000000000E+008.0525319091E+01+
*       -2.310368576E+02               0
GRID*             163902               00.0000000000E+008.0287302399E+01+
*       -2.340228368E+02               0
GRID*             163903               00.0000000000E+008.0076176316E+01+
*       -2.370208587E+02               0
GRID*             163904               00.0000000000E+007.9895591650E+01+
*       -2.400208331E+02               0
GRID*             163905               00.0000000000E+007.9736403989E+01+
*       -2.430257248E+02               0
GRID*             163906               00.0000000000E+007.9597106480E+01+
*       -2.460333340E+02               0
GRID*             163907               00.0000000000E+007.9476493397E+01+
*       -2.490419638E+02               0
GRID*             163908               00.0000000000E+007.9373562684E+01+
*       -2.520500677E+02               0
GRID*             163909               00.0000000000E+007.9287291954E+01+
*       -2.550560730E+02               0
GRID*             163910               00.0000000000E+007.9216461701E+01+
*       -2.580583751E+02               0
GRID*             163911               00.0000000000E+007.9159614588E+01+
*       -2.610554698E+02               0
GRID*             163912               00.0000000000E+007.9115141958E+01+
*       -2.640461272E+02               0
GRID*             163913               00.0000000000E+007.9081417603E+01+
*       -2.670294678E+02               0
GRID*             163914               00.0000000000E+007.9057202768E+01+
*       -2.700073580E+02               0
GRID*             163915               00.0000000000E+007.9040810593E+01+
*       -2.729777269E+02               0
GRID*             163916               00.0000000000E+007.9031164601E+01+
*       -2.759405175E+02               0
GRID*             163917               00.0000000000E+007.9026495084E+01+
*       -2.788878550E+02               0
GRID*             163918               00.0000000000E+007.9026671737E+01+
*       -2.818243965E+02               0
GRID*             163919               00.0000000000E+007.9031350371E+01+
*       -2.847499130E+02               0
GRID*             163920               00.0000000000E+007.9040601009E+01+
*       -2.876678481E+02               0
GRID*             163921               00.0000000000E+007.9054873816E+01+
*       -2.905753692E+02               0
GRID*             163922               00.0000000000E+007.9075536823E+01+
*       -2.934739928E+02               0
GRID*             163923               00.0000000000E+007.9103297774E+01+
*       -2.963720560E+02               0
GRID*             163924               00.0000000000E+007.9141128620E+01+
*       -2.992696859E+02               0
GRID*             163925               00.0000000000E+007.9194264295E+01+
*       -3.021749589E+02               0
GRID*             163926               00.0000000000E+007.9287882441E+01+
*       -3.050990674E+02               0
GRID*             163927               00.0000000000E+007.9442191041E+01+
*       -3.081178823E+02               0
GRID*             163928               00.0000000000E+006.7347912638E+01+
*       -3.213972847E+02               0
GRID*             163929               00.0000000000E+006.4199364855E+01+
*       -3.212656524E+02               0
GRID*             163930               00.0000000000E+006.1087569667E+01+
*       -3.211504852E+02               0
GRID*             163931               00.0000000000E+005.8001220267E+01+
*       -3.210610877E+02               0
GRID*             163932               00.0000000000E+005.4934961056E+01+
*       -3.209998668E+02               0
GRID*             163933               00.0000000000E+005.1885840177E+01+
*       -3.209668547E+02               0
GRID*             163934               00.0000000000E+004.8852211443E+01+
*       -3.209615955E+02               0
GRID*             163935               00.0000000000E+004.5833416282E+01+
*       -3.209836621E+02               0
GRID*             163936               00.0000000000E+004.2829620920E+01+
*       -3.210325836E+02               0
GRID*             163937               00.0000000000E+003.9841656101E+01+
*       -3.211073982E+02               0
GRID*             163938               00.0000000000E+003.6870852273E+01+
*       -3.212056722E+02               0
GRID*             163939               00.0000000000E+003.3919089000E+01+
*       -3.213215688E+02               0
GRID*             163940               00.0000000000E+003.0990120271E+01+
*       -3.214421654E+02               0
GRID*             163941               00.0000000000E+002.1201170119E+01+
*       -3.062340273E+02               0
GRID*             163942               00.0000000000E+002.1370827981E+01+
*       -3.029234378E+02               0
GRID*             163943               00.0000000000E+002.1394401267E+01+
*       -2.997761689E+02               0
GRID*             163944               00.0000000000E+002.1375949887E+01+
*       -2.967306094E+02               0
GRID*             163945               00.0000000000E+002.1344628930E+01+
*       -2.937406181E+02               0
GRID*             163946               00.0000000000E+002.1311060949E+01+
*       -2.907760250E+02               0
GRID*             163947               00.0000000000E+002.1278880159E+01+
*       -2.878240387E+02               0
GRID*             163948               00.0000000000E+002.1249100346E+01+
*       -2.848776179E+02               0
GRID*             163949               00.0000000000E+002.1220264251E+01+
*       -2.819350648E+02               0
GRID*             163950               00.0000000000E+002.1193592099E+01+
*       -2.789913551E+02               0
GRID*             163951               00.0000000000E+002.1168598673E+01+
*       -2.760455678E+02               0
GRID*             163952               00.0000000000E+002.1147031839E+01+
*       -2.730931273E+02               0
GRID*             163953               00.0000000000E+002.1126574462E+01+
*       -2.701371736E+02               0
GRID*             163954               00.0000000000E+002.1105836156E+01+
*       -2.671797712E+02               0
GRID*             163955               00.0000000000E+002.1085555853E+01+
*       -2.642194104E+02               0
GRID*             163956               00.0000000000E+002.1065806963E+01+
*       -2.612561259E+02               0
GRID*             163957               00.0000000000E+002.1046897385E+01+
*       -2.582895763E+02               0
GRID*             163958               00.0000000000E+002.1029327368E+01+
*       -2.553187926E+02               0
GRID*             163959               00.0000000000E+002.1013703059E+01+
*       -2.523418675E+02               0
GRID*             163960               00.0000000000E+002.1000591882E+01+
*       -2.493555370E+02               0
GRID*             163961               00.0000000000E+002.0990327376E+01+
*       -2.463545387E+02               0
GRID*             163962               00.0000000000E+002.0983045033E+01+
*       -2.433307315E+02               0
GRID*             163963               00.0000000000E+002.0979677548E+01+
*       -2.402721543E+02               0
GRID*             163964               00.0000000000E+002.0985065085E+01+
*       -2.371623659E+02               0
GRID*             163965               00.0000000000E+002.1017382767E+01+
*       -2.339841188E+02               0
GRID*             163966               00.0000000000E+001.9083104646E+01+
*       -2.273525715E+02               0
GRID*             163967               00.0000000000E+002.1135802328E+01+
*       -2.307598820E+02               0
GRID*             163968               00.0000000000E+002.1769480685E+01+
*       -2.252488707E+02               0
GRID*             163969               00.0000000000E+002.4599305226E+01+
*       -2.225899926E+02               0
GRID*             163970               00.0000000000E+002.4661118008E+01+
*       -2.197503094E+02               0
GRID*             163971               00.0000000000E+002.2729772940E+01+
*       -2.139945268E+02               0
GRID*             163972               00.0000000000E+002.0619411941E+01+
*       -2.111182883E+02               0
GRID*             163973               00.0000000000E+001.8501779750E+01+
*       -2.082043844E+02               0
GRID*             163974               00.0000000000E+002.5055927041E+01+
*       -2.168760442E+02               0
GRID*             163975               00.0000000000E+001.8747865081E+01+
*       -2.052781947E+02               0
GRID*             163976               00.0000000000E+001.8954987980E+01+
*       -2.023431319E+02               0
GRID*             163977               00.0000000000E+001.9142692020E+01+
*       -1.994020493E+02               0
GRID*             163978               00.0000000000E+001.9323504786E+01+
*       -1.964634497E+02               0
GRID*             163979               00.0000000000E+001.9509082126E+01+
*       -1.935265720E+02               0
GRID*             163980               00.0000000000E+001.9708727876E+01+
*       -1.905811921E+02               0
GRID*             163981               00.0000000000E+001.9923712516E+01+
*       -1.876088443E+02               0
GRID*             163982               00.0000000000E+002.0139259530E+01+
*       -1.845919772E+02               0
GRID*             163983               00.0000000000E+002.0328754757E+01+
*       -1.815298846E+02               0
GRID*             163984               00.0000000000E+002.0484170478E+01+
*       -1.784377531E+02               0
GRID*             163985               00.0000000000E+002.0605479671E+01+
*       -1.753291249E+02               0
GRID*             163986               00.0000000000E+002.0695082811E+01+
*       -1.722145787E+02               0
GRID*             163987               00.0000000000E+002.0759311828E+01+
*       -1.691021832E+02               0
GRID*             163988               00.0000000000E+002.0805679990E+01+
*       -1.659962288E+02               0
GRID*             163989               00.0000000000E+002.0840693787E+01+
*       -1.628976743E+02               0
GRID*             163990               00.0000000000E+002.0869099934E+01+
*       -1.598052336E+02               0
GRID*             163991               00.0000000000E+002.0893979498E+01+
*       -1.567162524E+02               0
GRID*             163992               00.0000000000E+002.0917116416E+01+
*       -1.536271542E+02               0
GRID*             163993               00.0000000000E+002.0939345758E+01+
*       -1.505334441E+02               0
GRID*             163994               00.0000000000E+002.0960749907E+01+
*       -1.474291476E+02               0
GRID*             163995               00.0000000000E+002.0980885939E+01+
*       -1.443056477E+02               0
GRID*             163996               00.0000000000E+002.0999781530E+01+
*       -1.411502065E+02               0
GRID*             163997               00.0000000000E+002.1020899529E+01+
*       -1.379446142E+02               0
GRID*             163998               00.0000000000E+002.1059987358E+01+
*       -1.346674367E+02               0
GRID*             163999               00.0000000000E+001.9104006661E+01+
*       -1.276745128E+02               0
GRID*             164000               00.0000000000E+002.1171011292E+01+
*       -1.313257469E+02               0
GRID*             164001               00.0000000000E+002.1843604980E+01+
*       -1.256569186E+02               0
GRID*             164002               00.0000000000E+002.4726971262E+01+
*       -1.231280248E+02               0
GRID*             164003               00.0000000000E+002.4797091771E+01+
*       -1.202836575E+02               0
GRID*             164004               00.0000000000E+002.2865261973E+01+
*       -1.144706085E+02               0
GRID*             164005               00.0000000000E+002.0761292642E+01+
*       -1.115542108E+02               0
GRID*             164006               00.0000000000E+001.8650283964E+01+
*       -1.086319455E+02               0
GRID*             164007               00.0000000000E+002.5202727467E+01+
*       -1.174446368E+02               0
GRID*             164008               00.0000000000E+001.8944008075E+01+
*       -1.057871456E+02               0
GRID*             164009               00.0000000000E+001.9203133101E+01+
*       -1.029206284E+02               0
GRID*             164010               00.0000000000E+001.9447791564E+01+
*       -1.000365086E+02               0
GRID*             164011               00.0000000000E+001.9688400896E+01+
*       -9.713916791E+01               0
GRID*             164012               00.0000000000E+001.9931523290E+01+
*       -9.422251264E+01               0
GRID*             164013               00.0000000000E+002.0175184177E+01+
*       -9.127325944E+01               0
GRID*             164014               00.0000000000E+002.0402960223E+01+
*       -8.828028317E+01               0
GRID*             164015               00.0000000000E+002.0589815945E+01+
*       -8.524835701E+01               0
GRID*             164016               00.0000000000E+002.0730024729E+01+
*       -8.219686385E+01               0
GRID*             164017               00.0000000000E+002.0829437050E+01+
*       -7.914241819E+01               0
GRID*             164018               00.0000000000E+002.0897157863E+01+
*       -7.609230476E+01               0
GRID*             164019               00.0000000000E+002.0940872587E+01+
*       -7.305334972E+01               0
GRID*             164020               00.0000000000E+002.0967285813E+01+
*       -7.002733342E+01               0
GRID*             164021               00.0000000000E+002.0981123311E+01+
*       -6.701432213E+01               0
GRID*             164022               00.0000000000E+002.0986055781E+01+
*       -6.401835408E+01               0
GRID*             164023               00.0000000000E+002.0984058140E+01+
*       -6.103558455E+01               0
GRID*             164024               00.0000000000E+002.0976267196E+01+
*       -5.806477128E+01               0
GRID*             164025               00.0000000000E+002.0963005185E+01+
*       -5.510227409E+01               0
GRID*             164026               00.0000000000E+002.0944075276E+01+
*       -5.214896214E+01               0
GRID*             164027               00.0000000000E+002.0918123568E+01+
*       -4.920263741E+01               0
GRID*             164028               00.0000000000E+002.0884425464E+01+
*       -4.625755053E+01               0
GRID*             164029               00.0000000000E+002.0840080258E+01+
*       -4.331225649E+01               0
GRID*             164030               00.0000000000E+002.0780155476E+01+
*       -4.036033362E+01               0
GRID*             164031               00.0000000000E+002.0680662882E+01+
*       -3.739102567E+01               0
GRID*             164032               00.0000000000E+002.0527891073E+01+
*       -3.435732758E+01               0
GRID*             164033               00.0000000000E+003.2071579987E+01+
*       -2.030353692E+01               0
GRID*             164034               00.0000000000E+003.5450889798E+01+
*       -2.038003568E+01               0
GRID*             164035               00.0000000000E+003.8699111900E+01+
*       -2.043456675E+01               0
GRID*             164036               00.0000000000E+004.1872353467E+01+
*       -2.047266673E+01               0
GRID*             164037               00.0000000000E+004.5000670749E+01+
*       -2.049576830E+01               0
GRID*             164038               00.0000000000E+004.8100185053E+01+
*       -2.050433695E+01               0
GRID*             164039               00.0000000000E+005.1180545032E+01+
*       -2.050777231E+01               0
GRID*             164040               00.0000000000E+005.4248688178E+01+
*       -2.050094366E+01               0
GRID*             164041               00.0000000000E+005.7308510942E+01+
*       -2.048196640E+01               0
GRID*             164042               00.0000000000E+006.0366844347E+01+
*       -2.045318786E+01               0
GRID*             164043               00.0000000000E+006.3434053719E+01+
*       -2.041756748E+01               0
GRID*             164044               00.0000000000E+006.6526022171E+01+
*       -2.037822774E+01               0
GRID*             164045               00.0000000000E+006.9662023936E+01+
*       -2.031882829E+01               0
GRID*             164046               00.0000000000E+006.9593327827E+01+
*       -2.282468949E+01               0
GRID*             164047               00.0000000000E+007.1915976875E+01+
*       -2.768242068E+01               0
GRID*             164048               00.0000000000E+007.4254131259E+01+
*       -2.995147034E+01               0
GRID*             164049               00.0000000000E+007.6561377294E+01+
*       -3.249282481E+01               0
GRID*             164050               00.0000000000E+006.9292945614E+01+
*       -2.532948465E+01               0
GRID*             164051               00.0000000000E+007.6617019507E+01+
*       -3.101809736E+02               0
GRID*             164052               00.0000000000E+007.0587019016E+01+
*       -3.134176990E+02               0
GRID*             164053               00.0000000000E+007.3611730721E+01+
*       -3.117967279E+02               0
GRID*             164054               00.0000000000E+006.7467269150E+01+
*       -3.151397819E+02               0
GRID*             164055               00.0000000000E+006.7463031791E+01+
*       -3.172610149E+02               0
GRID*             164056               00.0000000000E+006.7424370174E+01+
*       -3.193361085E+02               0
GRID*             164057               00.0000000000E+003.1134566518E+01+
*       -3.194128544E+02               0
GRID*             164058               00.0000000000E+003.1263649648E+01+
*       -3.173690046E+02               0
GRID*             164059               00.0000000000E+002.8669493726E+01+
*       -3.135390899E+02               0
GRID*             164060               00.0000000000E+002.6134634879E+01+
*       -3.116957074E+02               0
GRID*             164061               00.0000000000E+002.3752391793E+01+
*       -3.092829043E+02               0
GRID*             164062               00.0000000000E+003.1378432276E+01+
*       -3.152801324E+02               0
GRID*             164063               00.0000000000E+002.3281728489E+01+
*       -3.206492203E+01               0
GRID*             164064               00.0000000000E+002.8826906145E+01+
*       -2.783025836E+01               0
GRID*             164065               00.0000000000E+002.6065153886E+01+
*       -3.005489173E+01               0
GRID*             164066               00.0000000000E+003.1952622076E+01+
*       -2.543272898E+01               0
GRID*             164067               00.0000000000E+003.1844591524E+01+
*       -2.286767453E+01               0
GRID*             164068               00.0000000000E+007.5389442026E+01+
*       -3.598586131E+01               0
GRID*             164069               00.0000000000E+007.5481619739E+01+
*       -3.956069107E+01               0
GRID*             164070               00.0000000000E+007.5539400588E+01+
*       -4.278909176E+01               0
GRID*             164071               00.0000000000E+007.5581158818E+01+
*       -4.589251138E+01               0
GRID*             164072               00.0000000000E+007.5614885216E+01+
*       -4.894002026E+01               0
GRID*             164073               00.0000000000E+007.5643650089E+01+
*       -5.195686178E+01               0
GRID*             164074               00.0000000000E+007.5668463703E+01+
*       -5.495781928E+01               0
GRID*             164075               00.0000000000E+007.5690863029E+01+
*       -5.794931190E+01               0
GRID*             164076               00.0000000000E+007.5710511741E+01+
*       -6.093742563E+01               0
GRID*             164077               00.0000000000E+007.5727712533E+01+
*       -6.392513036E+01               0
GRID*             164078               00.0000000000E+007.5743095586E+01+
*       -6.691487144E+01               0
GRID*             164079               00.0000000000E+007.5754551128E+01+
*       -6.991291876E+01               0
GRID*             164080               00.0000000000E+007.5765314143E+01+
*       -7.291963229E+01               0
GRID*             164081               00.0000000000E+007.5777889994E+01+
*       -7.593762105E+01               0
GRID*             164082               00.0000000000E+007.5796548331E+01+
*       -7.896945384E+01               0
GRID*             164083               00.0000000000E+007.5828735970E+01+
*       -8.201523799E+01               0
GRID*             164084               00.0000000000E+007.5884573040E+01+
*       -8.507515059E+01               0
GRID*             164085               00.0000000000E+007.5976857629E+01+
*       -8.814288120E+01               0
GRID*             164086               00.0000000000E+007.6114299084E+01+
*       -9.120506458E+01               0
GRID*             164087               00.0000000000E+007.6289472436E+01+
*       -9.424817050E+01               0
GRID*             164088               00.0000000000E+007.6489752382E+01+
*       -9.726473441E+01               0
GRID*             164089               00.0000000000E+007.6705066836E+01+
*       -1.002515202E+02               0
GRID*             164090               00.0000000000E+007.6931491878E+01+
*       -1.032078156E+02               0
GRID*             164091               00.0000000000E+007.7164759178E+01+
*       -1.061308276E+02               0
GRID*             164092               00.0000000000E+007.7398428630E+01+
*       -1.090091303E+02               0
GRID*             164093               00.0000000000E+007.7618239470E+01+
*       -1.118150548E+02               0
GRID*             164094               00.0000000000E+007.5130899334E+01+
*       -1.146916919E+02               0
GRID*             164095               00.0000000000E+007.2677500475E+01+
*       -1.175561713E+02               0
GRID*             164096               00.0000000000E+007.2856710706E+01+
*       -1.201508144E+02               0
GRID*             164097               00.0000000000E+007.8119185252E+01+
*       -1.284172376E+02               0
GRID*             164098               00.0000000000E+007.5568187239E+01+
*       -1.255241668E+02               0
GRID*             164099               00.0000000000E+007.2886106061E+01+
*       -1.228087214E+02               0
GRID*             164100               00.0000000000E+007.7862929438E+01+
*       -1.314061601E+02               0
GRID*             164101               00.0000000000E+007.7630869905E+01+
*       -1.344289833E+02               0
GRID*             164102               00.0000000000E+007.7421611441E+01+
*       -1.374723508E+02               0
GRID*             164103               00.0000000000E+007.7238744105E+01+
*       -1.405226290E+02               0
GRID*             164104               00.0000000000E+007.7075376665E+01+
*       -1.435810748E+02               0
GRID*             164105               00.0000000000E+007.6929064656E+01+
*       -1.466450292E+02               0
GRID*             164106               00.0000000000E+007.6797326928E+01+
*       -1.497132941E+02               0
GRID*             164107               00.0000000000E+007.6677901995E+01+
*       -1.527857309E+02               0
GRID*             164108               00.0000000000E+007.6568914760E+01+
*       -1.558630147E+02               0
GRID*             164109               00.0000000000E+007.6469053909E+01+
*       -1.589464800E+02               0
GRID*             164110               00.0000000000E+007.6377828966E+01+
*       -1.620379803E+02               0
GRID*             164111               00.0000000000E+007.6295960087E+01+
*       -1.651396553E+02               0
GRID*             164112               00.0000000000E+007.6225900344E+01+
*       -1.682534864E+02               0
GRID*             164113               00.0000000000E+007.6172296280E+01+
*       -1.713805243E+02               0
GRID*             164114               00.0000000000E+007.6141966108E+01+
*       -1.745197691E+02               0
GRID*             164115               00.0000000000E+007.6142454276E+01+
*       -1.776667216E+02               0
GRID*             164116               00.0000000000E+007.6178240176E+01+
*       -1.808131298E+02               0
GRID*             164117               00.0000000000E+007.6246614533E+01+
*       -1.839503685E+02               0
GRID*             164118               00.0000000000E+007.6341523405E+01+
*       -1.870730513E+02               0
GRID*             164119               00.0000000000E+007.6457290945E+01+
*       -1.901791394E+02               0
GRID*             164120               00.0000000000E+007.6589985265E+01+
*       -1.932682846E+02               0
GRID*             164121               00.0000000000E+007.6737345018E+01+
*       -1.963400200E+02               0
GRID*             164122               00.0000000000E+007.6898235010E+01+
*       -1.993923493E+02               0
GRID*             164123               00.0000000000E+007.7073078939E+01+
*       -2.024242984E+02               0
GRID*             164124               00.0000000000E+007.7261479719E+01+
*       -2.054300368E+02               0
GRID*             164125               00.0000000000E+007.7458178170E+01+
*       -2.083960779E+02               0
GRID*             164126               00.0000000000E+007.7648224140E+01+
*       -2.112920913E+02               0
GRID*             164127               00.0000000000E+007.5125280597E+01+
*       -2.141083249E+02               0
GRID*             164128               00.0000000000E+007.2629440282E+01+
*       -2.168858945E+02               0
GRID*             164129               00.0000000000E+007.2775104353E+01+
*       -2.195088104E+02               0
GRID*             164130               00.0000000000E+007.8030199489E+01+
*       -2.279818773E+02               0
GRID*             164131               00.0000000000E+007.5470923962E+01+
*       -2.250098563E+02               0
GRID*             164132               00.0000000000E+007.2776457748E+01+
*       -2.221760360E+02               0
GRID*             164133               00.0000000000E+007.7750832473E+01+
*       -2.309004236E+02               0
GRID*             164134               00.0000000000E+007.7494582806E+01+
*       -2.338573133E+02               0
GRID*             164135               00.0000000000E+007.7260041112E+01+
*       -2.368387294E+02               0
GRID*             164136               00.0000000000E+007.7047685336E+01+
*       -2.398352287E+02               0
GRID*             164137               00.0000000000E+007.6861394252E+01+
*       -2.428385388E+02               0
GRID*             164138               00.0000000000E+007.6696498138E+01+
*       -2.458481265E+02               0
GRID*             164139               00.0000000000E+007.6552571026E+01+
*       -2.488613173E+02               0
GRID*             164140               00.0000000000E+007.6429211264E+01+
*       -2.518757387E+02               0
GRID*             164141               00.0000000000E+007.6325791536E+01+
*       -2.548889550E+02               0
GRID*             164142               00.0000000000E+007.6241188917E+01+
*       -2.578984792E+02               0
GRID*             164143               00.0000000000E+007.6173746788E+01+
*       -2.609020010E+02               0
GRID*             164144               00.0000000000E+007.6121464752E+01+
*       -2.638976232E+02               0
GRID*             164145               00.0000000000E+007.6082504783E+01+
*       -2.668859108E+02               0
GRID*             164146               00.0000000000E+007.6054563113E+01+
*       -2.698646923E+02               0
GRID*             164147               00.0000000000E+007.6035993505E+01+
*       -2.728333889E+02               0
GRID*             164148               00.0000000000E+007.6025440588E+01+
*       -2.757918707E+02               0
GRID*             164149               00.0000000000E+007.6021112699E+01+
*       -2.787329813E+02               0
GRID*             164150               00.0000000000E+007.6022514171E+01+
*       -2.816601489E+02               0
GRID*             164151               00.0000000000E+007.6029225905E+01+
*       -2.845727017E+02               0
GRID*             164152               00.0000000000E+007.6041258804E+01+
*       -2.874698294E+02               0
GRID*             164153               00.0000000000E+007.6059113906E+01+
*       -2.903539119E+02               0
GRID*             164154               00.0000000000E+007.6083165776E+01+
*       -2.932280811E+02               0
GRID*             164155               00.0000000000E+007.6114844911E+01+
*       -2.960885782E+02               0
GRID*             164156               00.0000000000E+007.6156450938E+01+
*       -2.989350109E+02               0
GRID*             164157               00.0000000000E+007.6211809900E+01+
*       -3.017668517E+02               0
GRID*             164158               00.0000000000E+007.6299235456E+01+
*       -3.045702367E+02               0
GRID*             164159               00.0000000000E+007.6429176766E+01+
*       -3.073666209E+02               0
GRID*             164160               00.0000000000E+006.4275558654E+01+
*       -3.191445106E+02               0
GRID*             164161               00.0000000000E+006.1162496762E+01+
*       -3.189899959E+02               0
GRID*             164162               00.0000000000E+005.8074940165E+01+
*       -3.188740948E+02               0
GRID*             164163               00.0000000000E+005.5008265910E+01+
*       -3.187960285E+02               0
GRID*             164164               00.0000000000E+005.1960059792E+01+
*       -3.187544037E+02               0
GRID*             164165               00.0000000000E+004.8929060583E+01+
*       -3.187480727E+02               0
GRID*             164166               00.0000000000E+004.5914945621E+01+
*       -3.187763643E+02               0
GRID*             164167               00.0000000000E+004.2918256604E+01+
*       -3.188389615E+02               0
GRID*             164168               00.0000000000E+003.9940274283E+01+
*       -3.189355537E+02               0
GRID*             164169               00.0000000000E+003.6982728619E+01+
*       -3.190652590E+02               0
GRID*             164170               00.0000000000E+003.4047218751E+01+
*       -3.192258470E+02               0
GRID*             164171               00.0000000000E+002.4834659761E+01+
*       -3.059360164E+02               0
GRID*             164172               00.0000000000E+002.4690392890E+01+
*       -3.025395469E+02               0
GRID*             164173               00.0000000000E+002.4592097821E+01+
*       -2.994449149E+02               0
GRID*             164174               00.0000000000E+002.4517116892E+01+
*       -2.964541359E+02               0
GRID*             164175               00.0000000000E+002.4456322667E+01+
*       -2.935022212E+02               0
GRID*             164176               00.0000000000E+002.4404580525E+01+
*       -2.905693065E+02               0
GRID*             164177               00.0000000000E+002.4360004285E+01+
*       -2.876415413E+02               0
GRID*             164178               00.0000000000E+002.4319656324E+01+
*       -2.847161121E+02               0
GRID*             164179               00.0000000000E+002.4283496592E+01+
*       -2.817871640E+02               0
GRID*             164180               00.0000000000E+002.4250510376E+01+
*       -2.788540568E+02               0
GRID*             164181               00.0000000000E+002.4219690477E+01+
*       -2.759165861E+02               0
GRID*             164182               00.0000000000E+002.4191848651E+01+
*       -2.729715639E+02               0
GRID*             164183               00.0000000000E+002.4165269569E+01+
*       -2.700215041E+02               0
GRID*             164184               00.0000000000E+002.4139379203E+01+
*       -2.670669815E+02               0
GRID*             164185               00.0000000000E+002.4113143183E+01+
*       -2.641102021E+02               0
GRID*             164186               00.0000000000E+002.4087328844E+01+
*       -2.611502958E+02               0
GRID*             164187               00.0000000000E+002.4062468292E+01+
*       -2.581873580E+02               0
GRID*             164188               00.0000000000E+002.4039475917E+01+
*       -2.552208823E+02               0
GRID*             164189               00.0000000000E+002.4019606629E+01+
*       -2.522494456E+02               0
GRID*             164190               00.0000000000E+002.4004352819E+01+
*       -2.492703917E+02               0
GRID*             164191               00.0000000000E+002.3995346358E+01+
*       -2.462795975E+02               0
GRID*             164192               00.0000000000E+002.3994589419E+01+
*       -2.432715987E+02               0
GRID*             164193               00.0000000000E+002.4005615361E+01+
*       -2.402406869E+02               0
GRID*             164194               00.0000000000E+002.4036096310E+01+
*       -2.371841994E+02               0
GRID*             164195               00.0000000000E+002.4098181163E+01+
*       -2.341115673E+02               0
GRID*             164196               00.0000000000E+002.1597578400E+01+
*       -2.278692457E+02               0
GRID*             164197               00.0000000000E+002.4220384095E+01+
*       -2.310630256E+02               0
GRID*             164198               00.0000000000E+002.4559344084E+01+
*       -2.253540503E+02               0
GRID*             164199               00.0000000000E+002.7582256811E+01+
*       -2.225978658E+02               0
GRID*             164200               00.0000000000E+002.7730742542E+01+
*       -2.197428530E+02               0
GRID*             164201               00.0000000000E+002.5447618312E+01+
*       -2.140312518E+02               0
GRID*             164202               00.0000000000E+002.3151020501E+01+
*       -2.111637440E+02               0
GRID*             164203               00.0000000000E+002.0957586702E+01+
*       -2.082566189E+02               0
GRID*             164204               00.0000000000E+002.7968044433E+01+
*       -2.168812170E+02               0
GRID*             164205               00.0000000000E+002.1229504785E+01+
*       -2.053510681E+02               0
GRID*             164206               00.0000000000E+002.1458205904E+01+
*       -2.024320268E+02               0
GRID*             164207               00.0000000000E+002.1662748195E+01+
*       -1.995245247E+02               0
GRID*             164208               00.0000000000E+002.1863083474E+01+
*       -1.966282544E+02               0
GRID*             164209               00.0000000000E+002.2077104387E+01+
*       -1.937427768E+02               0
GRID*             164210               00.0000000000E+002.2323543467E+01+
*       -1.908528379E+02               0
GRID*             164211               00.0000000000E+002.2611735451E+01+
*       -1.879248191E+02               0
GRID*             164212               00.0000000000E+002.2917816941E+01+
*       -1.849190759E+02               0
GRID*             164213               00.0000000000E+002.3173965813E+01+
*       -1.818333347E+02               0
GRID*             164214               00.0000000000E+002.3376619221E+01+
*       -1.787065860E+02               0
GRID*             164215               00.0000000000E+002.3531390653E+01+
*       -1.755609032E+02               0
GRID*             164216               00.0000000000E+002.3639864928E+01+
*       -1.724109717E+02               0
GRID*             164217               00.0000000000E+002.3713194600E+01+
*       -1.692691151E+02               0
GRID*             164218               00.0000000000E+002.3764037629E+01+
*       -1.661405577E+02               0
GRID*             164219               00.0000000000E+002.3802235522E+01+
*       -1.630251994E+02               0
GRID*             164220               00.0000000000E+002.3834233527E+01+
*       -1.599202434E+02               0
GRID*             164221               00.0000000000E+002.3863865223E+01+
*       -1.568218287E+02               0
GRID*             164222               00.0000000000E+002.3893264994E+01+
*       -1.537257314E+02               0
GRID*             164223               00.0000000000E+002.3923582517E+01+
*       -1.506274995E+02               0
GRID*             164224               00.0000000000E+002.3955519129E+01+
*       -1.475222278E+02               0
GRID*             164225               00.0000000000E+002.3989982425E+01+
*       -1.444042925E+02               0
GRID*             164226               00.0000000000E+002.4029463212E+01+
*       -1.412678302E+02               0
GRID*             164227               00.0000000000E+002.4080797384E+01+
*       -1.381094400E+02               0
GRID*             164228               00.0000000000E+002.4156510365E+01+
*       -1.349351759E+02               0
GRID*             164229               00.0000000000E+002.1643906862E+01+
*       -1.283443811E+02               0
GRID*             164230               00.0000000000E+002.4285936904E+01+
*       -1.317856865E+02               0
GRID*             164231               00.0000000000E+002.4665040424E+01+
*       -1.259288978E+02               0
GRID*             164232               00.0000000000E+002.7737294885E+01+
*       -1.233009682E+02               0
GRID*             164233               00.0000000000E+002.7902120079E+01+
*       -1.204440273E+02               0
GRID*             164234               00.0000000000E+002.5629296197E+01+
*       -1.146542954E+02               0
GRID*             164235               00.0000000000E+002.3334172336E+01+
*       -1.117211644E+02               0
GRID*             164236               00.0000000000E+002.1149532408E+01+
*       -1.087815881E+02               0
GRID*             164237               00.0000000000E+002.8160358292E+01+
*       -1.176042327E+02               0
GRID*             164238               00.0000000000E+002.1479129680E+01+
*       -1.059584710E+02               0
GRID*             164239               00.0000000000E+002.1774097237E+01+
*       -1.031136154E+02               0
GRID*             164240               00.0000000000E+002.2053250422E+01+
*       -1.002655106E+02               0
GRID*             164241               00.0000000000E+002.2337278797E+01+
*       -9.741022964E+01               0
GRID*             164242               00.0000000000E+002.2640963246E+01+
*       -9.453583745E+01               0
GRID*             164243               00.0000000000E+002.2968060274E+01+
*       -9.161468972E+01               0
GRID*             164244               00.0000000000E+002.3290309878E+01+
*       -8.861630356E+01               0
GRID*             164245               00.0000000000E+002.3541377297E+01+
*       -8.554616823E+01               0
GRID*             164246               00.0000000000E+002.3717379251E+01+
*       -8.244995019E+01               0
GRID*             164247               00.0000000000E+002.3835081325E+01+
*       -7.935515029E+01               0
GRID*             164248               00.0000000000E+002.3910479561E+01+
*       -7.627591825E+01               0
GRID*             164249               00.0000000000E+002.3956914092E+01+
*       -7.321584300E+01               0
GRID*             164250               00.0000000000E+002.3983497486E+01+
*       -7.017513215E+01               0
GRID*             164251               00.0000000000E+002.3996110239E+01+
*       -6.715261098E+01               0
GRID*             164252               00.0000000000E+002.3998766686E+01+
*       -6.415022297E+01               0
GRID*             164253               00.0000000000E+002.3993781387E+01+
*       -6.116507803E+01               0
GRID*             164254               00.0000000000E+002.3982359638E+01+
*       -5.819572293E+01               0
GRID*             164255               00.0000000000E+002.3964821613E+01+
*       -5.524108299E+01               0
GRID*             164256               00.0000000000E+002.3940632863E+01+
*       -5.229822677E+01               0
GRID*             164257               00.0000000000E+002.3909272572E+01+
*       -4.936474217E+01               0
GRID*             164258               00.0000000000E+002.3869031050E+01+
*       -4.644231784E+01               0
GRID*             164259               00.0000000000E+002.3816976888E+01+
*       -4.353092250E+01               0
GRID*             164260               00.0000000000E+002.3748308428E+01+
*       -4.063147067E+01               0
GRID*             164261               00.0000000000E+002.3641552019E+01+
*       -3.775195359E+01               0
GRID*             164262               00.0000000000E+002.3487146045E+01+
*       -3.489118520E+01               0
GRID*             164263               00.0000000000E+003.5329410130E+01+
*       -2.295533546E+01               0
GRID*             164264               00.0000000000E+003.8604768929E+01+
*       -2.302210806E+01               0
GRID*             164265               00.0000000000E+004.1788767276E+01+
*       -2.306935697E+01               0
GRID*             164266               00.0000000000E+004.4923337607E+01+
*       -2.309802023E+01               0
GRID*             164267               00.0000000000E+004.8027079752E+01+
*       -2.310921198E+01               0
GRID*             164268               00.0000000000E+005.1109405587E+01+
*       -2.310493857E+01               0
GRID*             164269               00.0000000000E+005.4176583579E+01+
*       -2.309328767E+01               0
GRID*             164270               00.0000000000E+005.7231993863E+01+
*       -2.306462576E+01               0
GRID*             164271               00.0000000000E+006.0281109594E+01+
*       -2.302161211E+01               0
GRID*             164272               00.0000000000E+006.3333756604E+01+
*       -2.296720225E+01               0
GRID*             164273               00.0000000000E+006.6412612310E+01+
*       -2.290464575E+01               0
GRID*             164274               00.0000000000E+006.9026147274E+01+
*       -2.778962380E+01               0
GRID*             164275               00.0000000000E+007.1614306072E+01+
*       -3.008994316E+01               0
GRID*             164276               00.0000000000E+007.3974899077E+01+
*       -3.237315465E+01               0
GRID*             164277               00.0000000000E+006.6246526439E+01+
*       -2.541496164E+01               0
GRID*             164278               00.0000000000E+007.3500215988E+01+
*       -3.093251260E+02               0
GRID*             164279               00.0000000000E+006.7449868037E+01+
*       -3.129561996E+02               0
GRID*             164280               00.0000000000E+007.0500905790E+01+
*       -3.111373938E+02               0
GRID*             164281               00.0000000000E+006.4342128697E+01+
*       -3.148393960E+02               0
GRID*             164282               00.0000000000E+006.4322557352E+01+
*       -3.170102038E+02               0
GRID*             164283               00.0000000000E+003.4158906516E+01+
*       -3.171200517E+02               0
GRID*             164284               00.0000000000E+003.1476105578E+01+
*       -3.131344196E+02               0
GRID*             164285               00.0000000000E+002.8799310076E+01+
*       -3.112949539E+02               0
GRID*             164286               00.0000000000E+002.6345175923E+01+
*       -3.093147507E+02               0
GRID*             164287               00.0000000000E+003.4250657591E+01+
*       -3.149827382E+02               0
GRID*             164288               00.0000000000E+002.6292409310E+01+
*       -3.260260607E+01               0
GRID*             164289               00.0000000000E+003.2130341870E+01+
*       -2.797720117E+01               0
GRID*             164290               00.0000000000E+002.9135547438E+01+
*       -3.033887382E+01               0
GRID*             164291               00.0000000000E+003.5322078148E+01+
*       -2.552746313E+01               0
GRID*             164292               00.0000000000E+007.2025059119E+01+
*       -3.725236546E+01               0
GRID*             164293               00.0000000000E+007.3716571692E+01+
*       -3.451610628E+01               0
GRID*             164294               00.0000000000E+007.2252562902E+01+
*       -4.013625020E+01               0
GRID*             164295               00.0000000000E+007.2380697812E+01+
*       -4.312211056E+01               0
GRID*             164296               00.0000000000E+007.2460440708E+01+
*       -4.611977545E+01               0
GRID*             164297               00.0000000000E+007.2516139635E+01+
*       -4.911274866E+01               0
GRID*             164298               00.0000000000E+007.2558012781E+01+
*       -5.209994380E+01               0
GRID*             164299               00.0000000000E+007.2592177586E+01+
*       -5.507943289E+01               0
GRID*             164300               00.0000000000E+007.2620613695E+01+
*       -5.805885916E+01               0
GRID*             164301               00.0000000000E+007.2644342940E+01+
*       -6.103963695E+01               0
GRID*             164302               00.0000000000E+007.2664058848E+01+
*       -6.402337830E+01               0
GRID*             164303               00.0000000000E+007.2680359050E+01+
*       -6.701191593E+01               0
GRID*             164304               00.0000000000E+007.2691896387E+01+
*       -7.001016697E+01               0
GRID*             164305               00.0000000000E+007.2700666732E+01+
*       -7.301926607E+01               0
GRID*             164306               00.0000000000E+007.2708464657E+01+
*       -7.604278635E+01               0
GRID*             164307               00.0000000000E+007.2719080563E+01+
*       -7.908532812E+01               0
GRID*             164308               00.0000000000E+007.2740534097E+01+
*       -8.215198397E+01               0
GRID*             164309               00.0000000000E+007.2788666071E+01+
*       -8.524397582E+01               0
GRID*             164310               00.0000000000E+007.2888660669E+01+
*       -8.835406273E+01               0
GRID*             164311               00.0000000000E+007.3065041013E+01+
*       -9.145435080E+01               0
GRID*             164312               00.0000000000E+007.3292890943E+01+
*       -9.451863068E+01               0
GRID*             164313               00.0000000000E+007.3545069074E+01+
*       -9.753946721E+01               0
GRID*             164314               00.0000000000E+007.3807448839E+01+
*       -1.005188651E+02               0
GRID*             164315               00.0000000000E+007.4074315390E+01+
*       -1.034604346E+02               0
GRID*             164316               00.0000000000E+007.4343421008E+01+
*       -1.063612789E+02               0
GRID*             164317               00.0000000000E+007.4612017793E+01+
*       -1.092115344E+02               0
GRID*             164318               00.0000000000E+007.4875228873E+01+
*       -1.119940833E+02               0
GRID*             164319               00.0000000000E+007.2421116761E+01+
*       -1.149393678E+02               0
GRID*             164320               00.0000000000E+007.0040578743E+01+
*       -1.178185123E+02               0
GRID*             164321               00.0000000000E+007.0247576940E+01+
*       -1.203131378E+02               0
GRID*             164322               00.0000000000E+007.5318068678E+01+
*       -1.284218194E+02               0
GRID*             164323               00.0000000000E+007.2734343716E+01+
*       -1.255585428E+02               0
GRID*             164324               00.0000000000E+007.0177670129E+01+
*       -1.228452336E+02               0
GRID*             164325               00.0000000000E+007.5072943669E+01+
*       -1.313644959E+02               0
GRID*             164326               00.0000000000E+007.4836124360E+01+
*       -1.343540961E+02               0
GRID*             164327               00.0000000000E+007.4615800982E+01+
*       -1.373762906E+02               0
GRID*             164328               00.0000000000E+007.4415090734E+01+
*       -1.404191194E+02               0
GRID*             164329               00.0000000000E+007.4236389689E+01+
*       -1.434715632E+02               0
GRID*             164330               00.0000000000E+007.4074888365E+01+
*       -1.465325649E+02               0
GRID*             164331               00.0000000000E+007.3927972540E+01+
*       -1.496000508E+02               0
GRID*             164332               00.0000000000E+007.3793099640E+01+
*       -1.526734443E+02               0
GRID*             164333               00.0000000000E+007.3668020315E+01+
*       -1.557533172E+02               0
GRID*             164334               00.0000000000E+007.3550986824E+01+
*       -1.588412277E+02               0
GRID*             164335               00.0000000000E+007.3441067301E+01+
*       -1.619396394E+02               0
GRID*             164336               00.0000000000E+007.3338709626E+01+
*       -1.650518031E+02               0
GRID*             164337               00.0000000000E+007.3246653265E+01+
*       -1.681814135E+02               0
GRID*             164338               00.0000000000E+007.3171241779E+01+
*       -1.713317275E+02               0
GRID*             164339               00.0000000000E+007.3123551361E+01+
*       -1.745033703E+02               0
GRID*             164340               00.0000000000E+007.3118306961E+01+
*       -1.776901825E+02               0
GRID*             164341               00.0000000000E+007.3165975156E+01+
*       -1.808764577E+02               0
GRID*             164342               00.0000000000E+007.3258034066E+01+
*       -1.840458953E+02               0
GRID*             164343               00.0000000000E+007.3381250946E+01+
*       -1.871908333E+02               0
GRID*             164344               00.0000000000E+007.3525663078E+01+
*       -1.903102698E+02               0
GRID*             164345               00.0000000000E+007.3685637082E+01+
*       -1.934055272E+02               0
GRID*             164346               00.0000000000E+007.3858602009E+01+
*       -1.964772108E+02               0
GRID*             164347               00.0000000000E+007.4044165474E+01+
*       -1.995251553E+02               0
GRID*             164348               00.0000000000E+007.4243360301E+01+
*       -2.025464789E+02               0
GRID*             164349               00.0000000000E+007.4455809063E+01+
*       -2.055331056E+02               0
GRID*             164350               00.0000000000E+007.4678363696E+01+
*       -2.084705718E+02               0
GRID*             164351               00.0000000000E+007.4903807678E+01+
*       -2.113369497E+02               0
GRID*             164352               00.0000000000E+007.2407026733E+01+
*       -2.142203450E+02               0
GRID*             164353               00.0000000000E+006.9978139842E+01+
*       -2.170271906E+02               0
GRID*             164354               00.0000000000E+007.0148760374E+01+
*       -2.195512014E+02               0
GRID*             164355               00.0000000000E+007.5193492695E+01+
*       -2.278647196E+02               0
GRID*             164356               00.0000000000E+007.2600247797E+01+
*       -2.249150227E+02               0
GRID*             164357               00.0000000000E+007.0043231286E+01+
*       -2.220937688E+02               0
GRID*             164358               00.0000000000E+007.4920798289E+01+
*       -2.307562983E+02               0
GRID*             164359               00.0000000000E+007.4654722162E+01+
*       -2.336909371E+02               0
GRID*             164360               00.0000000000E+007.4403273697E+01+
*       -2.366576702E+02               0
GRID*             164361               00.0000000000E+007.4170603380E+01+
*       -2.396461922E+02               0
GRID*             164362               00.0000000000E+007.3958703004E+01+
*       -2.426490684E+02               0
GRID*             164363               00.0000000000E+007.3770835722E+01+
*       -2.456604013E+02               0
GRID*             164364               00.0000000000E+007.3605507361E+01+
*       -2.486783159E+02               0
GRID*             164365               00.0000000000E+007.3463320744E+01+
*       -2.516997619E+02               0
GRID*             164366               00.0000000000E+007.3344433538E+01+
*       -2.547213315E+02               0
GRID*             164367               00.0000000000E+007.3247995257E+01+
*       -2.577394082E+02               0
GRID*             164368               00.0000000000E+007.3172091682E+01+
*       -2.607506241E+02               0
GRID*             164369               00.0000000000E+007.3114373817E+01+
*       -2.637537252E+02               0
GRID*             164370               00.0000000000E+007.3071791448E+01+
*       -2.667459896E+02               0
GRID*             164371               00.0000000000E+007.3041881366E+01+
*       -2.697260645E+02               0
GRID*             164372               00.0000000000E+007.3022558924E+01+
*       -2.726931514E+02               0
GRID*             164373               00.0000000000E+007.3012149497E+01+
*       -2.756468503E+02               0
GRID*             164374               00.0000000000E+007.3008986610E+01+
*       -2.785815597E+02               0
GRID*             164375               00.0000000000E+007.3012187442E+01+
*       -2.814994003E+02               0
GRID*             164376               00.0000000000E+007.3021216222E+01+
*       -2.843992991E+02               0
GRID*             164377               00.0000000000E+007.3035939203E+01+
*       -2.872799122E+02               0
GRID*             164378               00.0000000000E+007.3056717024E+01+
*       -2.901399296E+02               0
GRID*             164379               00.0000000000E+007.3083479111E+01+
*       -2.929857560E+02               0
GRID*             164380               00.0000000000E+007.3117516122E+01+
*       -2.958091849E+02               0
GRID*             164381               00.0000000000E+007.3160275867E+01+
*       -2.986069833E+02               0
GRID*             164382               00.0000000000E+007.3213764544E+01+
*       -3.013737245E+02               0
GRID*             164383               00.0000000000E+007.3287557152E+01+
*       -3.040829271E+02               0
GRID*             164384               00.0000000000E+007.3383332267E+01+
*       -3.067380027E+02               0
GRID*             164385               00.0000000000E+006.1214775313E+01+
*       -3.168182592E+02               0
GRID*             164386               00.0000000000E+005.8130655187E+01+
*       -3.166778477E+02               0
GRID*             164387               00.0000000000E+005.5066605400E+01+
*       -3.165845352E+02               0
GRID*             164388               00.0000000000E+005.2021043680E+01+
*       -3.165353894E+02               0
GRID*             164389               00.0000000000E+004.8993342751E+01+
*       -3.165285921E+02               0
GRID*             164390               00.0000000000E+004.5983712807E+01+
*       -3.165632795E+02               0
GRID*             164391               00.0000000000E+004.2993264734E+01+
*       -3.166393382E+02               0
GRID*             164392               00.0000000000E+004.0024006465E+01+
*       -3.167571109E+02               0
GRID*             164393               00.0000000000E+003.7078540036E+01+
*       -3.169170890E+02               0
GRID*             164394               00.0000000000E+002.8178146392E+01+
*       -3.045626867E+02               0
GRID*             164395               00.0000000000E+002.6533846386E+01+
*       -3.072654981E+02               0
GRID*             164396               00.0000000000E+002.7914243424E+01+
*       -3.018415195E+02               0
GRID*             164397               00.0000000000E+002.7750961787E+01+
*       -2.989981938E+02               0
GRID*             164398               00.0000000000E+002.7640032599E+01+
*       -2.961253296E+02               0
GRID*             164399               00.0000000000E+002.7557623807E+01+
*       -2.932403467E+02               0
GRID*             164400               00.0000000000E+002.7492763362E+01+
*       -2.903467229E+02               0
GRID*             164401               00.0000000000E+002.7437311169E+01+
*       -2.874530580E+02               0
GRID*             164402               00.0000000000E+002.7389400508E+01+
*       -2.845491124E+02               0
GRID*             164403               00.0000000000E+002.7347007794E+01+
*       -2.816360719E+02               0
GRID*             164404               00.0000000000E+002.7308512795E+01+
*       -2.787148082E+02               0
GRID*             164405               00.0000000000E+002.7272515094E+01+
*       -2.757860990E+02               0
GRID*             164406               00.0000000000E+002.7238978107E+01+
*       -2.728482265E+02               0
GRID*             164407               00.0000000000E+002.7206482099E+01+
*       -2.699037743E+02               0
GRID*             164408               00.0000000000E+002.7174339176E+01+
*       -2.669537510E+02               0
GRID*             164409               00.0000000000E+002.7142203664E+01+
*       -2.639992984E+02               0
GRID*             164410               00.0000000000E+002.7109629105E+01+
*       -2.610427530E+02               0
GRID*             164411               00.0000000000E+002.7077775401E+01+
*       -2.580839841E+02               0
GRID*             164412               00.0000000000E+002.7048048793E+01+
*       -2.551232655E+02               0
GRID*             164413               00.0000000000E+002.7022512706E+01+
*       -2.521599602E+02               0
GRID*             164414               00.0000000000E+002.7003766177E+01+
*       -2.491921996E+02               0
GRID*             164415               00.0000000000E+002.6994704675E+01+
*       -2.462169077E+02               0
GRID*             164416               00.0000000000E+002.6998427612E+01+
*       -2.432305312E+02               0
GRID*             164417               00.0000000000E+002.7018820443E+01+
*       -2.402308676E+02               0
GRID*             164418               00.0000000000E+002.7059494207E+01+
*       -2.372209931E+02               0
GRID*             164419               00.0000000000E+002.7127873823E+01+
*       -2.342107100E+02               0
GRID*             164420               00.0000000000E+002.4429565987E+01+
*       -2.281465101E+02               0
GRID*             164421               00.0000000000E+002.7231052334E+01+
*       -2.312256723E+02               0
GRID*             164422               00.0000000000E+002.7479124129E+01+
*       -2.254376899E+02               0
GRID*             164423               00.0000000000E+003.0553844360E+01+
*       -2.226190531E+02               0
GRID*             164424               00.0000000000E+003.0696782662E+01+
*       -2.197412344E+02               0
GRID*             164425               00.0000000000E+002.8237187581E+01+
*       -2.140230626E+02               0
GRID*             164426               00.0000000000E+002.5786374498E+01+
*       -2.111768881E+02               0
GRID*             164427               00.0000000000E+002.3481049879E+01+
*       -2.082944590E+02               0
GRID*             164428               00.0000000000E+003.0871790022E+01+
*       -2.168634021E+02               0
GRID*             164429               00.0000000000E+002.3750551462E+01+
*       -2.054019982E+02               0
GRID*             164430               00.0000000000E+002.3978570033E+01+
*       -2.025078480E+02               0
GRID*             164431               00.0000000000E+002.4182196341E+01+
*       -1.996303346E+02               0
GRID*             164432               00.0000000000E+002.4382598134E+01+
*       -1.967844508E+02               0
GRID*             164433               00.0000000000E+002.4607081123E+01+
*       -1.939679709E+02               0
GRID*             164434               00.0000000000E+002.4890662532E+01+
*       -1.911631993E+02               0
GRID*             164435               00.0000000000E+002.5268337448E+01+
*       -1.883140454E+02               0
GRID*             164436               00.0000000000E+002.5720994464E+01+
*       -1.853250876E+02               0
GRID*             164437               00.0000000000E+002.6049540955E+01+
*       -1.821819751E+02               0
GRID*             164438               00.0000000000E+002.6297116438E+01+
*       -1.789990688E+02               0
GRID*             164439               00.0000000000E+002.6487265258E+01+
*       -1.758016538E+02               0
GRID*             164440               00.0000000000E+002.6608010149E+01+
*       -1.726042821E+02               0
GRID*             164441               00.0000000000E+002.6681489448E+01+
*       -1.694276171E+02               0
GRID*             164442               00.0000000000E+002.6729483587E+01+
*       -1.662762686E+02               0
GRID*             164443               00.0000000000E+002.6766002607E+01+
*       -1.631465600E+02               0
GRID*             164444               00.0000000000E+002.6798754219E+01+
*       -1.600325697E+02               0
GRID*             164445               00.0000000000E+002.6831689900E+01+
*       -1.569285447E+02               0
GRID*             164446               00.0000000000E+002.6866765978E+01+
*       -1.538294728E+02               0
GRID*             164447               00.0000000000E+002.6905016825E+01+
*       -1.507310523E+02               0
GRID*             164448               00.0000000000E+002.6947265536E+01+
*       -1.476295461E+02               0
GRID*             164449               00.0000000000E+002.6994826347E+01+
*       -1.445219104E+02               0
GRID*             164450               00.0000000000E+002.7050547645E+01+
*       -1.414068091E+02               0
GRID*             164451               00.0000000000E+002.7118574469E+01+
*       -1.382863485E+02               0
GRID*             164452               00.0000000000E+002.7206951440E+01+
*       -1.351728177E+02               0
GRID*             164453               00.0000000000E+002.4510704508E+01+
*       -1.287838626E+02               0
GRID*             164454               00.0000000000E+002.7325855568E+01+
*       -1.320936808E+02               0
GRID*             164455               00.0000000000E+002.7613520446E+01+
*       -1.261712713E+02               0
GRID*             164456               00.0000000000E+003.0735470871E+01+
*       -1.234654441E+02               0
GRID*             164457               00.0000000000E+003.0898824024E+01+
*       -1.205840191E+02               0
GRID*             164458               00.0000000000E+002.8463935829E+01+
*       -1.147890763E+02               0
GRID*             164459               00.0000000000E+002.6015693522E+01+
*       -1.118674471E+02               0
GRID*             164460               00.0000000000E+002.3720145545E+01+
*       -1.089344628E+02               0
GRID*             164461               00.0000000000E+003.1099739076E+01+
*       -1.177245109E+02               0
GRID*             164462               00.0000000000E+002.4054704547E+01+
*       -1.061236478E+02               0
GRID*             164463               00.0000000000E+002.4359057355E+01+
*       -1.033072658E+02               0
GRID*             164464               00.0000000000E+002.4653707415E+01+
*       -1.004989709E+02               0
GRID*             164465               00.0000000000E+002.4963813423E+01+
*       -9.770185518E+01               0
GRID*             164466               00.0000000000E+002.5321599083E+01+
*       -9.489708028E+01               0
GRID*             164467               00.0000000000E+002.5754285742E+01+
*       -9.203417058E+01               0
GRID*             164468               00.0000000000E+002.6232994134E+01+
*       -8.903030446E+01               0
GRID*             164469               00.0000000000E+002.6556864794E+01+
*       -8.588043271E+01               0
GRID*             164470               00.0000000000E+002.6757495695E+01+
*       -8.270843031E+01               0
GRID*             164471               00.0000000000E+002.6878836307E+01+
*       -7.956170528E+01               0
GRID*             164472               00.0000000000E+002.6951100764E+01+
*       -7.644835719E+01               0
GRID*             164473               00.0000000000E+002.6992577610E+01+
*       -7.336621924E+01               0
GRID*             164474               00.0000000000E+002.7014111157E+01+
*       -7.031155458E+01               0
GRID*             164475               00.0000000000E+002.7022052224E+01+
*       -6.728093601E+01               0
GRID*             164476               00.0000000000E+002.7020278164E+01+
*       -6.427395817E+01               0
GRID*             164477               00.0000000000E+002.7011001898E+01+
*       -6.128773141E+01               0
GRID*             164478               00.0000000000E+002.6995305798E+01+
*       -5.832062996E+01               0
GRID*             164479               00.0000000000E+002.6973418210E+01+
*       -5.537168753E+01               0
GRID*             164480               00.0000000000E+002.6944721384E+01+
*       -5.244028601E+01               0
GRID*             164481               00.0000000000E+002.6908844360E+01+
*       -4.952209544E+01               0
GRID*             164482               00.0000000000E+002.6863929696E+01+
*       -4.662159530E+01               0
GRID*             164483               00.0000000000E+002.6807330907E+01+
*       -4.374096818E+01               0
GRID*             164484               00.0000000000E+002.6735038157E+01+
*       -4.088469266E+01               0
GRID*             164485               00.0000000000E+002.6630548711E+01+
*       -3.806795535E+01               0
GRID*             164486               00.0000000000E+002.6485797839E+01+
*       -3.529832753E+01               0
GRID*             164487               00.0000000000E+003.8565598959E+01+
*       -2.560558691E+01               0
GRID*             164488               00.0000000000E+004.1738062330E+01+
*       -2.566145387E+01               0
GRID*             164489               00.0000000000E+004.4868072122E+01+
*       -2.569511333E+01               0
GRID*             164490               00.0000000000E+004.7969641115E+01+
*       -2.570783595E+01               0
GRID*             164491               00.0000000000E+005.1049715565E+01+
*       -2.570152222E+01               0
GRID*             164492               00.0000000000E+005.4112319108E+01+
*       -2.567893014E+01               0
GRID*             164493               00.0000000000E+005.7159634645E+01+
*       -2.563728200E+01               0
GRID*             164494               00.0000000000E+006.0194156379E+01+
*       -2.557719108E+01               0
GRID*             164495               00.0000000000E+006.3220110217E+01+
*       -2.550129325E+01               0
GRID*             164496               00.0000000000E+006.6085968122E+01+
*       -2.791273363E+01               0
GRID*             164497               00.0000000000E+006.8842025523E+01+
*       -3.024921966E+01               0
GRID*             164498               00.0000000000E+007.1466182886E+01+
*       -3.250360565E+01               0
GRID*             164499               00.0000000000E+007.0418384948E+01+
*       -3.087323170E+02               0
GRID*             164500               00.0000000000E+006.4345423287E+01+
*       -3.126233419E+02               0
GRID*             164501               00.0000000000E+006.7404227358E+01+
*       -3.106722845E+02               0
GRID*             164502               00.0000000000E+006.1244682255E+01+
*       -3.146164774E+02               0
GRID*             164503               00.0000000000E+003.4319452147E+01+
*       -3.128058639E+02               0
GRID*             164504               00.0000000000E+003.1531595771E+01+
*       -3.109159352E+02               0
GRID*             164505               00.0000000000E+002.8839038796E+01+
*       -3.090295176E+02               0
GRID*             164506               00.0000000000E+003.7154187242E+01+
*       -3.147436501E+02               0
GRID*             164507               00.0000000000E+002.9349808935E+01+
*       -3.292777256E+01               0
GRID*             164508               00.0000000000E+003.5380066121E+01+
*       -2.809933163E+01               0
GRID*             164509               00.0000000000E+003.2299454084E+01+
*       -3.054113286E+01               0
GRID*             164510               00.0000000000E+006.9010537071E+01+
*       -3.780404824E+01               0
GRID*             164511               00.0000000000E+007.1511100028E+01+
*       -3.486442216E+01               0
GRID*             164512               00.0000000000E+006.9166539515E+01+
*       -4.056607040E+01               0
GRID*             164513               00.0000000000E+006.9283572117E+01+
*       -4.343634001E+01               0
GRID*             164514               00.0000000000E+006.9368505572E+01+
*       -4.635468972E+01               0
GRID*             164515               00.0000000000E+006.9432085777E+01+
*       -4.929607246E+01               0
GRID*             164516               00.0000000000E+006.9481246560E+01+
*       -5.224934442E+01               0
GRID*             164517               00.0000000000E+006.9520896540E+01+
*       -5.520684929E+01               0
GRID*             164518               00.0000000000E+006.9553629488E+01+
*       -5.817146613E+01               0
GRID*             164519               00.0000000000E+006.9580548734E+01+
*       -6.114238890E+01               0
GRID*             164520               00.0000000000E+006.9602278381E+01+
*       -6.411979562E+01               0
GRID*             164521               00.0000000000E+006.9619052913E+01+
*       -6.710466578E+01               0
GRID*             164522               00.0000000000E+006.9629843262E+01+
*       -7.010042175E+01               0
GRID*             164523               00.0000000000E+006.9634955243E+01+
*       -7.310842821E+01               0
GRID*             164524               00.0000000000E+006.9634236118E+01+
*       -7.613312476E+01               0
GRID*             164525               00.0000000000E+006.9628727004E+01+
*       -7.918200701E+01               0
GRID*             164526               00.0000000000E+006.9623987442E+01+
*       -8.226685537E+01               0
GRID*             164527               00.0000000000E+006.9638782608E+01+
*       -8.540146541E+01               0
GRID*             164528               00.0000000000E+006.9723256436E+01+
*       -8.858344493E+01               0
GRID*             164529               00.0000000000E+006.9966011939E+01+
*       -9.174677788E+01               0
GRID*             164530               00.0000000000E+007.0273216230E+01+
*       -9.483637740E+01               0
GRID*             164531               00.0000000000E+007.0591387460E+01+
*       -9.785596719E+01               0
GRID*             164532               00.0000000000E+007.0904240293E+01+
*       -1.008238016E+02               0
GRID*             164533               00.0000000000E+007.1211161057E+01+
*       -1.037496506E+02               0
GRID*             164534               00.0000000000E+007.1515408442E+01+
*       -1.066338347E+02               0
GRID*             164535               00.0000000000E+007.1819536226E+01+
*       -1.094685808E+02               0
GRID*             164536               00.0000000000E+007.2123133323E+01+
*       -1.122407271E+02               0
GRID*             164537               00.0000000000E+006.9721153045E+01+
*       -1.152389578E+02               0
GRID*             164538               00.0000000000E+006.7514192156E+01+
*       -1.181555664E+02               0
GRID*             164539               00.0000000000E+006.7904990789E+01+
*       -1.204235678E+02               0
GRID*             164540               00.0000000000E+007.2499668106E+01+
*       -1.283959334E+02               0
GRID*             164541               00.0000000000E+006.9959227751E+01+
*       -1.255107909E+02               0
GRID*             164542               00.0000000000E+006.7615177344E+01+
*       -1.227309942E+02               0
GRID*             164543               00.0000000000E+007.2252155009E+01+
*       -1.313034409E+02               0
GRID*             164544               00.0000000000E+007.2008046247E+01+
*       -1.342701511E+02               0
GRID*             164545               00.0000000000E+007.1778997080E+01+
*       -1.372773640E+02               0
GRID*             164546               00.0000000000E+007.1568901875E+01+
*       -1.403104887E+02               0
GRID*             164547               00.0000000000E+007.1377807681E+01+
*       -1.433597461E+02               0
GRID*             164548               00.0000000000E+007.1205151592E+01+
*       -1.464177879E+02               0
GRID*             164549               00.0000000000E+007.1046700939E+01+
*       -1.494835657E+02               0
GRID*             164550               00.0000000000E+007.0899479659E+01+
*       -1.525562656E+02               0
GRID*             164551               00.0000000000E+007.0760717112E+01+
*       -1.556363909E+02               0
GRID*             164552               00.0000000000E+007.0627983104E+01+
*       -1.587256951E+02               0
GRID*             164553               00.0000000000E+007.0499438552E+01+
*       -1.618272705E+02               0
GRID*             164554               00.0000000000E+007.0374418984E+01+
*       -1.649458141E+02               0
GRID*             164555               00.0000000000E+007.0254727431E+01+
*       -1.680879195E+02               0
GRID*             164556               00.0000000000E+007.0147341097E+01+
*       -1.712615354E+02               0
GRID*             164557               00.0000000000E+007.0068639786E+01+
*       -1.744727814E+02               0
GRID*             164558               00.0000000000E+007.0048079208E+01+
*       -1.777157422E+02               0
GRID*             164559               00.0000000000E+007.0115930057E+01+
*       -1.809581958E+02               0
GRID*             164560               00.0000000000E+007.0244153777E+01+
*       -1.841672999E+02               0
GRID*             164561               00.0000000000E+007.0404732861E+01+
*       -1.873350686E+02               0
GRID*             164562               00.0000000000E+007.0582356134E+01+
*       -1.904655511E+02               0
GRID*             164563               00.0000000000E+007.0770788642E+01+
*       -1.935644348E+02               0
GRID*             164564               00.0000000000E+007.0968512837E+01+
*       -1.966354097E+02               0
GRID*             164565               00.0000000000E+007.1177197462E+01+
*       -1.996800071E+02               0
GRID*             164566               00.0000000000E+007.1398754658E+01+
*       -2.026949011E+02               0
GRID*             164567               00.0000000000E+007.1634769293E+01+
*       -2.056719095E+02               0
GRID*             164568               00.0000000000E+007.1885004350E+01+
*       -2.085971593E+02               0
GRID*             164569               00.0000000000E+007.2145541842E+01+
*       -2.114520636E+02               0
GRID*             164570               00.0000000000E+006.9692240349E+01+
*       -2.143977435E+02               0
GRID*             164571               00.0000000000E+006.7430738587E+01+
*       -2.172662289E+02               0
GRID*             164572               00.0000000000E+006.7787757854E+01+
*       -2.195687602E+02               0
GRID*             164573               00.0000000000E+007.2336993590E+01+
*       -2.277234731E+02               0
GRID*             164574               00.0000000000E+006.9794412150E+01+
*       -2.247535402E+02               0
GRID*             164575               00.0000000000E+006.7459625928E+01+
*       -2.218822275E+02               0
GRID*             164576               00.0000000000E+007.2058033665E+01+
*       -2.305913352E+02               0
GRID*             164577               00.0000000000E+007.1779122262E+01+
*       -2.335110535E+02               0
GRID*             164578               00.0000000000E+007.1511985228E+01+
*       -2.364682345E+02               0
GRID*             164579               00.0000000000E+007.1261668306E+01+
*       -2.394513356E+02               0
GRID*             164580               00.0000000000E+007.1030524914E+01+
*       -2.424526109E+02               0
GRID*             164581               00.0000000000E+007.0820310485E+01+
*       -2.454671783E+02               0
GRID*             164582               00.0000000000E+007.0634129150E+01+
*       -2.484911883E+02               0
GRID*             164583               00.0000000000E+007.0473614723E+01+
*       -2.515216620E+02               0
GRID*             164584               00.0000000000E+007.0340365905E+01+
*       -2.545540365E+02               0
GRID*             164585               00.0000000000E+007.0234007865E+01+
*       -2.575831409E+02               0
GRID*             164586               00.0000000000E+007.0152287621E+01+
*       -2.606052513E+02               0
GRID*             164587               00.0000000000E+007.0091473545E+01+
*       -2.636163027E+02               0
GRID*             164588               00.0000000000E+007.0047828523E+01+
*       -2.666136964E+02               0
GRID*             164589               00.0000000000E+007.0018137654E+01+
*       -2.695958626E+02               0
GRID*             164590               00.0000000000E+006.9999824557E+01+
*       -2.725618783E+02               0
GRID*             164591               00.0000000000E+006.9990900360E+01+
*       -2.755111518E+02               0
GRID*             164592               00.0000000000E+006.9989844255E+01+
*       -2.784395152E+02               0
GRID*             164593               00.0000000000E+006.9995466122E+01+
*       -2.813481954E+02               0
GRID*             164594               00.0000000000E+007.0007124706E+01+
*       -2.842357383E+02               0
GRID*             164595               00.0000000000E+007.0024537543E+01+
*       -2.871001849E+02               0
GRID*             164596               00.0000000000E+007.0047805032E+01+
*       -2.899389816E+02               0
GRID*             164597               00.0000000000E+007.0076593104E+01+
*       -2.927578552E+02               0
GRID*             164598               00.0000000000E+007.0111829601E+01+
*       -2.955476461E+02               0
GRID*             164599               00.0000000000E+007.0154230835E+01+
*       -2.983035950E+02               0
GRID*             164600               00.0000000000E+007.0204592089E+01+
*       -3.010187950E+02               0
GRID*             164601               00.0000000000E+007.0266338750E+01+
*       -3.036635006E+02               0
GRID*             164602               00.0000000000E+007.0338574868E+01+
*       -3.062387295E+02               0
GRID*             164603               00.0000000000E+005.8167631220E+01+
*       -3.144560194E+02               0
GRID*             164604               00.0000000000E+005.5108617886E+01+
*       -3.143504768E+02               0
GRID*             164605               00.0000000000E+005.2067007226E+01+
*       -3.142956628E+02               0
GRID*             164606               00.0000000000E+004.9042916115E+01+
*       -3.142892815E+02               0
GRID*             164607               00.0000000000E+004.6037189291E+01+
*       -3.143304049E+02               0
GRID*             164608               00.0000000000E+004.3051630734E+01+
*       -3.144191749E+02               0
GRID*             164609               00.0000000000E+004.0089241044E+01+
*       -3.145564834E+02               0
GRID*             164610               00.0000000000E+003.1174258268E+01+
*       -3.039097313E+02               0
GRID*             164611               00.0000000000E+002.8713712929E+01+
*       -3.068153808E+02               0
GRID*             164612               00.0000000000E+003.0987982117E+01+
*       -3.013113225E+02               0
GRID*             164613               00.0000000000E+003.0841387087E+01+
*       -2.985875761E+02               0
GRID*             164614               00.0000000000E+003.0728977992E+01+
*       -2.958018647E+02               0
GRID*             164615               00.0000000000E+003.0640649849E+01+
*       -2.929779781E+02               0
GRID*             164616               00.0000000000E+003.0569254484E+01+
*       -2.901281747E+02               0
GRID*             164617               00.0000000000E+003.0508575456E+01+
*       -2.872648686E+02               0
GRID*             164618               00.0000000000E+003.0455851606E+01+
*       -2.843834413E+02               0
GRID*             164619               00.0000000000E+003.0409002853E+01+
*       -2.814870365E+02               0
GRID*             164620               00.0000000000E+003.0366243345E+01+
*       -2.785779228E+02               0
GRID*             164621               00.0000000000E+003.0326002420E+01+
*       -2.756578476E+02               0
GRID*             164622               00.0000000000E+003.0287625945E+01+
*       -2.727263322E+02               0
GRID*             164623               00.0000000000E+003.0249722590E+01+
*       -2.697865438E+02               0
GRID*             164624               00.0000000000E+003.0211454526E+01+
*       -2.668400021E+02               0
GRID*             164625               00.0000000000E+003.0172340554E+01+
*       -2.638885074E+02               0
GRID*             164626               00.0000000000E+003.0132425356E+01+
*       -2.609340088E+02               0
GRID*             164627               00.0000000000E+003.0092096663E+01+
*       -2.579792458E+02               0
GRID*             164628               00.0000000000E+003.0053546328E+01+
*       -2.550250347E+02               0
GRID*             164629               00.0000000000E+003.0019830494E+01+
*       -2.520718025E+02               0
GRID*             164630               00.0000000000E+002.9994994725E+01+
*       -2.491184051E+02               0
GRID*             164631               00.0000000000E+002.9983436681E+01+
*       -2.461621391E+02               0
GRID*             164632               00.0000000000E+002.9988969059E+01+
*       -2.431998212E+02               0
GRID*             164633               00.0000000000E+003.0013582736E+01+
*       -2.402306035E+02               0
GRID*             164634               00.0000000000E+003.0059702978E+01+
*       -2.372555966E+02               0
GRID*             164635               00.0000000000E+003.0128924111E+01+
*       -2.342824452E+02               0
GRID*             164636               00.0000000000E+002.7363814331E+01+
*       -2.283018708E+02               0
GRID*             164637               00.0000000000E+003.0220828486E+01+
*       -2.313248802E+02               0
GRID*             164638               00.0000000000E+003.0437709872E+01+
*       -2.254991639E+02               0
GRID*             164639               00.0000000000E+003.3518517815E+01+
*       -2.226366925E+02               0
GRID*             164640               00.0000000000E+003.3645136382E+01+
*       -2.197337860E+02               0
GRID*             164641               00.0000000000E+003.1063714970E+01+
*       -2.139880402E+02               0
GRID*             164642               00.0000000000E+002.8494078257E+01+
*       -2.111563468E+02               0
GRID*             164643               00.0000000000E+002.6072830829E+01+
*       -2.083040588E+02               0
GRID*             164644               00.0000000000E+003.3777088026E+01+
*       -2.168335703E+02               0
GRID*             164645               00.0000000000E+002.6314044168E+01+
*       -2.054234089E+02               0
GRID*             164646               00.0000000000E+002.6519174897E+01+
*       -2.025530431E+02               0
GRID*             164647               00.0000000000E+002.6700600715E+01+
*       -1.997127169E+02               0
GRID*             164648               00.0000000000E+002.6877014165E+01+
*       -1.969217328E+02               0
GRID*             164649               00.0000000000E+002.7082247546E+01+
*       -1.941933020E+02               0
GRID*             164650               00.0000000000E+002.7373223599E+01+
*       -1.915194089E+02               0
GRID*             164651               00.0000000000E+002.7848105400E+01+
*       -1.888260157E+02               0
GRID*             164652               00.0000000000E+002.8611780533E+01+
*       -1.858779568E+02               0
GRID*             164653               00.0000000000E+002.8978720673E+01+
*       -1.825744241E+02               0
GRID*             164654               00.0000000000E+002.9252183100E+01+
*       -1.793080280E+02               0
GRID*             164655               00.0000000000E+002.9492033504E+01+
*       -1.760439018E+02               0
GRID*             164656               00.0000000000E+002.9609795699E+01+
*       -1.727798866E+02               0
GRID*             164657               00.0000000000E+002.9666809599E+01+
*       -1.695638313E+02               0
GRID*             164658               00.0000000000E+002.9701145635E+01+
*       -1.663931538E+02               0
GRID*             164659               00.0000000000E+002.9730136332E+01+
*       -1.632548696E+02               0
GRID*             164660               00.0000000000E+002.9760783754E+01+
*       -1.601374934E+02               0
GRID*             164661               00.0000000000E+002.9795765095E+01+
*       -1.570327577E+02               0
GRID*             164662               00.0000000000E+002.9836013367E+01+
*       -1.539348692E+02               0
GRID*             164663               00.0000000000E+002.9881891112E+01+
*       -1.508397582E+02               0
GRID*             164664               00.0000000000E+002.9933826337E+01+
*       -1.477446800E+02               0
GRID*             164665               00.0000000000E+002.9992827218E+01+
*       -1.446483000E+02               0
GRID*             164666               00.0000000000E+003.0060323552E+01+
*       -1.415507670E+02               0
GRID*             164667               00.0000000000E+003.0139069117E+01+
*       -1.384570287E+02               0
GRID*             164668               00.0000000000E+003.0232777539E+01+
*       -1.353769699E+02               0
GRID*             164669               00.0000000000E+002.7476702385E+01+
*       -1.290918106E+02               0
GRID*             164670               00.0000000000E+003.0344314268E+01+
*       -1.323268506E+02               0
GRID*             164671               00.0000000000E+003.0599490803E+01+
*       -1.263740953E+02               0
GRID*             164672               00.0000000000E+003.3724917741E+01+
*       -1.236058523E+02               0
GRID*             164673               00.0000000000E+003.3872334959E+01+
*       -1.206993972E+02               0
GRID*             164674               00.0000000000E+003.1327074008E+01+
*       -1.148879338E+02               0
GRID*             164675               00.0000000000E+002.8767405905E+01+
*       -1.119820343E+02               0
GRID*             164676               00.0000000000E+002.6360060877E+01+
*       -1.090707604E+02               0
GRID*             164677               00.0000000000E+003.4031410857E+01+
*       -1.178166251E+02               0
GRID*             164678               00.0000000000E+002.6670106291E+01+
*       -1.062712389E+02               0
GRID*             164679               00.0000000000E+002.6957442645E+01+
*       -1.034842975E+02               0
GRID*             164680               00.0000000000E+002.7239686402E+01+
*       -1.007264669E+02               0
GRID*             164681               00.0000000000E+002.7546576315E+01+
*       -9.800872806E+01               0
GRID*             164682               00.0000000000E+002.7932344704E+01+
*       -9.531913576E+01               0
GRID*             164683               00.0000000000E+002.8489753615E+01+
*       -9.258897032E+01               0
GRID*             164684               00.0000000000E+002.9312721317E+01+
*       -8.959927967E+01               0
GRID*             164685               00.0000000000E+002.9686523295E+01+
*       -8.624672994E+01               0
GRID*             164686               00.0000000000E+002.9870810347E+01+
*       -8.295379078E+01               0
GRID*             164687               00.0000000000E+002.9968783397E+01+
*       -7.974333172E+01               0
GRID*             164688               00.0000000000E+003.0021690928E+01+
*       -7.659555635E+01               0
GRID*             164689               00.0000000000E+003.0048498243E+01+
*       -7.349405144E+01               0
GRID*             164690               00.0000000000E+003.0059040679E+01+
*       -7.042848528E+01               0
GRID*             164691               00.0000000000E+003.0058646556E+01+
*       -6.739242145E+01               0
GRID*             164692               00.0000000000E+003.0050284127E+01+
*       -6.438336805E+01               0
GRID*             164693               00.0000000000E+003.0035527790E+01+
*       -6.139787275E+01               0
GRID*             164694               00.0000000000E+003.0015068608E+01+
*       -5.843421376E+01               0
GRID*             164695               00.0000000000E+002.9988921103E+01+
*       -5.549167059E+01               0
GRID*             164696               00.0000000000E+002.9956438094E+01+
*       -5.257037526E+01               0
GRID*             164697               00.0000000000E+002.9917255265E+01+
*       -4.966657315E+01               0
GRID*             164698               00.0000000000E+002.9869698941E+01+
*       -4.678517759E+01               0
GRID*             164699               00.0000000000E+002.9811642139E+01+
*       -4.392927720E+01               0
GRID*             164700               00.0000000000E+002.9740132203E+01+
*       -4.110390803E+01               0
GRID*             164701               00.0000000000E+002.9644086921E+01+
*       -3.832423869E+01               0
GRID*             164702               00.0000000000E+002.9517026508E+01+
*       -3.559466560E+01               0
GRID*             164703               00.0000000000E+003.8570939609E+01+
*       -2.819235247E+01               0
GRID*             164704               00.0000000000E+004.1718760470E+01+
*       -2.825705396E+01               0
GRID*             164705               00.0000000000E+004.4836220721E+01+
*       -2.829514159E+01               0
GRID*             164706               00.0000000000E+004.7930294874E+01+
*       -2.830838192E+01               0
GRID*             164707               00.0000000000E+005.1004393847E+01+
*       -2.829830871E+01               0
GRID*             164708               00.0000000000E+005.4060160566E+01+
*       -2.826594403E+01               0
GRID*             164709               00.0000000000E+005.7097801851E+01+
*       -2.821023730E+01               0
GRID*             164710               00.0000000000E+006.0116400974E+01+
*       -2.813111024E+01               0
GRID*             164711               00.0000000000E+006.3113747344E+01+
*       -2.803027687E+01               0
GRID*             164712               00.0000000000E+006.5972488565E+01+
*       -3.041721066E+01               0
GRID*             164713               00.0000000000E+006.8764695574E+01+
*       -3.272453090E+01               0
GRID*             164714               00.0000000000E+006.7349295587E+01+
*       -3.082933692E+02               0
GRID*             164715               00.0000000000E+006.1260601214E+01+
*       -3.123780457E+02               0
GRID*             164716               00.0000000000E+006.4322358491E+01+
*       -3.103298913E+02               0
GRID*             164717               00.0000000000E+003.7208586138E+01+
*       -3.125367577E+02               0
GRID*             164718               00.0000000000E+003.4347715387E+01+
*       -3.105691901E+02               0
GRID*             164719               00.0000000000E+003.1515887228E+01+
*       -3.086436236E+02               0
GRID*             164720               00.0000000000E+003.2448229669E+01+
*       -3.315245702E+01               0
GRID*             164721               00.0000000000E+003.5464139808E+01+
*       -3.068908488E+01               0
GRID*             164722               00.0000000000E+006.6038887441E+01+
*       -3.815469707E+01               0
GRID*             164723               00.0000000000E+006.8813924361E+01+
*       -3.522076561E+01               0
GRID*             164724               00.0000000000E+006.6135851847E+01+
*       -4.088674929E+01               0
GRID*             164725               00.0000000000E+006.6226116525E+01+
*       -4.370250571E+01               0
GRID*             164726               00.0000000000E+006.6301645782E+01+
*       -4.657048961E+01               0
GRID*             164727               00.0000000000E+006.6363600779E+01+
*       -4.947217968E+01               0
GRID*             164728               00.0000000000E+006.6414358214E+01+
*       -5.239598761E+01               0
GRID*             164729               00.0000000000E+006.6456461413E+01+
*       -5.533237552E+01               0
GRID*             164730               00.0000000000E+006.6491818805E+01+
*       -5.828173141E+01               0
GRID*             164731               00.0000000000E+006.6521161060E+01+
*       -6.124169399E+01               0
GRID*             164732               00.0000000000E+006.6544781591E+01+
*       -6.421116810E+01               0
GRID*             164733               00.0000000000E+006.6562419941E+01+
*       -6.719007303E+01               0
GRID*             164734               00.0000000000E+006.6572818788E+01+
*       -7.018032512E+01               0
GRID*             164735               00.0000000000E+006.6574358757E+01+
*       -7.318252327E+01               0
GRID*             164736               00.0000000000E+006.6563655791E+01+
*       -7.620086895E+01               0
GRID*             164737               00.0000000000E+006.6535501280E+01+
*       -7.924504708E+01               0
GRID*             164738               00.0000000000E+006.6484259281E+01+
*       -8.233640503E+01               0
GRID*             164739               00.0000000000E+006.6413848492E+01+
*       -8.551716479E+01               0
GRID*             164740               00.0000000000E+006.6390065582E+01+
*       -8.884218627E+01               0
GRID*             164741               00.0000000000E+006.6803780017E+01+
*       -9.212090009E+01               0
GRID*             164742               00.0000000000E+006.7244124247E+01+
*       -9.522616055E+01               0
GRID*             164743               00.0000000000E+006.7643086392E+01+
*       -9.822745401E+01               0
GRID*             164744               00.0000000000E+006.8006230123E+01+
*       -1.011715016E+02               0
GRID*             164745               00.0000000000E+006.8348468073E+01+
*       -1.040779454E+02               0
GRID*             164746               00.0000000000E+006.8683232214E+01+
*       -1.069497386E+02               0
GRID*             164747               00.0000000000E+006.9020976064E+01+
*       -1.097790292E+02               0
GRID*             164748               00.0000000000E+006.9367987076E+01+
*       -1.125494927E+02               0
GRID*             164749               00.0000000000E+006.7042857342E+01+
*       -1.156322522E+02               0
GRID*             164750               00.0000000000E+006.5083433362E+01+
*       -1.187564225E+02               0
GRID*             164751               00.0000000000E+006.6122365069E+01+
*       -1.204867937E+02               0
GRID*             164752               00.0000000000E+006.9684614734E+01+
*       -1.283098745E+02               0
GRID*             164753               00.0000000000E+006.7225658281E+01+
*       -1.253325184E+02               0
GRID*             164754               00.0000000000E+006.5146880910E+01+
*       -1.222960195E+02               0
GRID*             164755               00.0000000000E+006.9411310898E+01+
*       -1.312036168E+02               0
GRID*             164756               00.0000000000E+006.9152651383E+01+
*       -1.341638730E+02               0
GRID*             164757               00.0000000000E+006.8914875436E+01+
*       -1.371666022E+02               0
GRID*             164758               00.0000000000E+006.8698364005E+01+
*       -1.401958845E+02               0
GRID*             164759               00.0000000000E+006.8501241924E+01+
*       -1.432418113E+02               0
GRID*             164760               00.0000000000E+006.8320778171E+01+
*       -1.462985741E+02               0
GRID*             164761               00.0000000000E+006.8154436096E+01+
*       -1.493623942E+02               0
GRID*             164762               00.0000000000E+006.7998213196E+01+
*       -1.524331000E+02               0
GRID*             164763               00.0000000000E+006.7848711578E+01+
*       -1.555110877E+02               0
GRID*             164764               00.0000000000E+006.7702612264E+01+
*       -1.585981217E+02               0
GRID*             164765               00.0000000000E+006.7556624097E+01+
*       -1.616976400E+02               0
GRID*             164766               00.0000000000E+006.7407732353E+01+
*       -1.648157356E+02               0
GRID*             164767               00.0000000000E+006.7254246198E+01+
*       -1.679628837E+02               0
GRID*             164768               00.0000000000E+006.7099779668E+01+
*       -1.711551352E+02               0
GRID*             164769               00.0000000000E+006.6962568617E+01+
*       -1.744132829E+02               0
GRID*             164770               00.0000000000E+006.6898256487E+01+
*       -1.777440399E+02               0
GRID*             164771               00.0000000000E+006.7013099281E+01+
*       -1.810740102E+02               0
GRID*             164772               00.0000000000E+006.7203550488E+01+
*       -1.843301346E+02               0
GRID*             164773               00.0000000000E+006.7415292152E+01+
*       -1.875164781E+02               0
GRID*             164774               00.0000000000E+006.7631173923E+01+
*       -1.906516794E+02               0
GRID*             164775               00.0000000000E+006.7848175482E+01+
*       -1.937493233E+02               0
GRID*             164776               00.0000000000E+006.8069183562E+01+
*       -1.968181614E+02               0
GRID*             164777               00.0000000000E+006.8297874809E+01+
*       -1.998604752E+02               0
GRID*             164778               00.0000000000E+006.8538594524E+01+
*       -2.028739880E+02               0
GRID*             164779               00.0000000000E+006.8796065269E+01+
*       -2.058514451E+02               0
GRID*             164780               00.0000000000E+006.9074602382E+01+
*       -2.087793921E+02               0
GRID*             164781               00.0000000000E+006.9375817382E+01+
*       -2.116370284E+02               0
GRID*             164782               00.0000000000E+006.6989081003E+01+
*       -2.146855335E+02               0
GRID*             164783               00.0000000000E+006.4967508018E+01+
*       -2.177945112E+02               0
GRID*             164784               00.0000000000E+006.5989239798E+01+
*       -2.195764556E+02               0
GRID*             164785               00.0000000000E+006.9487731471E+01+
*       -2.275295417E+02               0
GRID*             164786               00.0000000000E+006.7037325731E+01+
*       -2.244749350E+02               0
GRID*             164787               00.0000000000E+006.4979066307E+01+
*       -2.213677457E+02               0
GRID*             164788               00.0000000000E+006.9177996465E+01+
*       -2.303887480E+02               0
GRID*             164789               00.0000000000E+006.8877736924E+01+
*       -2.333062558E+02               0
GRID*             164790               00.0000000000E+006.8593234894E+01+
*       -2.362622678E+02               0
GRID*             164791               00.0000000000E+006.8325916091E+01+
*       -2.392445625E+02               0
GRID*             164792               00.0000000000E+006.8076248975E+01+
*       -2.422465386E+02               0
GRID*             164793               00.0000000000E+006.7845684063E+01+
*       -2.452649606E+02               0
GRID*             164794               00.0000000000E+006.7637663214E+01+
*       -2.482975297E+02               0
GRID*             164795               00.0000000000E+006.7457558764E+01+
*       -2.513404675E+02               0
GRID*             164796               00.0000000000E+006.7310213148E+01+
*       -2.543877542E+02               0
GRID*             164797               00.0000000000E+006.7195965390E+01+
*       -2.574324439E+02               0
GRID*             164798               00.0000000000E+006.7111410395E+01+
*       -2.604678653E+02               0
GRID*             164799               00.0000000000E+006.7051016441E+01+
*       -2.634890631E+02               0
GRID*             164800               00.0000000000E+006.7009501791E+01+
*       -2.664930551E+02               0
GRID*             164801               00.0000000000E+006.6982671701E+01+
*       -2.694783029E+02               0
GRID*             164802               00.0000000000E+006.6967440725E+01+
*       -2.724440435E+02               0
GRID*             164803               00.0000000000E+006.6961576874E+01+
*       -2.753897639E+02               0
GRID*             164804               00.0000000000E+006.6963692511E+01+
*       -2.783122276E+02               0
GRID*             164805               00.0000000000E+006.6972423563E+01+
*       -2.812122792E+02               0
GRID*             164806               00.0000000000E+006.6987072601E+01+
*       -2.840882393E+02               0
GRID*             164807               00.0000000000E+006.7007237843E+01+
*       -2.869377746E+02               0
GRID*             164808               00.0000000000E+006.7032771118E+01+
*       -2.897577813E+02               0
GRID*             164809               00.0000000000E+006.7063126746E+01+
*       -2.925528941E+02               0
GRID*             164810               00.0000000000E+006.7098843266E+01+
*       -2.953138823E+02               0
GRID*             164811               00.0000000000E+006.7140058979E+01+
*       -2.980356298E+02               0
GRID*             164812               00.0000000000E+006.7186805370E+01+
*       -3.007114944E+02               0
GRID*             164813               00.0000000000E+006.7238722522E+01+
*       -3.033131569E+02               0
GRID*             164814               00.0000000000E+006.7293985455E+01+
*       -3.058428424E+02               0
GRID*             164815               00.0000000000E+005.8191779347E+01+
*       -3.122023394E+02               0
GRID*             164816               00.0000000000E+005.5138460247E+01+
*       -3.120874007E+02               0
GRID*             164817               00.0000000000E+005.2101010726E+01+
*       -3.120284477E+02               0
GRID*             164818               00.0000000000E+004.9080180429E+01+
*       -3.120229692E+02               0
GRID*             164819               00.0000000000E+004.6077311023E+01+
*       -3.120701203E+02               0
GRID*             164820               00.0000000000E+004.3094757691E+01+
*       -3.121704158E+02               0
GRID*             164821               00.0000000000E+004.0136462811E+01+
*       -3.123253579E+02               0
GRID*             164822               00.0000000000E+003.4130974556E+01+
*       -3.034592509E+02               0
GRID*             164823               00.0000000000E+003.1401446281E+01+
*       -3.063308725E+02               0
GRID*             164824               00.0000000000E+003.4006066535E+01+
*       -3.009015983E+02               0
GRID*             164825               00.0000000000E+003.3889668728E+01+
*       -2.982394158E+02               0
GRID*             164826               00.0000000000E+003.3789980360E+01+
*       -2.955110606E+02               0
GRID*             164827               00.0000000000E+003.3705797443E+01+
*       -2.927343575E+02               0
GRID*             164828               00.0000000000E+003.3634528481E+01+
*       -2.899215640E+02               0
GRID*             164829               00.0000000000E+003.3572600078E+01+
*       -2.870862145E+02               0
GRID*             164830               00.0000000000E+003.3517821152E+01+
*       -2.842260228E+02               0
GRID*             164831               00.0000000000E+003.3468481742E+01+
*       -2.813454430E+02               0
GRID*             164832               00.0000000000E+003.3422928805E+01+
*       -2.784477692E+02               0
GRID*             164833               00.0000000000E+003.3379589578E+01+
*       -2.755355317E+02               0
GRID*             164834               00.0000000000E+003.3337420023E+01+
*       -2.726091135E+02               0
GRID*             164835               00.0000000000E+003.3294892669E+01+
*       -2.696724377E+02               0
GRID*             164836               00.0000000000E+003.3250908964E+01+
*       -2.667275906E+02               0
GRID*             164837               00.0000000000E+003.3204685587E+01+
*       -2.637771442E+02               0
GRID*             164838               00.0000000000E+003.3155991901E+01+
*       -2.608241570E+02               0
GRID*             164839               00.0000000000E+003.3105527137E+01+
*       -2.578719434E+02               0
GRID*             164840               00.0000000000E+003.3055070528E+01+
*       -2.549240303E+02               0
GRID*             164841               00.0000000000E+003.3009183989E+01+
*       -2.519821630E+02               0
GRID*             164842               00.0000000000E+003.2974107994E+01+
*       -2.490458240E+02               0
GRID*             164843               00.0000000000E+003.2956771649E+01+
*       -2.461116371E+02               0
GRID*             164844               00.0000000000E+003.2961239452E+01+
*       -2.431756878E+02               0
GRID*             164845               00.0000000000E+003.2989204607E+01+
*       -2.402341180E+02               0
GRID*             164846               00.0000000000E+003.3039926546E+01+
*       -2.372866086E+02               0
GRID*             164847               00.0000000000E+003.3111428036E+01+
*       -2.343372795E+02               0
GRID*             164848               00.0000000000E+003.0328758946E+01+
*       -2.283970519E+02               0
GRID*             164849               00.0000000000E+003.3200202238E+01+
*       -2.313934370E+02               0
GRID*             164850               00.0000000000E+003.3405598150E+01+
*       -2.255440882E+02               0
GRID*             164851               00.0000000000E+003.6481328716E+01+
*       -2.226491934E+02               0
GRID*             164852               00.0000000000E+003.6589056546E+01+
*       -2.197214295E+02               0
GRID*             164853               00.0000000000E+003.3913832945E+01+
*       -2.139370118E+02               0
GRID*             164854               00.0000000000E+003.1250962381E+01+
*       -2.111091657E+02               0
GRID*             164855               00.0000000000E+002.8722637098E+01+
*       -2.082821043E+02               0
GRID*             164856               00.0000000000E+003.6689422411E+01+
*       -2.167959692E+02               0
GRID*             164857               00.0000000000E+002.8918064479E+01+
*       -2.054109877E+02               0
GRID*             164858               00.0000000000E+002.9081573488E+01+
*       -2.025600944E+02               0
GRID*             164859               00.0000000000E+002.9219249094E+01+
*       -1.997517886E+02               0
GRID*             164860               00.0000000000E+002.9344066763E+01+
*       -1.970153444E+02               0
GRID*             164861               00.0000000000E+002.9483818085E+01+
*       -1.943881721E+02               0
GRID*             164862               00.0000000000E+002.9704091423E+01+
*       -1.919036766E+02               0
GRID*             164863               00.0000000000E+003.0186666034E+01+
*       -1.895397000E+02               0
GRID*             164864               00.0000000000E+003.1856452279E+01+
*       -1.868038381E+02               0
GRID*             164865               00.0000000000E+003.1975054048E+01+
*       -1.829505925E+02               0
GRID*             164866               00.0000000000E+003.2220189263E+01+
*       -1.796155496E+02               0
GRID*             164867               00.0000000000E+003.2591595280E+01+
*       -1.762842356E+02               0
GRID*             164868               00.0000000000E+003.2657386162E+01+
*       -1.729111647E+02               0
GRID*             164869               00.0000000000E+003.2666822963E+01+
*       -1.696573582E+02               0
GRID*             164870               00.0000000000E+003.2673694417E+01+
*       -1.664794301E+02               0
GRID*             164871               00.0000000000E+003.2689952058E+01+
*       -1.633437811E+02               0
GRID*             164872               00.0000000000E+003.2716833036E+01+
*       -1.602313303E+02               0
GRID*             164873               00.0000000000E+003.2753562179E+01+
*       -1.571317777E+02               0
GRID*             164874               00.0000000000E+003.2799091514E+01+
*       -1.540392114E+02               0
GRID*             164875               00.0000000000E+003.2852629049E+01+
*       -1.509501566E+02               0
GRID*             164876               00.0000000000E+003.2913864109E+01+
*       -1.478627930E+02               0
GRID*             164877               00.0000000000E+003.2982832224E+01+
*       -1.447762626E+02               0
GRID*             164878               00.0000000000E+003.3060170788E+01+
*       -1.416925871E+02               0
GRID*             164879               00.0000000000E+003.3147095540E+01+
*       -1.386159718E+02               0
GRID*             164880               00.0000000000E+003.3244855377E+01+
*       -1.355536427E+02               0
GRID*             164881               00.0000000000E+003.0470994726E+01+
*       -1.293246892E+02               0
GRID*             164882               00.0000000000E+003.3353709699E+01+
*       -1.325152925E+02               0
GRID*             164883               00.0000000000E+003.3593763041E+01+
*       -1.265409408E+02               0
GRID*             164884               00.0000000000E+003.6709588107E+01+
*       -1.237205785E+02               0
GRID*             164885               00.0000000000E+003.6835890096E+01+
*       -1.207902568E+02               0
GRID*             164886               00.0000000000E+003.4203509949E+01+
*       -1.149584982E+02               0
GRID*             164887               00.0000000000E+003.1560308521E+01+
*       -1.120655160E+02               0
GRID*             164888               00.0000000000E+002.9053762038E+01+
*       -1.091800519E+02               0
GRID*             164889               00.0000000000E+003.6961552472E+01+
*       -1.178837270E+02               0
GRID*             164890               00.0000000000E+002.9318654012E+01+
*       -1.063908208E+02               0
GRID*             164891               00.0000000000E+002.9564993301E+01+
*       -1.036305440E+02               0
GRID*             164892               00.0000000000E+002.9803253751E+01+
*       -1.009228167E+02               0
GRID*             164893               00.0000000000E+003.0058245525E+01+
*       -9.829878568E+01               0
GRID*             164894               00.0000000000E+003.0392062072E+01+
*       -9.579059668E+01               0
GRID*             164895               00.0000000000E+003.0992068468E+01+
*       -9.337217907E+01               0
GRID*             164896               00.0000000000E+003.2863969777E+01+
*       -9.059385102E+01               0
GRID*             164897               00.0000000000E+003.2996995561E+01+
*       -8.657872144E+01               0
GRID*             164898               00.0000000000E+003.3066474647E+01+
*       -8.313115937E+01               0
GRID*             164899               00.0000000000E+003.3102728070E+01+
*       -7.987004131E+01               0
GRID*             164900               00.0000000000E+003.3118571250E+01+
*       -7.670081788E+01               0
GRID*             164901               00.0000000000E+003.3121478806E+01+
*       -7.358903507E+01               0
GRID*             164902               00.0000000000E+003.3115848670E+01+
*       -7.051873161E+01               0
GRID*             164903               00.0000000000E+003.3104106996E+01+
*       -6.748135361E+01               0
GRID*             164904               00.0000000000E+003.3087484087E+01+
*       -6.447325648E+01               0
GRID*             164905               00.0000000000E+003.3066429687E+01+
*       -6.149053003E+01               0
GRID*             164906               00.0000000000E+003.3040997046E+01+
*       -5.853149679E+01               0
GRID*             164907               00.0000000000E+003.3010872352E+01+
*       -5.559566666E+01               0
GRID*             164908               00.0000000000E+003.2975360893E+01+
*       -5.268353742E+01               0
GRID*             164909               00.0000000000E+003.2934087814E+01+
*       -4.979220781E+01               0
GRID*             164910               00.0000000000E+003.2885720828E+01+
*       -4.692640216E+01               0
GRID*             164911               00.0000000000E+003.2828766464E+01+
*       -4.408919185E+01               0
GRID*             164912               00.0000000000E+003.2761396981E+01+
*       -4.128488396E+01               0
GRID*             164913               00.0000000000E+003.2677765112E+01+
*       -3.852621198E+01               0
GRID*             164914               00.0000000000E+003.2574617413E+01+
*       -3.581398622E+01               0
GRID*             164915               00.0000000000E+003.8607752344E+01+
*       -3.079596707E+01               0
GRID*             164916               00.0000000000E+004.1728739337E+01+
*       -3.086829561E+01               0
GRID*             164917               00.0000000000E+004.4829651656E+01+
*       -3.090974960E+01               0
GRID*             164918               00.0000000000E+004.7912472574E+01+
*       -3.092259131E+01               0
GRID*             164919               00.0000000000E+005.0978029111E+01+
*       -3.090807994E+01               0
GRID*             164920               00.0000000000E+005.4026092440E+01+
*       -3.086647343E+01               0
GRID*             164921               00.0000000000E+005.7055079203E+01+
*       -3.079682637E+01               0
GRID*             164922               00.0000000000E+006.0061412967E+01+
*       -3.069814280E+01               0
GRID*             164923               00.0000000000E+006.3038157583E+01+
*       -3.057049705E+01               0
GRID*             164924               00.0000000000E+006.5927326839E+01+
*       -3.294917135E+01               0
GRID*             164925               00.0000000000E+006.4287633017E+01+
*       -3.079606319E+02               0
GRID*             164926               00.0000000000E+006.1252597760E+01+
*       -3.100760723E+02               0
GRID*             164927               00.0000000000E+003.7228941457E+01+
*       -3.102768709E+02               0
GRID*             164928               00.0000000000E+003.4325603336E+01+
*       -3.082667153E+02               0
GRID*             164929               00.0000000000E+003.5557180865E+01+
*       -3.331400177E+01               0
GRID*             164930               00.0000000000E+006.3058580635E+01+
*       -3.840716434E+01               0
GRID*             164931               00.0000000000E+006.5951081953E+01+
*       -3.551699979E+01               0
GRID*             164932               00.0000000000E+006.3120266309E+01+
*       -4.113081632E+01               0
GRID*             164933               00.0000000000E+006.3187671850E+01+
*       -4.391980002E+01               0
GRID*             164934               00.0000000000E+006.3250943684E+01+
*       -4.675705837E+01               0
GRID*             164935               00.0000000000E+006.3307402196E+01+
*       -4.963062811E+01               0
GRID*             164936               00.0000000000E+006.3356597179E+01+
*       -5.253119470E+01               0
GRID*             164937               00.0000000000E+006.3399111158E+01+
*       -5.544952922E+01               0
GRID*             164938               00.0000000000E+006.3435932010E+01+
*       -5.838493808E+01               0
GRID*             164939               00.0000000000E+006.3467300947E+01+
*       -6.133422308E+01               0
GRID*             164940               00.0000000000E+006.3493175028E+01+
*       -6.429526940E+01               0
GRID*             164941               00.0000000000E+006.3512940901E+01+
*       -6.726679642E+01               0
GRID*             164942               00.0000000000E+006.3525002149E+01+
*       -7.024903556E+01               0
GRID*             164943               00.0000000000E+006.3526229103E+01+
*       -7.324042755E+01               0
GRID*             164944               00.0000000000E+006.3509985804E+01+
*       -7.624213770E+01               0
GRID*             164945               00.0000000000E+006.3462903790E+01+
*       -7.926059529E+01               0
GRID*             164946               00.0000000000E+006.3357183166E+01+
*       -8.231903560E+01               0
GRID*             164947               00.0000000000E+006.3126120592E+01+
*       -8.549982901E+01               0
GRID*             164948               00.0000000000E+006.2536581879E+01+
*       -8.916924417E+01               0
GRID*             164949               00.0000000000E+006.3618331934E+01+
*       -9.267119104E+01               0
GRID*             164950               00.0000000000E+006.4253783279E+01+
*       -9.572253051E+01               0
GRID*             164951               00.0000000000E+006.4728793827E+01+
*       -9.865976554E+01               0
GRID*             164952               00.0000000000E+006.5128306291E+01+
*       -1.015590568E+02               0
GRID*             164953               00.0000000000E+006.5492443027E+01+
*       -1.044402207E+02               0
GRID*             164954               00.0000000000E+006.5846521058E+01+
*       -1.073043547E+02               0
GRID*             164955               00.0000000000E+006.6210756656E+01+
*       -1.101422530E+02               0
GRID*             164956               00.0000000000E+006.6604312986E+01+
*       -1.129326789E+02               0
GRID*             164957               00.0000000000E+006.4332942401E+01+
*       -1.162013714E+02               0
GRID*             164958               00.0000000000E+006.2310565121E+01+
*       -1.206363355E+02               0
GRID*             164959               00.0000000000E+006.6862085486E+01+
*       -1.281376491E+02               0
GRID*             164960               00.0000000000E+006.4458191232E+01+
*       -1.249521557E+02               0
GRID*             164961               00.0000000000E+006.6546105109E+01+
*       -1.310523072E+02               0
GRID*             164962               00.0000000000E+006.6269654553E+01+
*       -1.340281960E+02               0
GRID*             164963               00.0000000000E+006.6024920493E+01+
*       -1.370393580E+02               0
GRID*             164964               00.0000000000E+006.5805431266E+01+
*       -1.400719803E+02               0
GRID*             164965               00.0000000000E+006.5606191752E+01+
*       -1.431182887E+02               0
GRID*             164966               00.0000000000E+006.5423116743E+01+
*       -1.461738174E+02               0
GRID*             164967               00.0000000000E+006.5252551941E+01+
*       -1.492361252E+02               0
GRID*             164968               00.0000000000E+006.5091083025E+01+
*       -1.523038577E+02               0
GRID*             164969               00.0000000000E+006.4934542358E+01+
*       -1.553773985E+02               0
GRID*             164970               00.0000000000E+006.4778733877E+01+
*       -1.584581916E+02               0
GRID*             164971               00.0000000000E+006.4618599156E+01+
*       -1.615492025E+02               0
GRID*             164972               00.0000000000E+006.4447687712E+01+
*       -1.646566817E+02               0
GRID*             164973               00.0000000000E+006.4257125452E+01+
*       -1.677943069E+02               0
GRID*             164974               00.0000000000E+006.4038551710E+01+
*       -1.709875471E+02               0
GRID*             164975               00.0000000000E+006.3791042209E+01+
*       -1.742884024E+02               0
GRID*             164976               00.0000000000E+006.3580092353E+01+
*       -1.777761345E+02               0
GRID*             164977               00.0000000000E+006.3843236911E+01+
*       -1.812611744E+02               0
GRID*             164978               00.0000000000E+006.4146053873E+01+
*       -1.845600380E+02               0
GRID*             164979               00.0000000000E+006.4424437272E+01+
*       -1.877475833E+02               0
GRID*             164980               00.0000000000E+006.4680158071E+01+
*       -1.908733753E+02               0
GRID*             164981               00.0000000000E+006.4923696945E+01+
*       -1.939627497E+02               0
GRID*             164982               00.0000000000E+006.5163703273E+01+
*       -1.970259792E+02               0
GRID*             164983               00.0000000000E+006.5407302268E+01+
*       -2.000664338E+02               0
GRID*             164984               00.0000000000E+006.5661596993E+01+
*       -2.030833084E+02               0
GRID*             164985               00.0000000000E+006.5935041444E+01+
*       -2.060716734E+02               0
GRID*             164986               00.0000000000E+006.6238566931E+01+
*       -2.090204383E+02               0
GRID*             164987               00.0000000000E+006.6585905428E+01+
*       -2.119069843E+02               0
GRID*             164988               00.0000000000E+006.4241479010E+01+
*       -2.151638266E+02               0
GRID*             164989               00.0000000000E+006.2143806025E+01+
*       -2.195875111E+02               0
GRID*             164990               00.0000000000E+006.6637622323E+01+
*       -2.272562046E+02               0
GRID*             164991               00.0000000000E+006.4255149998E+01+
*       -2.240020026E+02               0
GRID*             164992               00.0000000000E+006.6279248385E+01+
*       -2.301366421E+02               0
GRID*             164993               00.0000000000E+006.5953385938E+01+
*       -2.330706855E+02               0
GRID*             164994               00.0000000000E+006.5651940502E+01+
*       -2.360357673E+02               0
GRID*             164995               00.0000000000E+006.5368802028E+01+
*       -2.390220556E+02               0
GRID*             164996               00.0000000000E+006.5100639795E+01+
*       -2.420265898E+02               0
GRID*             164997               00.0000000000E+006.4847535373E+01+
*       -2.450500349E+02               0
GRID*             164998               00.0000000000E+006.4614313747E+01+
*       -2.480935777E+02               0
GRID*             164999               00.0000000000E+006.4411427625E+01+
*       -2.511548036E+02               0
GRID*             165000               00.0000000000E+006.4248743478E+01+
*       -2.542238295E+02               0
GRID*             165001               00.0000000000E+006.4129763523E+01+
*       -2.572897216E+02               0
GRID*             165002               00.0000000000E+006.4047018906E+01+
*       -2.603424924E+02               0
GRID*             165003               00.0000000000E+006.3991659909E+01+
*       -2.633762761E+02               0
GRID*             165004               00.0000000000E+006.3956217111E+01+
*       -2.663882498E+02               0
GRID*             165005               00.0000000000E+006.3935333658E+01+
*       -2.693774115E+02               0
GRID*             165006               00.0000000000E+006.3925487598E+01+
*       -2.723435696E+02               0
GRID*             165007               00.0000000000E+006.3924371953E+01+
*       -2.752866322E+02               0
GRID*             165008               00.0000000000E+006.3930787361E+01+
*       -2.782039107E+02               0
GRID*             165009               00.0000000000E+006.3943362282E+01+
*       -2.810962331E+02               0
GRID*             165010               00.0000000000E+006.3961422275E+01+
*       -2.839618385E+02               0
GRID*             165011               00.0000000000E+006.3984506625E+01+
*       -2.867982212E+02               0
GRID*             165012               00.0000000000E+006.4012279851E+01+
*       -2.896020557E+02               0
GRID*             165013               00.0000000000E+006.4044036031E+01+
*       -2.923771921E+02               0
GRID*             165014               00.0000000000E+006.4079943264E+01+
*       -2.951145506E+02               0
GRID*             165015               00.0000000000E+006.4119672607E+01+
*       -2.978092106E+02               0
GRID*             165016               00.0000000000E+006.4162704064E+01+
*       -3.004553332E+02               0
GRID*             165017               00.0000000000E+006.4206685050E+01+
*       -3.030279547E+02               0
GRID*             165018               00.0000000000E+006.4249429093E+01+
*       -3.055309230E+02               0
GRID*             165019               00.0000000000E+005.8194347032E+01+
*       -3.098942150E+02               0
GRID*             165020               00.0000000000E+005.5148330043E+01+
*       -3.097758109E+02               0
GRID*             165021               00.0000000000E+005.2115669063E+01+
*       -3.097162757E+02               0
GRID*             165022               00.0000000000E+004.9097681705E+01+
*       -3.097133413E+02               0
GRID*             165023               00.0000000000E+004.6096145711E+01+
*       -3.097664931E+02               0
GRID*             165024               00.0000000000E+004.3113839718E+01+
*       -3.098767089E+02               0
GRID*             165025               00.0000000000E+004.0155436093E+01+
*       -3.100460824E+02               0
GRID*             165026               00.0000000000E+003.7094248562E+01+
*       -3.031203320E+02               0
GRID*             165027               00.0000000000E+003.4251537612E+01+
*       -3.059091875E+02               0
GRID*             165028               00.0000000000E+003.7007679821E+01+
*       -3.005821615E+02               0
GRID*             165029               00.0000000000E+003.6917306339E+01+
*       -2.979545902E+02               0
GRID*             165030               00.0000000000E+003.6833076322E+01+
*       -2.952634213E+02               0
GRID*             165031               00.0000000000E+003.6757254620E+01+
*       -2.925208878E+02               0
GRID*             165032               00.0000000000E+003.6689966528E+01+
*       -2.897370890E+02               0
GRID*             165033               00.0000000000E+003.6629720548E+01+
*       -2.869250007E+02               0
GRID*             165034               00.0000000000E+003.6575192331E+01+
*       -2.840830801E+02               0
GRID*             165035               00.0000000000E+003.6525208974E+01+
*       -2.812162836E+02               0
GRID*             165036               00.0000000000E+003.6478397097E+01+
*       -2.783284516E+02               0
GRID*             165037               00.0000000000E+003.6433275571E+01+
*       -2.754226029E+02               0
GRID*             165038               00.0000000000E+003.6388567140E+01+
*       -2.724995779E+02               0
GRID*             165039               00.0000000000E+003.6342520882E+01+
*       -2.695639285E+02               0
GRID*             165040               00.0000000000E+003.6293633555E+01+
*       -2.666182393E+02               0
GRID*             165041               00.0000000000E+003.6240558230E+01+
*       -2.636658758E+02               0
GRID*             165042               00.0000000000E+003.6182382684E+01+
*       -2.607112180E+02               0
GRID*             165043               00.0000000000E+003.6119185362E+01+
*       -2.577596287E+02               0
GRID*             165044               00.0000000000E+003.6053004680E+01+
*       -2.548168226E+02               0
GRID*             165045               00.0000000000E+003.5988727110E+01+
*       -2.518871686E+02               0
GRID*             165046               00.0000000000E+003.5936648759E+01+
*       -2.489712793E+02               0
GRID*             165047               00.0000000000E+003.5908703726E+01+
*       -2.460637058E+02               0
GRID*             165048               00.0000000000E+003.5911330435E+01+
*       -2.431564142E+02               0
GRID*             165049               00.0000000000E+003.5943703615E+01+
*       -2.402422617E+02               0
GRID*             165050               00.0000000000E+003.6001526451E+01+
*       -2.373182048E+02               0
GRID*             165051               00.0000000000E+003.6079414264E+01+
*       -2.343857020E+02               0
GRID*             165052               00.0000000000E+003.3300513264E+01+
*       -2.284619260E+02               0
GRID*             165053               00.0000000000E+003.6171640453E+01+
*       -2.314491076E+02               0
GRID*             165054               00.0000000000E+003.6375560864E+01+
*       -2.255793549E+02               0
GRID*             165055               00.0000000000E+003.9449265599E+01+
*       -2.226588679E+02               0
GRID*             165056               00.0000000000E+003.9540873736E+01+
*       -2.197049519E+02               0
GRID*             165057               00.0000000000E+003.6783342680E+01+
*       -2.138750800E+02               0
GRID*             165058               00.0000000000E+003.4042813795E+01+
*       -2.110422493E+02               0
GRID*             165059               00.0000000000E+003.1418904728E+01+
*       -2.082308469E+02               0
GRID*             165060               00.0000000000E+003.9615597724E+01+
*       -2.167519174E+02               0
GRID*             165061               00.0000000000E+003.1559332891E+01+
*       -2.053631847E+02               0
GRID*             165062               00.0000000000E+003.1668518453E+01+
*       -2.025220272E+02               0
GRID*             165063               00.0000000000E+003.1745679162E+01+
*       -1.997307660E+02               0
GRID*             165064               00.0000000000E+003.1792421173E+01+
*       -1.970261136E+02               0
GRID*             165065               00.0000000000E+003.1813471212E+01+
*       -1.944720951E+02               0
GRID*             165066               00.0000000000E+003.1817082457E+01+
*       -1.922006548E+02               0
GRID*             165067               00.0000000000E+003.1811515450E+01+
*       -1.904952976E+02               0
GRID*             165068               00.0000000000E+003.5058003391E+01+
*       -1.860482656E+02               0
GRID*             165069               00.0000000000E+003.3446342662E+01+
*       -1.895319473E+02               0
GRID*             165070               00.0000000000E+003.4879939468E+01+
*       -1.829756577E+02               0
GRID*             165071               00.0000000000E+003.5077035572E+01+
*       -1.799157036E+02               0
GRID*             165072               00.0000000000E+003.5964599315E+01+
*       -1.765589753E+02               0
GRID*             165073               00.0000000000E+003.5748463908E+01+
*       -1.729355322E+02               0
GRID*             165074               00.0000000000E+003.5664376298E+01+
*       -1.696795746E+02               0
GRID*             165075               00.0000000000E+003.5634309400E+01+
*       -1.665248120E+02               0
GRID*             165076               00.0000000000E+003.5637576432E+01+
*       -1.634101417E+02               0
GRID*             165077               00.0000000000E+003.5662104787E+01+
*       -1.603130724E+02               0
GRID*             165078               00.0000000000E+003.5702083303E+01+
*       -1.572248973E+02               0
GRID*             165079               00.0000000000E+003.5754052291E+01+
*       -1.541413611E+02               0
GRID*             165080               00.0000000000E+003.5815940995E+01+
*       -1.510603487E+02               0
GRID*             165081               00.0000000000E+003.5886518251E+01+
*       -1.479806514E+02               0
GRID*             165082               00.0000000000E+003.5965107719E+01+
*       -1.449029852E+02               0
GRID*             165083               00.0000000000E+003.6051645214E+01+
*       -1.418292386E+02               0
GRID*             165084               00.0000000000E+003.6146206435E+01+
*       -1.387628898E+02               0
GRID*             165085               00.0000000000E+003.6248628610E+01+
*       -1.357090266E+02               0
GRID*             165086               00.0000000000E+003.3471476267E+01+
*       -1.295100266E+02               0
GRID*             165087               00.0000000000E+003.6357992515E+01+
*       -1.326737074E+02               0
GRID*             165088               00.0000000000E+003.6588921779E+01+
*       -1.266777718E+02               0
GRID*             165089               00.0000000000E+003.9695688557E+01+
*       -1.238115377E+02               0
GRID*             165090               00.0000000000E+003.9801298557E+01+
*       -1.208571371E+02               0
GRID*             165091               00.0000000000E+003.7088959556E+01+
*       -1.150036560E+02               0
GRID*             165092               00.0000000000E+003.4377625763E+01+
*       -1.121204187E+02               0
GRID*             165093               00.0000000000E+003.1785224222E+01+
*       -1.092582015E+02               0
GRID*             165094               00.0000000000E+003.9897065820E+01+
*       -1.179261333E+02               0
GRID*             165095               00.0000000000E+003.1993903163E+01+
*       -1.064738943E+02               0
GRID*             165096               00.0000000000E+003.2182490350E+01+
*       -1.037287696E+02               0
GRID*             165097               00.0000000000E+003.2349344878E+01+
*       -1.010514730E+02               0
GRID*             165098               00.0000000000E+003.2493440065E+01+
*       -9.849707907E+01               0
GRID*             165099               00.0000000000E+003.2611597833E+01+
*       -9.619099371E+01               0
GRID*             165100               00.0000000000E+003.2692999037E+01+
*       -9.443263263E+01               0
GRID*             165101               00.0000000000E+003.6529830778E+01+
*       -8.985074228E+01               0
GRID*             165102               00.0000000000E+003.4485571382E+01+
*       -9.350207003E+01               0
GRID*             165103               00.0000000000E+003.6357482348E+01+
*       -8.646307354E+01               0
GRID*             165104               00.0000000000E+003.6293070665E+01+
*       -8.314116047E+01               0
GRID*             165105               00.0000000000E+003.6257107800E+01+
*       -7.991076947E+01               0
GRID*             165106               00.0000000000E+003.6229218491E+01+
*       -7.675124647E+01               0
GRID*             165107               00.0000000000E+003.6204054327E+01+
*       -7.364423775E+01               0
GRID*             165108               00.0000000000E+003.6179779062E+01+
*       -7.057771534E+01               0
GRID*             165109               00.0000000000E+003.6155294984E+01+
*       -6.754416212E+01               0
GRID*             165110               00.0000000000E+003.6129737508E+01+
*       -6.454027863E+01               0
GRID*             165111               00.0000000000E+003.6102196603E+01+
*       -6.156230857E+01               0
GRID*             165112               00.0000000000E+003.6071963752E+01+
*       -5.860890034E+01               0
GRID*             165113               00.0000000000E+003.6038339304E+01+
*       -5.567987049E+01               0
GRID*             165114               00.0000000000E+003.6000563030E+01+
*       -5.277598558E+01               0
GRID*             165115               00.0000000000E+003.5958249016E+01+
*       -4.989502665E+01               0
GRID*             165116               00.0000000000E+003.5910476522E+01+
*       -4.704144282E+01               0
GRID*             165117               00.0000000000E+003.5856386012E+01+
*       -4.421794053E+01               0
GRID*             165118               00.0000000000E+003.5795135037E+01+
*       -4.142785393E+01               0
GRID*             165119               00.0000000000E+003.5724958779E+01+
*       -3.868120503E+01               0
GRID*             165120               00.0000000000E+003.5645433091E+01+
*       -3.597644934E+01               0
GRID*             165121               00.0000000000E+003.8661857830E+01+
*       -3.342919799E+01               0
GRID*             165122               00.0000000000E+004.1756887511E+01+
*       -3.350621294E+01               0
GRID*             165123               00.0000000000E+004.4840433380E+01+
*       -3.354935648E+01               0
GRID*             165124               00.0000000000E+004.7911403075E+01+
*       -3.356098136E+01               0
GRID*             165125               00.0000000000E+005.0968630294E+01+
*       -3.354209278E+01               0
GRID*             165126               00.0000000000E+005.4010533552E+01+
*       -3.349246227E+01               0
GRID*             165127               00.0000000000E+005.7034530456E+01+
*       -3.341063986E+01               0
GRID*             165128               00.0000000000E+006.0035978491E+01+
*       -3.329432640E+01               0
GRID*             165129               00.0000000000E+006.3006065585E+01+
*       -3.314092872E+01               0
GRID*             165130               00.0000000000E+006.1232258959E+01+
*       -3.077100502E+02               0
GRID*             165131               00.0000000000E+003.7213729760E+01+
*       -3.079531692E+02               0
GRID*             165132               00.0000000000E+006.0062218568E+01+
*       -3.859551998E+01               0
GRID*             165133               00.0000000000E+006.3013881737E+01+
*       -3.574702723E+01               0
GRID*             165134               00.0000000000E+006.0104287016E+01+
*       -4.131732060E+01               0
GRID*             165135               00.0000000000E+006.0155939611E+01+
*       -4.409277575E+01               0
GRID*             165136               00.0000000000E+006.0208841697E+01+
*       -4.691152824E+01               0
GRID*             165137               00.0000000000E+006.0259426650E+01+
*       -4.976605915E+01               0
GRID*             165138               00.0000000000E+006.0306012046E+01+
*       -5.264947002E+01               0
GRID*             165139               00.0000000000E+006.0348014079E+01+
*       -5.555360661E+01               0
GRID*             165140               00.0000000000E+006.0385742816E+01+
*       -5.847749044E+01               0
GRID*             165141               00.0000000000E+006.0419106994E+01+
*       -6.141757760E+01               0
GRID*             165142               00.0000000000E+006.0447934540E+01+
*       -6.437100964E+01               0
GRID*             165143               00.0000000000E+006.0471639790E+01+
*       -6.733533611E+01               0
GRID*             165144               00.0000000000E+006.0488799611E+01+
*       -7.030897052E+01               0
GRID*             165145               00.0000000000E+006.0496215069E+01+
*       -7.328708200E+01               0
GRID*             165146               00.0000000000E+006.0486905310E+01+
*       -7.626437132E+01               0
GRID*             165147               00.0000000000E+006.0446290729E+01+
*       -7.923295001E+01               0
GRID*             165148               00.0000000000E+006.0344592225E+01+
*       -8.217804675E+01               0
GRID*             165149               00.0000000000E+006.0121056756E+01+
*       -8.505517380E+01               0
GRID*             165150               00.0000000000E+005.9661823511E+01+
*       -8.769006704E+01               0
GRID*             165151               00.0000000000E+005.9951328500E+01+
*       -9.113783251E+01               0
GRID*             165152               00.0000000000E+006.0796025790E+01+
*       -9.360670951E+01               0
GRID*             165153               00.0000000000E+006.1410215296E+01+
*       -9.633164190E+01               0
GRID*             165154               00.0000000000E+006.1885449131E+01+
*       -9.913400457E+01               0
GRID*             165155               00.0000000000E+006.2284466153E+01+
*       -1.019682782E+02               0
GRID*             165156               00.0000000000E+006.2646539077E+01+
*       -1.048205816E+02               0
GRID*             165157               00.0000000000E+006.2999979419E+01+
*       -1.076834348E+02               0
GRID*             165158               00.0000000000E+006.3371487502E+01+
*       -1.105493689E+02               0
GRID*             165159               00.0000000000E+006.3796210060E+01+
*       -1.134042296E+02               0
GRID*             165160               00.0000000000E+006.1397748048E+01+
*       -1.170398284E+02               0
GRID*             165161               00.0000000000E+005.8393159188E+01+
*       -1.207688549E+02               0
GRID*             165162               00.0000000000E+006.1459802909E+01+
*       -1.243263015E+02               0
GRID*             165163               00.0000000000E+006.3988772430E+01+
*       -1.278658695E+02               0
GRID*             165164               00.0000000000E+006.3638165391E+01+
*       -1.308517809E+02               0
GRID*             165165               00.0000000000E+006.3353161722E+01+
*       -1.338664823E+02               0
GRID*             165166               00.0000000000E+006.3108508308E+01+
*       -1.368973617E+02               0
GRID*             165167               00.0000000000E+006.2891383607E+01+
*       -1.399392293E+02               0
GRID*             165168               00.0000000000E+006.2694449826E+01+
*       -1.429890717E+02               0
GRID*             165169               00.0000000000E+006.2512784507E+01+
*       -1.460448747E+02               0
GRID*             165170               00.0000000000E+006.2342463179E+01+
*       -1.491052797E+02               0
GRID*             165171               00.0000000000E+006.2179826805E+01+
*       -1.521694008E+02               0
GRID*             165172               00.0000000000E+006.2020854942E+01+
*       -1.552369435E+02               0
GRID*             165173               00.0000000000E+006.1860499411E+01+
*       -1.583080716E+02               0
GRID*             165174               00.0000000000E+006.1692417163E+01+
*       -1.613842039E+02               0
GRID*             165175               00.0000000000E+006.1506423090E+01+
*       -1.644696402E+02               0
GRID*             165176               00.0000000000E+006.1287162546E+01+
*       -1.675736271E+02               0
GRID*             165177               00.0000000000E+006.1004628185E+01+
*       -1.707217154E+02               0
GRID*             165178               00.0000000000E+006.0585812433E+01+
*       -1.740001326E+02               0
GRID*             165179               00.0000000000E+005.9764225862E+01+
*       -1.778151080E+02               0
GRID*             165180               00.0000000000E+006.0639300413E+01+
*       -1.816171385E+02               0
GRID*             165181               00.0000000000E+006.1112111413E+01+
*       -1.848926013E+02               0
GRID*             165182               00.0000000000E+006.1455132713E+01+
*       -1.880360929E+02               0
GRID*             165183               00.0000000000E+006.1742468631E+01+
*       -1.911317264E+02               0
GRID*             165184               00.0000000000E+006.2004468615E+01+
*       -1.942025547E+02               0
GRID*             165185               00.0000000000E+006.2256206780E+01+
*       -1.972557297E+02               0
GRID*             165186               00.0000000000E+006.2507280472E+01+
*       -2.002936007E+02               0
GRID*             165187               00.0000000000E+006.2766470579E+01+
*       -2.033168119E+02               0
GRID*             165188               00.0000000000E+006.3044806813E+01+
*       -2.063247623E+02               0
GRID*             165189               00.0000000000E+006.3359186529E+01+
*       -2.093145192E+02               0
GRID*             165190               00.0000000000E+006.3739264321E+01+
*       -2.122754095E+02               0
GRID*             165191               00.0000000000E+006.1260380999E+01+
*       -2.159047618E+02               0
GRID*             165192               00.0000000000E+005.8192811497E+01+
*       -2.196005332E+02               0
GRID*             165193               00.0000000000E+006.1246068728E+01+
*       -2.232692887E+02               0
GRID*             165194               00.0000000000E+006.3743821350E+01+
*       -2.268870316E+02               0
GRID*             165195               00.0000000000E+006.3344315183E+01+
*       -2.298373069E+02               0
GRID*             165196               00.0000000000E+006.3002310426E+01+
*       -2.328089889E+02               0
GRID*             165197               00.0000000000E+006.2691037842E+01+
*       -2.357914090E+02               0
GRID*             165198               00.0000000000E+006.2396382661E+01+
*       -2.387836800E+02               0
GRID*             165199               00.0000000000E+006.2110618959E+01+
*       -2.417896554E+02               0
GRID*             165200               00.0000000000E+006.1831016280E+01+
*       -2.448166262E+02               0
GRID*             165201               00.0000000000E+006.1562703296E+01+
*       -2.478729901E+02               0
GRID*             165202               00.0000000000E+006.1325151821E+01+
*       -2.509612210E+02               0
GRID*             165203               00.0000000000E+006.1147757653E+01+
*       -2.540644036E+02               0
GRID*             165204               00.0000000000E+006.1030489314E+01+
*       -2.571604682E+02               0
GRID*             165205               00.0000000000E+006.0957022986E+01+
*       -2.602352221E+02               0
GRID*             165206               00.0000000000E+006.0912970471E+01+
*       -2.632834233E+02               0
GRID*             165207               00.0000000000E+006.0888303665E+01+
*       -2.663039147E+02               0
GRID*             165208               00.0000000000E+006.0876742242E+01+
*       -2.692971208E+02               0
GRID*             165209               00.0000000000E+006.0874633762E+01+
*       -2.722638962E+02               0
GRID*             165210               00.0000000000E+006.0879894320E+01+
*       -2.752048508E+02               0
GRID*             165211               00.0000000000E+006.0891677329E+01+
*       -2.781176880E+02               0
GRID*             165212               00.0000000000E+006.0908803554E+01+
*       -2.810034059E+02               0
GRID*             165213               00.0000000000E+006.0930723349E+01+
*       -2.838602366E+02               0
GRID*             165214               00.0000000000E+006.0956995186E+01+
*       -2.866856067E+02               0
GRID*             165215               00.0000000000E+006.0987176148E+01+
*       -2.894761334E+02               0
GRID*             165216               00.0000000000E+006.1020465020E+01+
*       -2.922352322E+02               0
GRID*             165217               00.0000000000E+006.1056699154E+01+
*       -2.949539911E+02               0
GRID*             165218               00.0000000000E+006.1095162692E+01+
*       -2.976278442E+02               0
GRID*             165219               00.0000000000E+006.1134877025E+01+
*       -3.002517526E+02               0
GRID*             165220               00.0000000000E+006.1172617101E+01+
*       -3.028043362E+02               0
GRID*             165221               00.0000000000E+006.1206115310E+01+
*       -3.052908818E+02               0
GRID*             165222               00.0000000000E+005.8184039889E+01+
*       -3.075292268E+02               0
GRID*             165223               00.0000000000E+005.5144641575E+01+
*       -3.074116076E+02               0
GRID*             165224               00.0000000000E+005.2115811795E+01+
*       -3.073536322E+02               0
GRID*             165225               00.0000000000E+004.9099254129E+01+
*       -3.073536313E+02               0
GRID*             165226               00.0000000000E+004.6096919580E+01+
*       -3.074115205E+02               0
GRID*             165227               00.0000000000E+004.3111569464E+01+
*       -3.075287240E+02               0
GRID*             165228               00.0000000000E+004.0147752557E+01+
*       -3.077080494E+02               0
GRID*             165229               00.0000000000E+004.0070314707E+01+
*       -3.028639379E+02               0
GRID*             165230               00.0000000000E+003.7168041211E+01+
*       -3.055756089E+02               0
GRID*             165231               00.0000000000E+004.0007538283E+01+
*       -3.003366164E+02               0
GRID*             165232               00.0000000000E+003.9936624584E+01+
*       -2.977295311E+02               0
GRID*             165233               00.0000000000E+003.9866272779E+01+
*       -2.950623705E+02               0
GRID*             165234               00.0000000000E+003.9799601547E+01+
*       -2.923436329E+02               0
GRID*             165235               00.0000000000E+003.9737954737E+01+
*       -2.895812576E+02               0
GRID*             165236               00.0000000000E+003.9681130157E+01+
*       -2.867871258E+02               0
GRID*             165237               00.0000000000E+003.9628530140E+01+
*       -2.839596931E+02               0
GRID*             165238               00.0000000000E+003.9579478375E+01+
*       -2.811038882E+02               0
GRID*             165239               00.0000000000E+003.9532908214E+01+
*       -2.782236907E+02               0
GRID*             165240               00.0000000000E+003.9487470262E+01+
*       -2.753222919E+02               0
GRID*             165241               00.0000000000E+003.9441755076E+01+
*       -2.724006094E+02               0
GRID*             165242               00.0000000000E+003.9393748994E+01+
*       -2.694635024E+02               0
GRID*             165243               00.0000000000E+003.9341422319E+01+
*       -2.665137904E+02               0
GRID*             165244               00.0000000000E+003.9282563051E+01+
*       -2.635554180E+02               0
GRID*             165245               00.0000000000E+003.9214966586E+01+
*       -2.605940842E+02               0
GRID*             165246               00.0000000000E+003.9137042706E+01+
*       -2.576377846E+02               0
GRID*             165247               00.0000000000E+003.9049384335E+01+
*       -2.546967321E+02               0
GRID*             165248               00.0000000000E+003.8958027699E+01+
*       -2.517811206E+02               0
GRID*             165249               00.0000000000E+003.8876019662E+01+
*       -2.488912512E+02               0
GRID*             165250               00.0000000000E+003.8832226805E+01+
*       -2.460184735E+02               0
GRID*             165251               00.0000000000E+003.8833431243E+01+
*       -2.431453445E+02               0
GRID*             165252               00.0000000000E+003.8874127348E+01+
*       -2.402600202E+02               0
GRID*             165253               00.0000000000E+003.8944535770E+01+
*       -2.373573388E+02               0
GRID*             165254               00.0000000000E+003.9034949410E+01+
*       -2.344374853E+02               0
GRID*             165255               00.0000000000E+003.6272179387E+01+
*       -2.285128848E+02               0
GRID*             165256               00.0000000000E+003.9137102332E+01+
*       -2.315039144E+02               0
GRID*             165257               00.0000000000E+003.9349042257E+01+
*       -2.256115524E+02               0
GRID*             165258               00.0000000000E+004.2430033492E+01+
*       -2.226692411E+02               0
GRID*             165259               00.0000000000E+004.2509696395E+01+
*       -2.196859228E+02               0
GRID*             165260               00.0000000000E+003.9673782300E+01+
*       -2.138037172E+02               0
GRID*             165261               00.0000000000E+003.6863075927E+01+
*       -2.109597139E+02               0
GRID*             165262               00.0000000000E+003.4153013972E+01+
*       -2.081538344E+02               0
GRID*             165263               00.0000000000E+004.2562732334E+01+
*       -2.167017524E+02               0
GRID*             165264               00.0000000000E+003.4236201500E+01+
*       -2.052803211E+02               0
GRID*             165265               00.0000000000E+003.4286082391E+01+
*       -2.024347206E+02               0
GRID*             165266               00.0000000000E+003.4296372619E+01+
*       -1.996364514E+02               0
GRID*             165267               00.0000000000E+003.4257833177E+01+
*       -1.969144013E+02               0
GRID*             165268               00.0000000000E+003.4152188906E+01+
*       -1.943081122E+02               0
GRID*             165269               00.0000000000E+003.3932714453E+01+
*       -1.918579093E+02               0
GRID*             165270               00.0000000000E+003.7725449401E+01+
*       -1.856489249E+02               0
GRID*             165271               00.0000000000E+003.5770599202E+01+
*       -1.888117222E+02               0
GRID*             165272               00.0000000000E+003.7475263474E+01+
*       -1.829950810E+02               0
GRID*             165273               00.0000000000E+003.7463043815E+01+
*       -1.804217184E+02               0
GRID*             165274               00.0000000000E+003.7595660871E+01+
*       -1.782398647E+02               0
GRID*             165275               00.0000000000E+003.9019965769E+01+
*       -1.756297721E+02               0
GRID*             165276               00.0000000000E+003.8734008266E+01+
*       -1.726673253E+02               0
GRID*             165277               00.0000000000E+003.8610094978E+01+
*       -1.696078729E+02               0
GRID*             165278               00.0000000000E+003.8564269913E+01+
*       -1.665326920E+02               0
GRID*             165279               00.0000000000E+003.8563644591E+01+
*       -1.634584790E+02               0
GRID*             165280               00.0000000000E+003.8591723778E+01+
*       -1.603860751E+02               0
GRID*             165281               00.0000000000E+003.8638616094E+01+
*       -1.573140689E+02               0
GRID*             165282               00.0000000000E+003.8699326858E+01+
*       -1.542420699E+02               0
GRID*             165283               00.0000000000E+003.8770935016E+01+
*       -1.511697582E+02               0
GRID*             165284               00.0000000000E+003.8851517233E+01+
*       -1.480978087E+02               0
GRID*             165285               00.0000000000E+003.8940135005E+01+
*       -1.450273939E+02               0
GRID*             165286               00.0000000000E+003.9036154699E+01+
*       -1.419603977E+02               0
GRID*             165287               00.0000000000E+003.9138917024E+01+
*       -1.388995644E+02               0
GRID*             165288               00.0000000000E+003.9247385433E+01+
*       -1.358484303E+02               0
GRID*             165289               00.0000000000E+003.6472264625E+01+
*       -1.296623530E+02               0
GRID*             165290               00.0000000000E+003.9359821601E+01+
*       -1.328109238E+02               0
GRID*             165291               00.0000000000E+003.9585977527E+01+
*       -1.267902173E+02               0
GRID*             165292               00.0000000000E+004.2690183974E+01+
*       -1.238815009E+02               0
GRID*             165293               00.0000000000E+004.2777207911E+01+
*       -1.209007880E+02               0
GRID*             165294               00.0000000000E+003.9984892919E+01+
*       -1.150232458E+02               0
GRID*             165295               00.0000000000E+003.7212051053E+01+
*       -1.121482045E+02               0
GRID*             165296               00.0000000000E+003.4543808064E+01+
*       -1.093041907E+02               0
GRID*             165297               00.0000000000E+004.2844919152E+01+
*       -1.179429566E+02               0
GRID*             165298               00.0000000000E+003.4694169792E+01+
*       -1.065157820E+02               0
GRID*             165299               00.0000000000E+003.4821184051E+01+
*       -1.037663272E+02               0
GRID*             165300               00.0000000000E+003.4913790701E+01+
*       -1.010733682E+02               0
GRID*             165301               00.0000000000E+003.4948741631E+01+
*       -9.846089601E+01               0
GRID*             165302               00.0000000000E+003.4866492187E+01+
*       -9.595064935E+01               0
GRID*             165303               00.0000000000E+003.9758888277E+01+
*       -8.951577262E+01               0
GRID*             165304               00.0000000000E+003.7094117669E+01+
*       -9.290541135E+01               0
GRID*             165305               00.0000000000E+003.9605108769E+01+
*       -8.629040559E+01               0
GRID*             165306               00.0000000000E+003.9488945195E+01+
*       -8.306266304E+01               0
GRID*             165307               00.0000000000E+003.9402663772E+01+
*       -7.988146936E+01               0
GRID*             165308               00.0000000000E+003.9337512015E+01+
*       -7.674952927E+01               0
GRID*             165309               00.0000000000E+003.9286592260E+01+
*       -7.365959488E+01               0
GRID*             165310               00.0000000000E+003.9244785453E+01+
*       -7.060473029E+01               0
GRID*             165311               00.0000000000E+003.9208301665E+01+
*       -6.757990904E+01               0
GRID*             165312               00.0000000000E+003.9174432202E+01+
*       -6.458318829E+01               0
GRID*             165313               00.0000000000E+003.9140999878E+01+
*       -6.161160173E+01               0
GRID*             165314               00.0000000000E+003.9106577440E+01+
*       -5.866444260E+01               0
GRID*             165315               00.0000000000E+003.9070111176E+01+
*       -5.574198648E+01               0
GRID*             165316               00.0000000000E+003.9030789483E+01+
*       -5.284529893E+01               0
GRID*             165317               00.0000000000E+003.8988227678E+01+
*       -4.997266274E+01               0
GRID*             165318               00.0000000000E+003.8941934916E+01+
*       -4.712835611E+01               0
GRID*             165319               00.0000000000E+003.8891636210E+01+
*       -4.431471195E+01               0
GRID*             165320               00.0000000000E+003.8837308806E+01+
*       -4.153426122E+01               0
GRID*             165321               00.0000000000E+003.8779756538E+01+
*       -3.879485768E+01               0
GRID*             165322               00.0000000000E+003.8720323150E+01+
*       -3.609358823E+01               0
GRID*             165323               00.0000000000E+004.1793781337E+01+
*       -3.617181629E+01               0
GRID*             165324               00.0000000000E+004.4862128940E+01+
*       -3.621479050E+01               0
GRID*             165325               00.0000000000E+004.7922537793E+01+
*       -3.622450842E+01               0
GRID*             165326               00.0000000000E+005.0972687304E+01+
*       -3.620161253E+01               0
GRID*             165327               00.0000000000E+005.4010391767E+01+
*       -3.614541250E+01               0
GRID*             165328               00.0000000000E+005.7032998070E+01+
*       -3.605378297E+01               0
GRID*             165329               00.0000000000E+006.0036496699E+01+
*       -3.592296205E+01               0
GRID*             165330               00.0000000000E+005.7050641452E+01+
*       -3.873462935E+01               0
GRID*             165331               00.0000000000E+005.7082603758E+01+
*       -4.145703895E+01               0
GRID*             165332               00.0000000000E+005.7124700171E+01+
*       -4.422582229E+01               0
GRID*             165333               00.0000000000E+005.7170380352E+01+
*       -4.703373145E+01               0
GRID*             165334               00.0000000000E+005.7216304322E+01+
*       -4.987597915E+01               0
GRID*             165335               00.0000000000E+005.7260485705E+01+
*       -5.274755809E+01               0
GRID*             165336               00.0000000000E+005.7301837443E+01+
*       -5.564145973E+01               0
GRID*             165337               00.0000000000E+005.7340332819E+01+
*       -5.855684219E+01               0
GRID*             165338               00.0000000000E+005.7375804778E+01+
*       -6.149013648E+01               0
GRID*             165339               00.0000000000E+005.7408235482E+01+
*       -6.443806642E+01               0
GRID*             165340               00.0000000000E+005.7437505731E+01+
*       -6.739733258E+01               0
GRID*             165341               00.0000000000E+005.7463116536E+01+
*       -7.036494669E+01               0
GRID*             165342               00.0000000000E+005.7483466809E+01+
*       -7.333344663E+01               0
GRID*             165343               00.0000000000E+005.7494728899E+01+
*       -7.629245736E+01               0
GRID*             165344               00.0000000000E+005.7488892996E+01+
*       -7.922466682E+01               0
GRID*             165345               00.0000000000E+005.7452066896E+01+
*       -8.210033884E+01               0
GRID*             165346               00.0000000000E+005.7366318229E+01+
*       -8.486507612E+01               0
GRID*             165347               00.0000000000E+005.7228187409E+01+
*       -8.742358941E+01               0
GRID*             165348               00.0000000000E+005.8841862651E+01+
*       -8.950778841E+01               0
GRID*             165349               00.0000000000E+005.7645986221E+01+
*       -9.183228138E+01               0
GRID*             165350               00.0000000000E+005.8207624133E+01+
*       -9.425561711E+01               0
GRID*             165351               00.0000000000E+005.8698376656E+01+
*       -9.686425117E+01               0
GRID*             165352               00.0000000000E+005.9113700162E+01+
*       -9.958084649E+01               0
GRID*             165353               00.0000000000E+005.9476045702E+01+
*       -1.023636697E+02               0
GRID*             165354               00.0000000000E+005.9809623699E+01+
*       -1.051926045E+02               0
GRID*             165355               00.0000000000E+006.0136537356E+01+
*       -1.080592903E+02               0
GRID*             165356               00.0000000000E+006.0480425278E+01+
*       -1.109657763E+02               0
GRID*             165357               00.0000000000E+006.0876059811E+01+
*       -1.139329599E+02               0
GRID*             165358               00.0000000000E+005.8145399788E+01+
*       -1.174543304E+02               0
GRID*             165359               00.0000000000E+005.5040957224E+01+
*       -1.208473794E+02               0
GRID*             165360               00.0000000000E+005.8169270820E+01+
*       -1.241175758E+02               0
GRID*             165361               00.0000000000E+006.0999056912E+01+
*       -1.275369095E+02               0
GRID*             165362               00.0000000000E+006.0667274588E+01+
*       -1.306322985E+02               0
GRID*             165363               00.0000000000E+006.0398027561E+01+
*       -1.336948283E+02               0
GRID*             165364               00.0000000000E+006.0165515897E+01+
*       -1.367485940E+02               0
GRID*             165365               00.0000000000E+005.9957676511E+01+
*       -1.398015192E+02               0
GRID*             165366               00.0000000000E+005.9767827052E+01+
*       -1.428561580E+02               0
GRID*             165367               00.0000000000E+005.9591543976E+01+
*       -1.459130676E+02               0
GRID*             165368               00.0000000000E+005.9425297906E+01+
*       -1.489719932E+02               0
GRID*             165369               00.0000000000E+005.9265737132E+01+
*       -1.520322811E+02               0
GRID*             165370               00.0000000000E+005.9109147833E+01+
*       -1.550930028E+02               0
GRID*             165371               00.0000000000E+005.8950906412E+01+
*       -1.581528646E+02               0
GRID*             165372               00.0000000000E+005.8783269976E+01+
*       -1.612105874E+02               0
GRID*             165373               00.0000000000E+005.8596868371E+01+
*       -1.642648778E+02               0
GRID*             165374               00.0000000000E+005.8375042883E+01+
*       -1.673120317E+02               0
GRID*             165375               00.0000000000E+005.8087612551E+01+
*       -1.703410886E+02               0
GRID*             165376               00.0000000000E+005.7674249517E+01+
*       -1.733083239E+02               0
GRID*             165377               00.0000000000E+005.7029698103E+01+
*       -1.760325703E+02               0
GRID*             165378               00.0000000000E+005.7052414508E+01+
*       -1.796526983E+02               0
GRID*             165379               00.0000000000E+005.7731591204E+01+
*       -1.823719029E+02               0
GRID*             165380               00.0000000000E+005.8190720858E+01+
*       -1.853403471E+02               0
GRID*             165381               00.0000000000E+005.8537366962E+01+
*       -1.883711588E+02               0
GRID*             165382               00.0000000000E+005.8830206808E+01+
*       -1.914161887E+02               0
GRID*             165383               00.0000000000E+005.9096937053E+01+
*       -1.944610309E+02               0
GRID*             165384               00.0000000000E+005.9351013379E+01+
*       -1.975006703E+02               0
GRID*             165385               00.0000000000E+005.9600755756E+01+
*       -2.005340723E+02               0
GRID*             165386               00.0000000000E+005.9854018324E+01+
*       -2.035628833E+02               0
GRID*             165387               00.0000000000E+006.0120989225E+01+
*       -2.065917118E+02               0
GRID*             165388               00.0000000000E+006.0417598004E+01+
*       -2.096309260E+02               0
GRID*             165389               00.0000000000E+006.0773652791E+01+
*       -2.127071541E+02               0
GRID*             165390               00.0000000000E+005.7971711475E+01+
*       -2.162305510E+02               0
GRID*             165391               00.0000000000E+005.4814201553E+01+
*       -2.196139619E+02               0
GRID*             165392               00.0000000000E+005.7933760859E+01+
*       -2.229659775E+02               0
GRID*             165393               00.0000000000E+006.0737223587E+01+
*       -2.264602110E+02               0
GRID*             165394               00.0000000000E+006.0352335596E+01+
*       -2.295225456E+02               0
GRID*             165395               00.0000000000E+006.0021321382E+01+
*       -2.325400192E+02               0
GRID*             165396               00.0000000000E+005.9714915168E+01+
*       -2.355392736E+02               0
GRID*             165397               00.0000000000E+005.9417373371E+01+
*       -2.385332980E+02               0
GRID*             165398               00.0000000000E+005.9117690331E+01+
*       -2.415337452E+02               0
GRID*             165399               00.0000000000E+005.8807178878E+01+
*       -2.445563342E+02               0
GRID*             165400               00.0000000000E+005.8484579679E+01+
*       -2.476230229E+02               0
GRID*             165401               00.0000000000E+005.8179491067E+01+
*       -2.507532520E+02               0
GRID*             165402               00.0000000000E+005.7992643624E+01+
*       -2.539159951E+02               0
GRID*             165403               00.0000000000E+005.7892251046E+01+
*       -2.570554433E+02               0
GRID*             165404               00.0000000000E+005.7840704568E+01+
*       -2.601557277E+02               0
GRID*             165405               00.0000000000E+005.7816330844E+01+
*       -2.632177908E+02               0
GRID*             165406               00.0000000000E+005.7807630264E+01+
*       -2.662452722E+02               0
GRID*             165407               00.0000000000E+005.7808613169E+01+
*       -2.692412552E+02               0
GRID*             165408               00.0000000000E+005.7816293154E+01+
*       -2.722079919E+02               0
GRID*             165409               00.0000000000E+005.7829256408E+01+
*       -2.751468651E+02               0
GRID*             165410               00.0000000000E+005.7847245351E+01+
*       -2.780558625E+02               0
GRID*             165411               00.0000000000E+005.7869488942E+01+
*       -2.809361768E+02               0
GRID*             165412               00.0000000000E+005.7895673268E+01+
*       -2.837860313E+02               0
GRID*             165413               00.0000000000E+005.7925458541E+01+
*       -2.866028003E+02               0
GRID*             165414               00.0000000000E+005.7958374968E+01+
*       -2.893830846E+02               0
GRID*             165415               00.0000000000E+005.7993597355E+01+
*       -2.921300787E+02               0
GRID*             165416               00.0000000000E+005.8030688251E+01+
*       -2.948349822E+02               0
GRID*             165417               00.0000000000E+005.8068617167E+01+
*       -2.974935512E+02               0
GRID*             165418               00.0000000000E+005.8106020679E+01+
*       -3.001013885E+02               0
GRID*             165419               00.0000000000E+005.8139285215E+01+
*       -3.026400114E+02               0
GRID*             165420               00.0000000000E+005.8166238933E+01+
*       -3.051159097E+02               0
GRID*             165421               00.0000000000E+005.5132203616E+01+
*       -3.050021492E+02               0
GRID*             165422               00.0000000000E+005.2106113413E+01+
*       -3.049473671E+02               0
GRID*             165423               00.0000000000E+004.9089758487E+01+
*       -3.049506062E+02               0
GRID*             165424               00.0000000000E+004.6084904941E+01+
*       -3.050122498E+02               0
GRID*             165425               00.0000000000E+004.3093726268E+01+
*       -3.051341865E+02               0
GRID*             165426               00.0000000000E+004.0119498326E+01+
*       -3.053200541E+02               0
GRID*             165427               00.0000000000E+004.3058732342E+01+
*       -3.026774815E+02               0
GRID*             165428               00.0000000000E+004.3010980848E+01+
*       -3.001559971E+02               0
GRID*             165429               00.0000000000E+004.2953953503E+01+
*       -2.975608365E+02               0
GRID*             165430               00.0000000000E+004.2894778571E+01+
*       -2.949086550E+02               0
GRID*             165431               00.0000000000E+004.2836478625E+01+
*       -2.922056393E+02               0
GRID*             165432               00.0000000000E+004.2780799251E+01+
*       -2.894580654E+02               0
GRID*             165433               00.0000000000E+004.2728218766E+01+
*       -2.866767304E+02               0
GRID*             165434               00.0000000000E+004.2678652628E+01+
*       -2.838597880E+02               0
GRID*             165435               00.0000000000E+004.2631806849E+01+
*       -2.810118712E+02               0
GRID*             165436               00.0000000000E+004.2586895493E+01+
*       -2.781368207E+02               0
GRID*             165437               00.0000000000E+004.2542726890E+01+
*       -2.752377247E+02               0
GRID*             165438               00.0000000000E+004.2497862374E+01+
*       -2.723152381E+02               0
GRID*             165439               00.0000000000E+004.2450058000E+01+
*       -2.693740953E+02               0
GRID*             165440               00.0000000000E+004.2396755667E+01+
*       -2.664168553E+02               0
GRID*             165441               00.0000000000E+004.2334691082E+01+
*       -2.634474066E+02               0
GRID*             165442               00.0000000000E+004.2259700993E+01+
*       -2.604721168E+02               0
GRID*             165443               00.0000000000E+004.2166818135E+01+
*       -2.575015609E+02               0
GRID*             165444               00.0000000000E+004.2051769862E+01+
*       -2.545526976E+02               0
GRID*             165445               00.0000000000E+004.1916759273E+01+
*       -2.516487095E+02               0
GRID*             165446               00.0000000000E+004.1781341497E+01+
*       -2.488011317E+02               0
GRID*             165447               00.0000000000E+004.1715496887E+01+
*       -2.459806166E+02               0
GRID*             165448               00.0000000000E+004.1720096228E+01+
*       -2.431513002E+02               0
GRID*             165449               00.0000000000E+004.1777440506E+01+
*       -2.402969606E+02               0
GRID*             165450               00.0000000000E+004.1869063413E+01+
*       -2.374134435E+02               0
GRID*             165451               00.0000000000E+004.1980096029E+01+
*       -2.345022952E+02               0
GRID*             165452               00.0000000000E+003.9243872018E+01+
*       -2.285608310E+02               0
GRID*             165453               00.0000000000E+004.2099542292E+01+
*       -2.315677054E+02               0
GRID*             165454               00.0000000000E+004.2331059668E+01+
*       -2.256469671E+02               0
GRID*             165455               00.0000000000E+004.5432346315E+01+
*       -2.226844488E+02               0
GRID*             165456               00.0000000000E+004.5504860840E+01+
*       -2.196660425E+02               0
GRID*             165457               00.0000000000E+004.2589254569E+01+
*       -2.137226949E+02               0
GRID*             165458               00.0000000000E+003.9710874132E+01+
*       -2.108632445E+02               0
GRID*             165459               00.0000000000E+003.6920845984E+01+
*       -2.080541623E+02               0
GRID*             165460               00.0000000000E+004.5538549864E+01+
*       -2.166451301E+02               0
GRID*             165461               00.0000000000E+003.6949600466E+01+
*       -2.051649564E+02               0
GRID*             165462               00.0000000000E+003.6942369436E+01+
*       -2.023012781E+02               0
GRID*             165463               00.0000000000E+003.6890364429E+01+
*       -1.994761799E+02               0
GRID*             165464               00.0000000000E+003.6779832489E+01+
*       -1.967073444E+02               0
GRID*             165465               00.0000000000E+003.6587322931E+01+
*       -1.940133894E+02               0
GRID*             165466               00.0000000000E+003.6272182374E+01+
*       -1.913986631E+02               0
GRID*             165467               00.0000000000E+003.8287781268E+01+
*       -1.882442617E+02               0
GRID*             165468               00.0000000000E+004.0107965284E+01+
*       -1.853112881E+02               0
GRID*             165469               00.0000000000E+003.9860307868E+01+
*       -1.829254795E+02               0
GRID*             165470               00.0000000000E+003.9761604077E+01+
*       -1.804682174E+02               0
GRID*             165471               00.0000000000E+003.9625619776E+01+
*       -1.780598315E+02               0
GRID*             165472               00.0000000000E+004.1738724016E+01+
*       -1.753183094E+02               0
GRID*             165473               00.0000000000E+004.1563698546E+01+
*       -1.724861044E+02               0
GRID*             165474               00.0000000000E+004.1476946881E+01+
*       -1.695397004E+02               0
GRID*             165475               00.0000000000E+004.1449666765E+01+
*       -1.665353476E+02               0
GRID*             165476               00.0000000000E+004.1462888101E+01+
*       -1.635041419E+02               0
GRID*             165477               00.0000000000E+004.1502890697E+01+
*       -1.604582185E+02               0
GRID*             165478               00.0000000000E+004.1561723974E+01+
*       -1.574036542E+02               0
GRID*             165479               00.0000000000E+004.1634240353E+01+
*       -1.543434113E+02               0
GRID*             165480               00.0000000000E+004.1717213118E+01+
*       -1.512798146E+02               0
GRID*             165481               00.0000000000E+004.1808976575E+01+
*       -1.482147669E+02               0
GRID*             165482               00.0000000000E+004.1908470129E+01+
*       -1.451499715E+02               0
GRID*             165483               00.0000000000E+004.2014831525E+01+
*       -1.420872432E+02               0
GRID*             165484               00.0000000000E+004.2127028744E+01+
*       -1.390286670E+02               0
GRID*             165485               00.0000000000E+004.2243494039E+01+
*       -1.359765849E+02               0
GRID*             165486               00.0000000000E+003.9473675564E+01+
*       -1.297906469E+02               0
GRID*             165487               00.0000000000E+004.2361798235E+01+
*       -1.329334428E+02               0
GRID*             165488               00.0000000000E+004.2589175463E+01+
*       -1.268834161E+02               0
GRID*             165489               00.0000000000E+004.5700994682E+01+
*       -1.239336817E+02               0
GRID*             165490               00.0000000000E+004.5772585265E+01+
*       -1.209218228E+02               0
GRID*             165491               00.0000000000E+004.2895108936E+01+
*       -1.150152717E+02               0
GRID*             165492               00.0000000000E+004.0062035547E+01+
*       -1.121486738E+02               0
GRID*             165493               00.0000000000E+003.7324616186E+01+
*       -1.093190748E+02               0
GRID*             165494               00.0000000000E+004.5812786318E+01+
*       -1.179323233E+02               0
GRID*             165495               00.0000000000E+003.7420727885E+01+
*       -1.065194956E+02               0
GRID*             165496               00.0000000000E+003.7493377105E+01+
*       -1.037540736E+02               0
GRID*             165497               00.0000000000E+003.7531215051E+01+
*       -1.010272783E+02               0
GRID*             165498               00.0000000000E+003.7512531130E+01+
*       -9.833729159E+01               0
GRID*             165499               00.0000000000E+003.7393974710E+01+
*       -9.565930033E+01               0
GRID*             165500               00.0000000000E+004.2948895726E+01+
*       -8.934874102E+01               0
GRID*             165501               00.0000000000E+003.9947939508E+01+
*       -9.258220238E+01               0
GRID*             165502               00.0000000000E+004.2805614089E+01+
*       -8.611913881E+01               0
GRID*             165503               00.0000000000E+004.2648891714E+01+
*       -8.293459529E+01               0
GRID*             165504               00.0000000000E+004.2524163414E+01+
*       -7.980002897E+01               0
GRID*             165505               00.0000000000E+004.2430679649E+01+
*       -7.670418256E+01               0
GRID*             165506               00.0000000000E+004.2360168428E+01+
*       -7.363964570E+01               0
GRID*             165507               00.0000000000E+004.2304975809E+01+
*       -7.060238260E+01               0
GRID*             165508               00.0000000000E+004.2259271433E+01+
*       -6.759003756E+01               0
GRID*             165509               00.0000000000E+004.2218991350E+01+
*       -6.460259144E+01               0
GRID*             165510               00.0000000000E+004.2181030264E+01+
*       -6.163834924E+01               0
GRID*             165511               00.0000000000E+004.2143436636E+01+
*       -5.869751335E+01               0
GRID*             165512               00.0000000000E+004.2104923628E+01+
*       -5.578098126E+01               0
GRID*             165513               00.0000000000E+004.2064685717E+01+
*       -5.289020918E+01               0
GRID*             165514               00.0000000000E+004.2022371834E+01+
*       -5.002389792E+01               0
GRID*             165515               00.0000000000E+004.1977911334E+01+
*       -4.718631432E+01               0
GRID*             165516               00.0000000000E+004.1931553384E+01+
*       -4.437956205E+01               0
GRID*             165517               00.0000000000E+004.1883960926E+01+
*       -4.160564076E+01               0
GRID*             165518               00.0000000000E+004.1837327530E+01+
*       -3.887095280E+01               0
GRID*             165519               00.0000000000E+004.4893647288E+01+
*       -3.891195392E+01               0
GRID*             165520               00.0000000000E+004.7945466506E+01+
*       -3.891922815E+01               0
GRID*             165521               00.0000000000E+005.0990262086E+01+
*       -3.889301171E+01               0
GRID*             165522               00.0000000000E+005.4025967836E+01+
*       -3.883230266E+01               0
GRID*             165523               00.0000000000E+005.4053876811E+01+
*       -4.155636256E+01               0
GRID*             165524               00.0000000000E+005.4091196160E+01+
*       -4.432233152E+01               0
GRID*             165525               00.0000000000E+005.4132740667E+01+
*       -4.712439563E+01               0
GRID*             165526               00.0000000000E+005.4175699450E+01+
*       -4.995938008E+01               0
GRID*             165527               00.0000000000E+005.4218224109E+01+
*       -5.282360177E+01               0
GRID*             165528               00.0000000000E+005.4259155873E+01+
*       -5.571102123E+01               0
GRID*             165529               00.0000000000E+005.4298401841E+01+
*       -5.862114619E+01               0
GRID*             165530               00.0000000000E+005.4335939074E+01+
*       -6.155061693E+01               0
GRID*             165531               00.0000000000E+005.4372121387E+01+
*       -6.449611578E+01               0
GRID*             165532               00.0000000000E+005.4407582111E+01+
*       -6.745405844E+01               0
GRID*             165533               00.0000000000E+005.4443212843E+01+
*       -7.042092448E+01               0
GRID*             165534               00.0000000000E+005.4479869003E+01+
*       -7.338836253E+01               0
GRID*             165535               00.0000000000E+005.4518354320E+01+
*       -7.634439462E+01               0
GRID*             165536               00.0000000000E+005.4559122978E+01+
*       -7.926930429E+01               0
GRID*             165537               00.0000000000E+005.4603485167E+01+
*       -8.213244931E+01               0
GRID*             165538               00.0000000000E+005.4658171273E+01+
*       -8.488905602E+01               0
GRID*             165539               00.0000000000E+005.4745144834E+01+
*       -8.748524290E+01               0
GRID*             165540               00.0000000000E+005.7127649882E+01+
*       -8.966972993E+01               0
GRID*             165541               00.0000000000E+005.5275835806E+01+
*       -9.225455112E+01               0
GRID*             165542               00.0000000000E+005.5675763910E+01+
*       -9.471137301E+01               0
GRID*             165543               00.0000000000E+005.6052090584E+01+
*       -9.728870449E+01               0
GRID*             165544               00.0000000000E+005.6389635536E+01+
*       -9.996489534E+01               0
GRID*             165545               00.0000000000E+005.6694673138E+01+
*       -1.027169339E+02               0
GRID*             165546               00.0000000000E+005.6979637698E+01+
*       -1.055295983E+02               0
GRID*             165547               00.0000000000E+005.7257306897E+01+
*       -1.083964947E+02               0
GRID*             165548               00.0000000000E+005.7539668993E+01+
*       -1.113218999E+02               0
GRID*             165549               00.0000000000E+005.7836670660E+01+
*       -1.143259875E+02               0
GRID*             165550               00.0000000000E+005.4955096075E+01+
*       -1.176779668E+02               0
GRID*             165551               00.0000000000E+005.1875895133E+01+
*       -1.208957719E+02               0
GRID*             165552               00.0000000000E+005.4950287893E+01+
*       -1.240410734E+02               0
GRID*             165553               00.0000000000E+005.7896149944E+01+
*       -1.273251502E+02               0
GRID*             165554               00.0000000000E+005.7640209180E+01+
*       -1.304499573E+02               0
GRID*             165555               00.0000000000E+005.7409249624E+01+
*       -1.335352712E+02               0
GRID*             165556               00.0000000000E+005.7199556667E+01+
*       -1.366031524E+02               0
GRID*             165557               00.0000000000E+005.7007051557E+01+
*       -1.396640093E+02               0
GRID*             165558               00.0000000000E+005.6828454097E+01+
*       -1.427225194E+02               0
GRID*             165559               00.0000000000E+005.6661045549E+01+
*       -1.457805184E+02               0
GRID*             165560               00.0000000000E+005.6502320433E+01+
*       -1.488383282E+02               0
GRID*             165561               00.0000000000E+005.6349685282E+01+
*       -1.518952981E+02               0
GRID*             165562               00.0000000000E+005.6200134634E+01+
*       -1.549499096E+02               0
GRID*             165563               00.0000000000E+005.6049791107E+01+
*       -1.579995825E+02               0
GRID*             165564               00.0000000000E+005.5892469645E+01+
*       -1.610402088E+02               0
GRID*             165565               00.0000000000E+005.5720708713E+01+
*       -1.640662783E+02               0
GRID*             165566               00.0000000000E+005.5523051037E+01+
*       -1.670661092E+02               0
GRID*             165567               00.0000000000E+005.5283173264E+01+
*       -1.700162777E+02               0
GRID*             165568               00.0000000000E+005.4980263929E+01+
*       -1.728664235E+02               0
GRID*             165569               00.0000000000E+005.4614288260E+01+
*       -1.755214261E+02               0
GRID*             165570               00.0000000000E+005.6054094907E+01+
*       -1.778501055E+02               0
GRID*             165571               00.0000000000E+005.4637990852E+01+
*       -1.802025873E+02               0
GRID*             165572               00.0000000000E+005.5030507340E+01+
*       -1.828658865E+02               0
GRID*             165573               00.0000000000E+005.5371704126E+01+
*       -1.857313717E+02               0
GRID*             165574               00.0000000000E+005.5670599192E+01+
*       -1.886966923E+02               0
GRID*             165575               00.0000000000E+005.5944875464E+01+
*       -1.917043456E+02               0
GRID*             165576               00.0000000000E+005.6203878209E+01+
*       -1.947267367E+02               0
GRID*             165577               00.0000000000E+005.6451934677E+01+
*       -1.977524763E+02               0
GRID*             165578               00.0000000000E+005.6692421712E+01+
*       -2.007787303E+02               0
GRID*             165579               00.0000000000E+005.6929834060E+01+
*       -2.038078473E+02               0
GRID*             165580               00.0000000000E+005.7170335523E+01+
*       -2.068467703E+02               0
GRID*             165581               00.0000000000E+005.7421489319E+01+
*       -2.099090829E+02               0
GRID*             165582               00.0000000000E+005.7690273072E+01+
*       -2.130208313E+02               0
GRID*             165583               00.0000000000E+005.4749401563E+01+
*       -2.163970944E+02               0
GRID*             165584               00.0000000000E+005.1628857811E+01+
*       -2.196292767E+02               0
GRID*             165585               00.0000000000E+005.4695548421E+01+
*       -2.228258139E+02               0
GRID*             165586               00.0000000000E+005.7617211963E+01+
*       -2.261632710E+02               0
GRID*             165587               00.0000000000E+005.7310477493E+01+
*       -2.292560490E+02               0
GRID*             165588               00.0000000000E+005.7018377298E+01+
*       -2.322912904E+02               0
GRID*             165589               00.0000000000E+005.6733125336E+01+
*       -2.352936881E+02               0
GRID*             165590               00.0000000000E+005.6445031027E+01+
*       -2.382781124E+02               0
GRID*             165591               00.0000000000E+005.6141318319E+01+
*       -2.412584529E+02               0
GRID*             165592               00.0000000000E+005.5801516390E+01+
*       -2.442562850E+02               0
GRID*             165593               00.0000000000E+005.5394501885E+01+
*       -2.473148815E+02               0
GRID*             165594               00.0000000000E+005.4913436959E+01+
*       -2.505142832E+02               0
GRID*             165595               00.0000000000E+005.4758347541E+01+
*       -2.537987946E+02               0
GRID*             165596               00.0000000000E+005.4711567522E+01+
*       -2.569959988E+02               0
GRID*             165597               00.0000000000E+005.4701561616E+01+
*       -2.601184640E+02               0
GRID*             165598               00.0000000000E+005.4706367084E+01+
*       -2.631881625E+02               0
GRID*             165599               00.0000000000E+005.4718192253E+01+
*       -2.662175983E+02               0
GRID*             165600               00.0000000000E+005.4733987993E+01+
*       -2.692131217E+02               0
GRID*             165601               00.0000000000E+005.4752673547E+01+
*       -2.721781239E+02               0
GRID*             165602               00.0000000000E+005.4774053667E+01+
*       -2.751144124E+02               0
GRID*             165603               00.0000000000E+005.4798669395E+01+
*       -2.780200021E+02               0
GRID*             165604               00.0000000000E+005.4826330599E+01+
*       -2.808961352E+02               0
GRID*             165605               00.0000000000E+005.4857050831E+01+
*       -2.837409507E+02               0
GRID*             165606               00.0000000000E+005.4890663849E+01+
*       -2.865517178E+02               0
GRID*             165607               00.0000000000E+005.4926743662E+01+
*       -2.893249745E+02               0
GRID*             165608               00.0000000000E+005.4964509914E+01+
*       -2.920637615E+02               0
GRID*             165609               00.0000000000E+005.5003314764E+01+
*       -2.947592830E+02               0
GRID*             165610               00.0000000000E+005.5041876579E+01+
*       -2.974074757E+02               0
GRID*             165611               00.0000000000E+005.5078511821E+01+
*       -3.000043589E+02               0
GRID*             165612               00.0000000000E+005.5109293980E+01+
*       -3.025334478E+02               0
GRID*             165613               00.0000000000E+005.2084736779E+01+
*       -3.024836377E+02               0
GRID*             165614               00.0000000000E+004.9067236824E+01+
*       -3.024903130E+02               0
GRID*             165615               00.0000000000E+004.6058146992E+01+
*       -3.025542331E+02               0
GRID*             165616               00.0000000000E+004.6019792731E+01+
*       -3.000350457E+02               0
GRID*             165617               00.0000000000E+004.5972335545E+01+
*       -2.974459049E+02               0
GRID*             165618               00.0000000000E+004.5921630344E+01+
*       -2.948020638E+02               0
GRID*             165619               00.0000000000E+004.5870349410E+01+
*       -2.921083465E+02               0
GRID*             165620               00.0000000000E+004.5820269389E+01+
*       -2.893698864E+02               0
GRID*             165621               00.0000000000E+004.5772164656E+01+
*       -2.865966086E+02               0
GRID*             165622               00.0000000000E+004.5726299065E+01+
*       -2.837862849E+02               0
GRID*             165623               00.0000000000E+004.5682653067E+01+
*       -2.809431654E+02               0
GRID*             165624               00.0000000000E+004.5640693415E+01+
*       -2.780708003E+02               0
GRID*             165625               00.0000000000E+004.5599430309E+01+
*       -2.751719811E+02               0
GRID*             165626               00.0000000000E+004.5557550209E+01+
*       -2.722468408E+02               0
GRID*             165627               00.0000000000E+004.5512746401E+01+
*       -2.692995334E+02               0
GRID*             165628               00.0000000000E+004.5462195792E+01+
*       -2.663316806E+02               0
GRID*             165629               00.0000000000E+004.5401835999E+01+
*       -2.633459256E+02               0
GRID*             165630               00.0000000000E+004.5325432170E+01+
*       -2.603473116E+02               0
GRID*             165631               00.0000000000E+004.5222976624E+01+
*       -2.573463879E+02               0
GRID*             165632               00.0000000000E+004.5079100158E+01+
*       -2.543667542E+02               0
GRID*             165633               00.0000000000E+004.4876816371E+01+
*       -2.514591104E+02               0
GRID*             165634               00.0000000000E+004.4624221442E+01+
*       -2.486940560E+02               0
GRID*             165635               00.0000000000E+004.4536999531E+01+
*       -2.459626310E+02               0
GRID*             165636               00.0000000000E+004.4562148746E+01+
*       -2.431912195E+02               0
GRID*             165637               00.0000000000E+004.4652300277E+01+
*       -2.403679719E+02               0
GRID*             165638               00.0000000000E+004.4777319854E+01+
*       -2.374984534E+02               0
GRID*             165639               00.0000000000E+004.4918371440E+01+
*       -2.345901168E+02               0
GRID*             165640               00.0000000000E+004.2218980795E+01+
*       -2.286144999E+02               0
GRID*             165641               00.0000000000E+004.5063145151E+01+
*       -2.316494516E+02               0
GRID*             165642               00.0000000000E+004.5328440469E+01+
*       -2.256919837E+02               0
GRID*             165643               00.0000000000E+004.8466857234E+01+
*       -2.227095312E+02               0
GRID*             165644               00.0000000000E+004.8538341460E+01+
*       -2.196468065E+02               0
GRID*             165645               00.0000000000E+004.5534652588E+01+
*       -2.136307571E+02               0
GRID*             165646               00.0000000000E+004.2588012226E+01+
*       -2.107532063E+02               0
GRID*             165647               00.0000000000E+003.9721959627E+01+
*       -2.079343634E+02               0
GRID*             165648               00.0000000000E+004.8552308503E+01+
*       -2.165802708E+02               0
GRID*             165649               00.0000000000E+003.9701786805E+01+
*       -2.050215193E+02               0
GRID*             165650               00.0000000000E+003.9644120342E+01+
*       -2.021299855E+02               0
GRID*             165651               00.0000000000E+003.9540296578E+01+
*       -1.992664866E+02               0
GRID*             165652               00.0000000000E+003.9376750172E+01+
*       -1.964393944E+02               0
GRID*             165653               00.0000000000E+003.9132062747E+01+
*       -1.936566843E+02               0
GRID*             165654               00.0000000000E+003.8775947052E+01+
*       -1.909222503E+02               0
GRID*             165655               00.0000000000E+004.0882047140E+01+
*       -1.876244143E+02               0
GRID*             165656               00.0000000000E+004.2073349946E+01+
*       -1.849859003E+02               0
GRID*             165657               00.0000000000E+004.2108537016E+01+
*       -1.829099766E+02               0
GRID*             165658               00.0000000000E+004.2094466659E+01+
*       -1.804720092E+02               0
GRID*             165659               00.0000000000E+004.1990586169E+01+
*       -1.779397356E+02               0
GRID*             165660               00.0000000000E+004.4380832828E+01+
*       -1.752060087E+02               0
GRID*             165661               00.0000000000E+004.4309111086E+01+
*       -1.724049032E+02               0
GRID*             165662               00.0000000000E+004.4283144313E+01+
*       -1.695147730E+02               0
GRID*             165663               00.0000000000E+004.4294880796E+01+
*       -1.665584494E+02               0
GRID*             165664               00.0000000000E+004.4335446936E+01+
*       -1.635612223E+02               0
GRID*             165665               00.0000000000E+004.4396372009E+01+
*       -1.605380854E+02               0
GRID*             165666               00.0000000000E+004.4471966945E+01+
*       -1.574986413E+02               0
GRID*             165667               00.0000000000E+004.4559025478E+01+
*       -1.544486409E+02               0
GRID*             165668               00.0000000000E+004.4655190651E+01+
*       -1.513924070E+02               0
GRID*             165669               00.0000000000E+004.4759318446E+01+
*       -1.483328434E+02               0
GRID*             165670               00.0000000000E+004.4870647276E+01+
*       -1.452720500E+02               0
GRID*             165671               00.0000000000E+004.4988454780E+01+
*       -1.422117074E+02               0
GRID*             165672               00.0000000000E+004.5111699937E+01+
*       -1.391532693E+02               0
GRID*             165673               00.0000000000E+004.5238620066E+01+
*       -1.360980067E+02               0
GRID*             165674               00.0000000000E+004.2478478395E+01+
*       -1.299016134E+02               0
GRID*             165675               00.0000000000E+004.5366295670E+01+
*       -1.330470124E+02               0
GRID*             165676               00.0000000000E+004.5604152971E+01+
*       -1.269625898E+02               0
GRID*             165677               00.0000000000E+004.8737932339E+01+
*       -1.239721950E+02               0
GRID*             165678               00.0000000000E+004.8799245904E+01+
*       -1.209205440E+02               0
GRID*             165679               00.0000000000E+004.5824419468E+01+
*       -1.149762085E+02               0
GRID*             165680               00.0000000000E+004.2928326673E+01+
*       -1.121198852E+02               0
GRID*             165681               00.0000000000E+004.0125711013E+01+
*       -1.093041165E+02               0
GRID*             165682               00.0000000000E+004.8810315540E+01+
*       -1.178906809E+02               0
GRID*             165683               00.0000000000E+004.0173056003E+01+
*       -1.064907897E+02               0
GRID*             165684               00.0000000000E+004.0200516732E+01+
*       -1.037085698E+02               0
GRID*             165685               00.0000000000E+004.0202511512E+01+
*       -1.009535908E+02               0
GRID*             165686               00.0000000000E+004.0169929946E+01+
*       -9.821178443E+01               0
GRID*             165687               00.0000000000E+004.0089475782E+01+
*       -9.544629395E+01               0
GRID*             165688               00.0000000000E+004.6396629193E+01+
*       -8.931587497E+01               0
GRID*             165689               00.0000000000E+004.2852069383E+01+
*       -9.244828869E+01               0
GRID*             165690               00.0000000000E+004.6005248363E+01+
*       -8.589438439E+01               0
GRID*             165691               00.0000000000E+004.5768578303E+01+
*       -8.274989124E+01               0
GRID*             165692               00.0000000000E+004.5609988231E+01+
*       -7.967442829E+01               0
GRID*             165693               00.0000000000E+004.5498859782E+01+
*       -7.662438182E+01               0
GRID*             165694               00.0000000000E+004.5417824742E+01+
*       -7.359152856E+01               0
GRID*             165695               00.0000000000E+004.5355728941E+01+
*       -7.057563859E+01               0
GRID*             165696               00.0000000000E+004.5305188213E+01+
*       -6.757782243E+01               0
GRID*             165697               00.0000000000E+004.5261400080E+01+
*       -6.460050964E+01               0
GRID*             165698               00.0000000000E+004.5220854866E+01+
*       -6.164364399E+01               0
GRID*             165699               00.0000000000E+004.5181394338E+01+
*       -5.870850999E+01               0
GRID*             165700               00.0000000000E+004.5141687631E+01+
*       -5.579674087E+01               0
GRID*             165701               00.0000000000E+004.5101027678E+01+
*       -5.291027728E+01               0
GRID*             165702               00.0000000000E+004.5059145515E+01+
*       -5.004823898E+01               0
GRID*             165703               00.0000000000E+004.5016366952E+01+
*       -4.721505326E+01               0
GRID*             165704               00.0000000000E+004.4973408524E+01+
*       -4.441280363E+01               0
GRID*             165705               00.0000000000E+004.4931506779E+01+
*       -4.164325219E+01               0
GRID*             165706               00.0000000000E+004.7977033892E+01+
*       -4.164779897E+01               0
GRID*             165707               00.0000000000E+005.1018350416E+01+
*       -4.161919102E+01               0
GRID*             165708               00.0000000000E+005.1054543716E+01+
*       -4.438473315E+01               0
GRID*             165709               00.0000000000E+005.1094591944E+01+
*       -4.718440610E+01               0
GRID*             165710               00.0000000000E+005.1136233993E+01+
*       -5.001594012E+01               0
GRID*             165711               00.0000000000E+005.1177941079E+01+
*       -5.287651662E+01               0
GRID*             165712               00.0000000000E+005.1218727553E+01+
*       -5.576083895E+01               0
GRID*             165713               00.0000000000E+005.1258590089E+01+
*       -5.866886158E+01               0
GRID*             165714               00.0000000000E+005.1297766918E+01+
*       -6.159761260E+01               0
GRID*             165715               00.0000000000E+005.1337054058E+01+
*       -6.454410259E+01               0
GRID*             165716               00.0000000000E+005.1377863208E+01+
*       -6.750509686E+01               0
GRID*             165717               00.0000000000E+005.1422473958E+01+
*       -7.047754478E+01               0
GRID*             165718               00.0000000000E+005.1474015865E+01+
*       -7.345398445E+01               0
GRID*             165719               00.0000000000E+005.1537468655E+01+
*       -7.642415684E+01               0
GRID*             165720               00.0000000000E+005.1620438739E+01+
*       -7.937103248E+01               0
GRID*             165721               00.0000000000E+005.1735632038E+01+
*       -8.226811308E+01               0
GRID*             165722               00.0000000000E+005.1905342928E+01+
*       -8.507492009E+01               0
GRID*             165723               00.0000000000E+005.2162409115E+01+
*       -8.773136602E+01               0
GRID*             165724               00.0000000000E+005.4916643676E+01+
*       -8.989797114E+01               0
GRID*             165725               00.0000000000E+005.2848632603E+01+
*       -9.257066965E+01               0
GRID*             165726               00.0000000000E+005.3151730726E+01+
*       -9.504180387E+01               0
GRID*             165727               00.0000000000E+005.3432846676E+01+
*       -9.761305103E+01               0
GRID*             165728               00.0000000000E+005.3691511199E+01+
*       -1.002750336E+02               0
GRID*             165729               00.0000000000E+005.3931032859E+01+
*       -1.030127619E+02               0
GRID*             165730               00.0000000000E+005.4156879932E+01+
*       -1.058150633E+02               0
GRID*             165731               00.0000000000E+005.4374055429E+01+
*       -1.086768775E+02               0
GRID*             165732               00.0000000000E+005.4584905283E+01+
*       -1.116004116E+02               0
GRID*             165733               00.0000000000E+005.4785352275E+01+
*       -1.145957991E+02               0
GRID*             165734               00.0000000000E+005.1851102077E+01+
*       -1.178108780E+02               0
GRID*             165735               00.0000000000E+005.1814482735E+01+
*       -1.240034702E+02               0
GRID*             165736               00.0000000000E+005.4783050240E+01+
*       -1.271952253E+02               0
GRID*             165737               00.0000000000E+005.4592478949E+01+
*       -1.303085261E+02               0
GRID*             165738               00.0000000000E+005.4401521929E+01+
*       -1.333949476E+02               0
GRID*             165739               00.0000000000E+005.4217811791E+01+
*       -1.364663842E+02               0
GRID*             165740               00.0000000000E+005.4043528363E+01+
*       -1.395302850E+02               0
GRID*             165741               00.0000000000E+005.3878772009E+01+
*       -1.425906678E+02               0
GRID*             165742               00.0000000000E+005.3722763239E+01+
*       -1.456492960E+02               0
GRID*             165743               00.0000000000E+005.3574260149E+01+
*       -1.487064483E+02               0
GRID*             165744               00.0000000000E+005.3431674946E+01+
*       -1.517612703E+02               0
GRID*             165745               00.0000000000E+005.3293023493E+01+
*       -1.548117703E+02               0
GRID*             165746               00.0000000000E+005.3155721606E+01+
*       -1.578545094E+02               0
GRID*             165747               00.0000000000E+005.3015806349E+01+
*       -1.608837123E+02               0
GRID*             165748               00.0000000000E+005.2868898285E+01+
*       -1.638918775E+02               0
GRID*             165749               00.0000000000E+005.2709584037E+01+
*       -1.668653441E+02               0
GRID*             165750               00.0000000000E+005.2532870919E+01+
*       -1.697821895E+02               0
GRID*             165751               00.0000000000E+005.2337755018E+01+
*       -1.726086446E+02               0
GRID*             165752               00.0000000000E+005.2145542202E+01+
*       -1.753083317E+02               0
GRID*             165753               00.0000000000E+005.4290769036E+01+
*       -1.778626217E+02               0
GRID*             165754               00.0000000000E+005.2163846507E+01+
*       -1.804503400E+02               0
GRID*             165755               00.0000000000E+005.2371293664E+01+
*       -1.831695343E+02               0
GRID*             165756               00.0000000000E+005.2591334218E+01+
*       -1.860331451E+02               0
GRID*             165757               00.0000000000E+005.2829826940E+01+
*       -1.889877361E+02               0
GRID*             165758               00.0000000000E+005.3078223826E+01+
*       -1.919830185E+02               0
GRID*             165759               00.0000000000E+005.3324962735E+01+
*       -1.949921131E+02               0
GRID*             165760               00.0000000000E+005.3562708138E+01+
*       -1.980051119E+02               0
GRID*             165761               00.0000000000E+005.3788854704E+01+
*       -2.010208822E+02               0
GRID*             165762               00.0000000000E+005.4004140344E+01+
*       -2.040429709E+02               0
GRID*             165763               00.0000000000E+005.4210772798E+01+
*       -2.070784822E+02               0
GRID*             165764               00.0000000000E+005.4409788097E+01+
*       -2.101384950E+02               0
GRID*             165765               00.0000000000E+005.4596358982E+01+
*       -2.132387864E+02               0
GRID*             165766               00.0000000000E+005.1616564089E+01+
*       -2.165020154E+02               0
GRID*             165767               00.0000000000E+005.1547865171E+01+
*       -2.227518990E+02               0
GRID*             165768               00.0000000000E+005.4492506707E+01+
*       -2.259698994E+02               0
GRID*             165769               00.0000000000E+005.4257708797E+01+
*       -2.290479949E+02               0
GRID*             165770               00.0000000000E+005.4011752149E+01+
*       -2.320761274E+02               0
GRID*             165771               00.0000000000E+005.3758641670E+01+
*       -2.350668910E+02               0
GRID*             165772               00.0000000000E+005.3494992713E+01+
*       -2.380288334E+02               0
GRID*             165773               00.0000000000E+005.3209267770E+01+
*       -2.409694347E+02               0
GRID*             165774               00.0000000000E+005.2869519297E+01+
*       -2.439025928E+02               0
GRID*             165775               00.0000000000E+005.2374948357E+01+
*       -2.468807830E+02               0
GRID*             165776               00.0000000000E+005.1280429219E+01+
*       -2.501872932E+02               0
GRID*             165777               00.0000000000E+005.1426687281E+01+
*       -2.537836991E+02               0
GRID*             165778               00.0000000000E+005.1502423656E+01+
*       -2.570213002E+02               0
GRID*             165779               00.0000000000E+005.1553073255E+01+
*       -2.601406971E+02               0
GRID*             165780               00.0000000000E+005.1592514170E+01+
*       -2.632021229E+02               0
GRID*             165781               00.0000000000E+005.1626261115E+01+
*       -2.662244429E+02               0
GRID*             165782               00.0000000000E+005.1657033750E+01+
*       -2.692145398E+02               0
GRID*             165783               00.0000000000E+005.1686567805E+01+
*       -2.721753632E+02               0
GRID*             165784               00.0000000000E+005.1716182464E+01+
*       -2.751082659E+02               0
GRID*             165785               00.0000000000E+005.1747275026E+01+
*       -2.780108392E+02               0
GRID*             165786               00.0000000000E+005.1780289615E+01+
*       -2.808840933E+02               0
GRID*             165787               00.0000000000E+005.1815606046E+01+
*       -2.837259527E+02               0
GRID*             165788               00.0000000000E+005.1853278070E+01+
*       -2.865334893E+02               0
GRID*             165789               00.0000000000E+005.1892979990E+01+
*       -2.893030813E+02               0
GRID*             165790               00.0000000000E+005.1934038721E+01+
*       -2.920375806E+02               0
GRID*             165791               00.0000000000E+005.1975664916E+01+
*       -2.947280368E+02               0
GRID*             165792               00.0000000000E+005.2016370726E+01+
*       -2.973703456E+02               0
GRID*             165793               00.0000000000E+005.2054173518E+01+
*       -2.999606473E+02               0
GRID*             165794               00.0000000000E+004.9034314406E+01+
*       -2.999705581E+02               0
GRID*             165795               00.0000000000E+004.8993052307E+01+
*       -2.973828500E+02               0
GRID*             165796               00.0000000000E+004.8948397330E+01+
*       -2.947420675E+02               0
GRID*             165797               00.0000000000E+004.8902656397E+01+
*       -2.920523174E+02               0
GRID*             165798               00.0000000000E+004.8857489749E+01+
*       -2.893180366E+02               0
GRID*             165799               00.0000000000E+004.8813744000E+01+
*       -2.865485389E+02               0
GRID*             165800               00.0000000000E+004.8771924167E+01+
*       -2.837412443E+02               0
GRID*             165801               00.0000000000E+004.8732209115E+01+
*       -2.809000448E+02               0
GRID*             165802               00.0000000000E+004.8694307176E+01+
*       -2.780281579E+02               0
GRID*             165803               00.0000000000E+004.8657499268E+01+
*       -2.751279971E+02               0
GRID*             165804               00.0000000000E+004.8620805623E+01+
*       -2.721990684E+02               0
GRID*             165805               00.0000000000E+004.8582184281E+01+
*       -2.692446322E+02               0
GRID*             165806               00.0000000000E+004.8539170495E+01+
*       -2.662647891E+02               0
GRID*             165807               00.0000000000E+004.8487994763E+01+
*       -2.632595133E+02               0
GRID*             165808               00.0000000000E+004.8422076176E+01+
*       -2.602289341E+02               0
GRID*             165809               00.0000000000E+004.8328088244E+01+
*       -2.571748850E+02               0
GRID*             165810               00.0000000000E+004.8175764235E+01+
*       -2.541111016E+02               0
GRID*             165811               00.0000000000E+004.7893385424E+01+
*       -2.511157042E+02               0
GRID*             165812               00.0000000000E+004.7315837804E+01+
*       -2.485621709E+02               0
GRID*             165813               00.0000000000E+004.7258192225E+01+
*       -2.459970706E+02               0
GRID*             165814               00.0000000000E+004.7351388565E+01+
*       -2.432949957E+02               0
GRID*             165815               00.0000000000E+004.7502201985E+01+
*       -2.404929517E+02               0
GRID*             165816               00.0000000000E+004.7675576630E+01+
*       -2.376252729E+02               0
GRID*             165817               00.0000000000E+004.7855702015E+01+
*       -2.347104191E+02               0
GRID*             165818               00.0000000000E+004.5202619716E+01+
*       -2.286818876E+02               0
GRID*             165819               00.0000000000E+004.8033256819E+01+
*       -2.317574115E+02               0
GRID*             165820               00.0000000000E+004.8349183476E+01+
*       -2.257537602E+02               0
GRID*             165821               00.0000000000E+004.8515001864E+01+
*       -2.135249266E+02               0
GRID*             165822               00.0000000000E+004.5496611669E+01+
*       -2.106290844E+02               0
GRID*             165823               00.0000000000E+004.2557251446E+01+
*       -2.077966460E+02               0
GRID*             165824               00.0000000000E+004.2494184236E+01+
*       -2.048553808E+02               0
GRID*             165825               00.0000000000E+004.2394373829E+01+
*       -2.019310616E+02               0
GRID*             165826               00.0000000000E+004.2250987399E+01+
*       -1.990247903E+02               0
GRID*             165827               00.0000000000E+004.2053201664E+01+
*       -1.961367584E+02               0
GRID*             165828               00.0000000000E+004.1783244836E+01+
*       -1.932651434E+02               0
GRID*             165829               00.0000000000E+004.1411285144E+01+
*       -1.904113624E+02               0
GRID*             165830               00.0000000000E+004.3730985768E+01+
*       -1.864669390E+02               0
GRID*             165831               00.0000000000E+004.4374508602E+01+
*       -1.833075810E+02               0
GRID*             165832               00.0000000000E+004.4500180237E+01+
*       -1.805691170E+02               0
GRID*             165833               00.0000000000E+004.4474307208E+01+
*       -1.779040628E+02               0
GRID*             165834               00.0000000000E+004.7001906105E+01+
*       -1.751822531E+02               0
GRID*             165835               00.0000000000E+004.7012138818E+01+
*       -1.724023237E+02               0
GRID*             165836               00.0000000000E+004.7050821079E+01+
*       -1.695431682E+02               0
GRID*             165837               00.0000000000E+004.7111295452E+01+
*       -1.666160702E+02               0
GRID*             165838               00.0000000000E+004.7187705555E+01+
*       -1.636407340E+02               0
GRID*             165839               00.0000000000E+004.7275392263E+01+
*       -1.606327957E+02               0
GRID*             165840               00.0000000000E+004.7371630009E+01+
*       -1.576037089E+02               0
GRID*             165841               00.0000000000E+004.7475344085E+01+
*       -1.545607074E+02               0
GRID*             165842               00.0000000000E+004.7585921267E+01+
*       -1.515094681E+02               0
GRID*             165843               00.0000000000E+004.7703190222E+01+
*       -1.484535346E+02               0
GRID*             165844               00.0000000000E+004.7827066944E+01+
*       -1.453952058E+02               0
GRID*             165845               00.0000000000E+004.7957327541E+01+
*       -1.423359403E+02               0
GRID*             165846               00.0000000000E+004.8093309323E+01+
*       -1.392765453E+02               0
GRID*             165847               00.0000000000E+004.8233491097E+01+
*       -1.362172002E+02               0
GRID*             165848               00.0000000000E+004.5490238634E+01+
*       -1.300013520E+02               0
GRID*             165849               00.0000000000E+004.8374905762E+01+
*       -1.331574588E+02               0
GRID*             165850               00.0000000000E+004.8637310994E+01+
*       -1.270340100E+02               0
GRID*             165851               00.0000000000E+004.8778557324E+01+
*       -1.149004163E+02               0
GRID*             165852               00.0000000000E+004.5812360414E+01+
*       -1.120579978E+02               0
GRID*             165853               00.0000000000E+004.2945396354E+01+
*       -1.092589190E+02               0
GRID*             165854               00.0000000000E+004.2946993655E+01+
*       -1.064328223E+02               0
GRID*             165855               00.0000000000E+004.2933771837E+01+
*       -1.036396210E+02               0
GRID*             165856               00.0000000000E+004.2907149950E+01+
*       -1.008727863E+02               0
GRID*             165857               00.0000000000E+004.2871757280E+01+
*       -9.811594192E+01               0
GRID*             165858               00.0000000000E+004.2841790179E+01+
*       -9.533223936E+01               0
GRID*             165859               00.0000000000E+004.9455975590E+01+
*       -8.820078976E+01               0
GRID*             165860               00.0000000000E+004.5685840950E+01+
*       -9.250943296E+01               0
GRID*             165861               00.0000000000E+004.8104690750E+01+
*       -9.080920319E+01               0
GRID*             165862               00.0000000000E+004.9048363420E+01+
*       -8.541222507E+01               0
GRID*             165863               00.0000000000E+004.8801960273E+01+
*       -8.248855304E+01               0
GRID*             165864               00.0000000000E+004.8643240651E+01+
*       -7.951625857E+01               0
GRID*             165865               00.0000000000E+004.8534429965E+01+
*       -7.652351196E+01               0
GRID*             165866               00.0000000000E+004.8455491675E+01+
*       -7.352530254E+01               0
GRID*             165867               00.0000000000E+004.8394650329E+01+
*       -7.053137141E+01               0
GRID*             165868               00.0000000000E+004.8344554309E+01+
*       -6.754781719E+01               0
GRID*             165869               00.0000000000E+004.8300658434E+01+
*       -6.457990371E+01               0
GRID*             165870               00.0000000000E+004.8259726982E+01+
*       -6.162933357E+01               0
GRID*             165871               00.0000000000E+004.8219789520E+01+
*       -5.869848907E+01               0
GRID*             165872               00.0000000000E+004.8179689691E+01+
*       -5.578974995E+01               0
GRID*             165873               00.0000000000E+004.8138920123E+01+
*       -5.290558794E+01               0
GRID*             165874               00.0000000000E+004.8097340636E+01+
*       -5.004557585E+01               0
GRID*             165875               00.0000000000E+004.8055638105E+01+
*       -4.721447996E+01               0
GRID*             165876               00.0000000000E+004.8014953347E+01+
*       -4.441460864E+01               0
GRID*             165877               00.0000000000E+005.2522465399E+01+
*       -9.017352391E+01               0
GRID*             165878               00.0000000000E+005.0428531119E+01+
*       -9.280488024E+01               0
GRID*             165879               00.0000000000E+005.0634276145E+01+
*       -9.526590011E+01               0
GRID*             165880               00.0000000000E+005.0823327282E+01+
*       -9.784399020E+01               0
GRID*             165881               00.0000000000E+005.1004566474E+01+
*       -1.005100261E+02               0
GRID*             165882               00.0000000000E+005.1177644587E+01+
*       -1.032463113E+02               0
GRID*             165883               00.0000000000E+005.1342106330E+01+
*       -1.060434103E+02               0
GRID*             165884               00.0000000000E+005.1497334034E+01+
*       -1.088972798E+02               0
GRID*             165885               00.0000000000E+005.1640529108E+01+
*       -1.118080609E+02               0
GRID*             165886               00.0000000000E+005.1763948589E+01+
*       -1.147787110E+02               0
GRID*             165887               00.0000000000E+005.1695301712E+01+
*       -1.271066395E+02               0
GRID*             165888               00.0000000000E+005.1546852785E+01+
*       -1.301952646E+02               0
GRID*             165889               00.0000000000E+005.1387609564E+01+
*       -1.332711407E+02               0
GRID*             165890               00.0000000000E+005.1227435997E+01+
*       -1.363386370E+02               0
GRID*             165891               00.0000000000E+005.1071216091E+01+
*       -1.394014538E+02               0
GRID*             165892               00.0000000000E+005.0921124201E+01+
*       -1.424618512E+02               0
GRID*             165893               00.0000000000E+005.0777860495E+01+
*       -1.455207464E+02               0
GRID*             165894               00.0000000000E+005.0641307653E+01+
*       -1.485779602E+02               0
GRID*             165895               00.0000000000E+005.0510881866E+01+
*       -1.516323313E+02               0
GRID*             165896               00.0000000000E+005.0385700834E+01+
*       -1.546815957E+02               0
GRID*             165897               00.0000000000E+005.0264626923E+01+
*       -1.577220073E+02               0
GRID*             165898               00.0000000000E+005.0146082151E+01+
*       -1.607473392E+02               0
GRID*             165899               00.0000000000E+005.0028643725E+01+
*       -1.637497454E+02               0
GRID*             165900               00.0000000000E+004.9911570553E+01+
*       -1.667163358E+02               0
GRID*             165901               00.0000000000E+004.9795997195E+01+
*       -1.696291723E+02               0
GRID*             165902               00.0000000000E+004.9686657433E+01+
*       -1.724658971E+02               0
GRID*             165903               00.0000000000E+004.9598903346E+01+
*       -1.752133118E+02               0
GRID*             165904               00.0000000000E+005.2032348453E+01+
*       -1.778771281E+02               0
GRID*             165905               00.0000000000E+004.9613896508E+01+
*       -1.805693927E+02               0
GRID*             165906               00.0000000000E+004.9695154231E+01+
*       -1.833446322E+02               0
GRID*             165907               00.0000000000E+004.9792047230E+01+
*       -1.862534480E+02               0
GRID*             165908               00.0000000000E+004.9985953991E+01+
*       -1.892476696E+02               0
GRID*             165909               00.0000000000E+005.0220279391E+01+
*       -1.922543793E+02               0
GRID*             165910               00.0000000000E+005.0460367560E+01+
*       -1.952575198E+02               0
GRID*             165911               00.0000000000E+005.0688367345E+01+
*       -1.982570542E+02               0
GRID*             165912               00.0000000000E+005.0898033319E+01+
*       -2.012576783E+02               0
GRID*             165913               00.0000000000E+005.1088301801E+01+
*       -2.042651648E+02               0
GRID*             165914               00.0000000000E+005.1259578609E+01+
*       -2.072861112E+02               0
GRID*             165915               00.0000000000E+005.1410611404E+01+
*       -2.103280621E+02               0
GRID*             165916               00.0000000000E+005.1534918330E+01+
*       -2.133986682E+02               0
GRID*             165917               00.0000000000E+005.1401741383E+01+
*       -2.258416039E+02               0
GRID*             165918               00.0000000000E+005.1218511692E+01+
*       -2.288898307E+02               0
GRID*             165919               00.0000000000E+005.1015262827E+01+
*       -2.318983150E+02               0
GRID*             165920               00.0000000000E+005.0800003816E+01+
*       -2.348695234E+02               0
GRID*             165921               00.0000000000E+005.0575802513E+01+
*       -2.378031803E+02               0
GRID*             165922               00.0000000000E+005.0342451559E+01+
*       -2.406925089E+02               0
GRID*             165923               00.0000000000E+005.0096352373E+01+
*       -2.435122227E+02               0
GRID*             165924               00.0000000000E+004.9834433286E+01+
*       -2.461761298E+02               0
GRID*             165925               00.0000000000E+004.9574825490E+01+
*       -2.484099166E+02               0
GRID*             165926               00.0000000000E+004.8200692224E+01+
*       -2.287708981E+02               0
GRID*             165927               00.0000000000E+004.8437804834E+01+
*       -2.104888960E+02               0
GRID*             165928               00.0000000000E+004.5426857831E+01+
*       -2.076427225E+02               0
GRID*             165929               00.0000000000E+004.5325779292E+01+
*       -2.046717877E+02               0
GRID*             165930               00.0000000000E+004.5191413075E+01+
*       -2.017146639E+02               0
GRID*             165931               00.0000000000E+004.5019770356E+01+
*       -1.987678582E+02               0
GRID*             165932               00.0000000000E+004.4804840871E+01+
*       -1.958238942E+02               0
GRID*             165933               00.0000000000E+004.4537350675E+01+
*       -1.928633001E+02               0
GRID*             165934               00.0000000000E+004.4199251804E+01+
*       -1.898252951E+02               0
GRID*             165935               00.0000000000E+004.6904939182E+01+
*       -1.864014229E+02               0
GRID*             165936               00.0000000000E+004.7003039997E+01+
*       -1.834046557E+02               0
GRID*             165937               00.0000000000E+004.7033334721E+01+
*       -1.806059932E+02               0
GRID*             165938               00.0000000000E+004.7017593005E+01+
*       -1.778958674E+02               0
GRID*             165939               00.0000000000E+004.8512333650E+01+
*       -1.300964944E+02               0
GRID*             165940               00.0000000000E+004.8715926986E+01+
*       -1.119569227E+02               0
GRID*             165941               00.0000000000E+004.5781565086E+01+
*       -1.091803727E+02               0
GRID*             165942               00.0000000000E+004.5736169856E+01+
*       -1.063438229E+02               0
GRID*             165943               00.0000000000E+004.5679913672E+01+
*       -1.035469468E+02               0
GRID*             165944               00.0000000000E+004.5618441178E+01+
*       -1.007855883E+02               0
GRID*             165945               00.0000000000E+004.5564608508E+01+
*       -9.804986775E+01               0
GRID*             165946               00.0000000000E+004.5552682611E+01+
*       -9.531538582E+01               0
GRID*             165947               00.0000000000E+005.0148349960E+01+
*       -9.048817912E+01               0
GRID*             165948               00.0000000000E+004.8075093230E+01+
*       -9.289145168E+01               0
GRID*             165949               00.0000000000E+004.8120254074E+01+
*       -9.536623166E+01               0
GRID*             165950               00.0000000000E+004.8209025612E+01+
*       -9.798401339E+01               0
GRID*             165951               00.0000000000E+004.8317089130E+01+
*       -1.006749020E+02               0
GRID*             165952               00.0000000000E+004.8428540453E+01+
*       -1.034208633E+02               0
GRID*             165953               00.0000000000E+004.8535227560E+01+
*       -1.062171291E+02               0
GRID*             165954               00.0000000000E+004.8632548097E+01+
*       -1.090624892E+02               0
GRID*             165955               00.0000000000E+004.9563921660E+01+
*       -1.778889172E+02               0
GRID*             165956               00.0000000000E+004.7108938622E+01+
*       -1.895008311E+02               0
GRID*             165957               00.0000000000E+004.7367362055E+01+
*       -1.925362293E+02               0
GRID*             165958               00.0000000000E+004.7615288065E+01+
*       -1.955310231E+02               0
GRID*             165959               00.0000000000E+004.7836811195E+01+
*       -1.985105564E+02               0
GRID*             165960               00.0000000000E+004.8028997163E+01+
*       -2.014890087E+02               0
GRID*             165961               00.0000000000E+004.8192649995E+01+
*       -2.044745980E+02               0
GRID*             165962               00.0000000000E+004.8329053458E+01+
*       -2.074730621E+02               0
GRID*             165963               00.0000000000E+001.6599999428E+01+
*       -1.889999890E+01               0
GRID*             165964               00.0000000000E+001.8100002289E+01+
*       -1.889999890E+01               0
GRID*             165965               00.0000000000E+001.7350000858E+01+
*       -1.814999819E+01               0
GRID*             165966               00.0000000000E+001.5099996567E+01+
*       -1.889999890E+01               0
GRID*             165967               00.0000000000E+001.5849997997E+01+
*       -1.814999819E+01               0
GRID*             165968               00.0000000000E+001.3599995136E+01+
*       -1.889999890E+01               0
GRID*             165969               00.0000000000E+001.4349995852E+01+
*       -1.964999962E+01               0
GRID*             165970               00.0000000000E+001.4349995852E+01+
*       -1.814999819E+01               0
GRID*             165971               00.0000000000E+001.4349996209E+01+
*       -2.114999962E+01               0
GRID*             165972               00.0000000000E+001.3599995494E+01+
*       -2.039999962E+01               0
GRID*             165973               00.0000000000E+001.4349996567E+01+
*       -2.264999962E+01               0
GRID*             165974               00.0000000000E+001.3599996209E+01+
*       -2.189999962E+01               0
GRID*             165975               00.0000000000E+001.4349996209E+01+
*       -2.414999962E+01               0
GRID*             165976               00.0000000000E+001.3599996209E+01+
*       -2.339999962E+01               0
GRID*             165977               00.0000000000E+001.4349995852E+01+
*       -2.564999962E+01               0
GRID*             165978               00.0000000000E+001.3599995494E+01+
*       -2.489999962E+01               0
GRID*             165979               00.0000000000E+001.4349995852E+01+
*       -2.715000105E+01               0
GRID*             165980               00.0000000000E+001.5099996567E+01+
*       -2.640000033E+01               0
GRID*             165981               00.0000000000E+001.3599995136E+01+
*       -2.640000033E+01               0
GRID*             165982               00.0000000000E+001.6599999428E+01+
*       -2.640000033E+01               0
GRID*             165983               00.0000000000E+001.5849997997E+01+
*       -2.715000105E+01               0
GRID*             165984               00.0000000000E+001.8100002289E+01+
*       -2.640000033E+01               0
GRID*             165985               00.0000000000E+001.7350000858E+01+
*       -2.715000105E+01               0
GRID*             165986               00.0000000000E+001.9600002289E+01+
*       -2.639999998E+01               0
GRID*             165987               00.0000000000E+001.8850002289E+01+
*       -2.715000069E+01               0
GRID*             165988               00.0000000000E+002.1100002289E+01+
*       -2.639999962E+01               0
GRID*             165989               00.0000000000E+002.0350002289E+01+
*       -2.714999998E+01               0
GRID*             165990               00.0000000000E+002.2600002289E+01+
*       -2.639999962E+01               0
GRID*             165991               00.0000000000E+002.1850002289E+01+
*       -2.564999962E+01               0
GRID*             165992               00.0000000000E+002.1850002289E+01+
*       -2.714999962E+01               0
GRID*             165993               00.0000000000E+002.1850002289E+01+
*       -2.414999962E+01               0
GRID*             165994               00.0000000000E+002.2600002289E+01+
*       -2.489999962E+01               0
GRID*             165995               00.0000000000E+002.1850002289E+01+
*       -2.264999962E+01               0
GRID*             165996               00.0000000000E+002.2600002289E+01+
*       -2.339999962E+01               0
GRID*             165997               00.0000000000E+002.1850002289E+01+
*       -2.114999962E+01               0
GRID*             165998               00.0000000000E+002.2600002289E+01+
*       -2.189999962E+01               0
GRID*             165999               00.0000000000E+002.1850002289E+01+
*       -1.964999962E+01               0
GRID*             166000               00.0000000000E+002.2600002289E+01+
*       -2.039999962E+01               0
GRID*             166001               00.0000000000E+002.1850002289E+01+
*       -1.814999962E+01               0
GRID*             166002               00.0000000000E+002.1100002289E+01+
*       -1.889999962E+01               0
GRID*             166003               00.0000000000E+002.2600002289E+01+
*       -1.889999962E+01               0
GRID*             166004               00.0000000000E+001.9600002289E+01+
*       -1.889999926E+01               0
GRID*             166005               00.0000000000E+002.0350002289E+01+
*       -1.814999926E+01               0
GRID*             166006               00.0000000000E+001.8850002289E+01+
*       -1.814999855E+01               0
GRID*             166007               00.0000000000E+001.4349995852E+01+
*       -3.230000000E+02               0
GRID*             166008               00.0000000000E+001.4349996209E+01+
*       -3.215000000E+02               0
GRID*             166009               00.0000000000E+001.3599995494E+01+
*       -3.222500000E+02               0
GRID*             166010               00.0000000000E+001.4349995852E+01+
*       -3.245000014E+02               0
GRID*             166011               00.0000000000E+001.5099996567E+01+
*       -3.237500007E+02               0
GRID*             166012               00.0000000000E+001.3599995136E+01+
*       -3.237500007E+02               0
GRID*             166013               00.0000000000E+001.6599999428E+01+
*       -3.237500007E+02               0
GRID*             166014               00.0000000000E+001.5849997997E+01+
*       -3.245000014E+02               0
GRID*             166015               00.0000000000E+001.8100002289E+01+
*       -3.237500007E+02               0
GRID*             166016               00.0000000000E+001.7350000858E+01+
*       -3.245000014E+02               0
GRID*             166017               00.0000000000E+001.9600002289E+01+
*       -3.237500004E+02               0
GRID*             166018               00.0000000000E+001.8850002289E+01+
*       -3.245000011E+02               0
GRID*             166019               00.0000000000E+002.1100002289E+01+
*       -3.237500000E+02               0
GRID*             166020               00.0000000000E+002.0350002289E+01+
*       -3.245000004E+02               0
GRID*             166021               00.0000000000E+002.2600002289E+01+
*       -3.237500000E+02               0
GRID*             166022               00.0000000000E+002.1850002289E+01+
*       -3.230000000E+02               0
GRID*             166023               00.0000000000E+002.1850002289E+01+
*       -3.245000000E+02               0
GRID*             166024               00.0000000000E+002.1850002289E+01+
*       -3.215000000E+02               0
GRID*             166025               00.0000000000E+002.2600002289E+01+
*       -3.222500000E+02               0
GRID*             166026               00.0000000000E+002.1850002289E+01+
*       -3.200000000E+02               0
GRID*             166027               00.0000000000E+002.2600002289E+01+
*       -3.207500000E+02               0
GRID*             166028               00.0000000000E+002.1850002289E+01+
*       -3.185000000E+02               0
GRID*             166029               00.0000000000E+002.2600002289E+01+
*       -3.192500000E+02               0
GRID*             166030               00.0000000000E+002.1850002289E+01+
*       -3.170000000E+02               0
GRID*             166031               00.0000000000E+002.2600002289E+01+
*       -3.177500000E+02               0
GRID*             166032               00.0000000000E+002.1850002289E+01+
*       -3.155000000E+02               0
GRID*             166033               00.0000000000E+002.1100002289E+01+
*       -3.162500000E+02               0
GRID*             166034               00.0000000000E+002.2600002289E+01+
*       -3.162500000E+02               0
GRID*             166035               00.0000000000E+001.9600002289E+01+
*       -3.162499996E+02               0
GRID*             166036               00.0000000000E+002.0350002289E+01+
*       -3.154999996E+02               0
GRID*             166037               00.0000000000E+001.8100002289E+01+
*       -3.162499993E+02               0
GRID*             166038               00.0000000000E+001.8850002289E+01+
*       -3.154999989E+02               0
GRID*             166039               00.0000000000E+001.6599999428E+01+
*       -3.162499993E+02               0
GRID*             166040               00.0000000000E+001.7350000858E+01+
*       -3.154999986E+02               0
GRID*             166041               00.0000000000E+001.5099996567E+01+
*       -3.162499993E+02               0
GRID*             166042               00.0000000000E+001.5849997997E+01+
*       -3.154999986E+02               0
GRID*             166043               00.0000000000E+001.3599995136E+01+
*       -3.162499993E+02               0
GRID*             166044               00.0000000000E+001.4349995852E+01+
*       -3.170000000E+02               0
GRID*             166045               00.0000000000E+001.4349995852E+01+
*       -3.154999986E+02               0
GRID*             166046               00.0000000000E+001.4349996209E+01+
*       -3.185000000E+02               0
GRID*             166047               00.0000000000E+001.3599995494E+01+
*       -3.177500000E+02               0
GRID*             166048               00.0000000000E+001.4349996567E+01+
*       -3.200000000E+02               0
GRID*             166049               00.0000000000E+001.3599996209E+01+
*       -3.192500000E+02               0
GRID*             166050               00.0000000000E+001.3599996209E+01+
*       -3.207500000E+02               0
GRID*             166051               00.0000000000E+008.5650001526E+01+
*       -3.185000000E+02               0
GRID*             166052               00.0000000000E+008.5650001526E+01+
*       -3.200000000E+02               0
GRID*             166053               00.0000000000E+008.6400001526E+01+
*       -3.192500000E+02               0
GRID*             166054               00.0000000000E+008.5650001526E+01+
*       -3.170000000E+02               0
GRID*             166055               00.0000000000E+008.6400001526E+01+
*       -3.177500000E+02               0
GRID*             166056               00.0000000000E+008.5650001526E+01+
*       -3.155000000E+02               0
GRID*             166057               00.0000000000E+008.4900001526E+01+
*       -3.162500000E+02               0
GRID*             166058               00.0000000000E+008.6400001526E+01+
*       -3.162500000E+02               0
GRID*             166059               00.0000000000E+008.3400001526E+01+
*       -3.162500000E+02               0
GRID*             166060               00.0000000000E+008.4150001526E+01+
*       -3.155000000E+02               0
GRID*             166061               00.0000000000E+008.1900001526E+01+
*       -3.162500000E+02               0
GRID*             166062               00.0000000000E+008.2650001526E+01+
*       -3.155000000E+02               0
GRID*             166063               00.0000000000E+008.0400001526E+01+
*       -3.162500000E+02               0
GRID*             166064               00.0000000000E+008.1150001526E+01+
*       -3.155000000E+02               0
GRID*             166065               00.0000000000E+007.8900001526E+01+
*       -3.162500000E+02               0
GRID*             166066               00.0000000000E+007.9650001526E+01+
*       -3.155000000E+02               0
GRID*             166067               00.0000000000E+007.7400001526E+01+
*       -3.162500000E+02               0
GRID*             166068               00.0000000000E+007.8150001526E+01+
*       -3.170000000E+02               0
GRID*             166069               00.0000000000E+007.8150001526E+01+
*       -3.155000000E+02               0
GRID*             166070               00.0000000000E+007.8150001526E+01+
*       -3.185000000E+02               0
GRID*             166071               00.0000000000E+007.7400001526E+01+
*       -3.177500000E+02               0
GRID*             166072               00.0000000000E+007.8150001526E+01+
*       -3.200000000E+02               0
GRID*             166073               00.0000000000E+007.7400001526E+01+
*       -3.192500000E+02               0
GRID*             166074               00.0000000000E+007.8150001526E+01+
*       -3.215000000E+02               0
GRID*             166075               00.0000000000E+007.7400001526E+01+
*       -3.207500000E+02               0
GRID*             166076               00.0000000000E+007.8150001526E+01+
*       -3.230000000E+02               0
GRID*             166077               00.0000000000E+007.7400001526E+01+
*       -3.222500000E+02               0
GRID*             166078               00.0000000000E+007.8150001526E+01+
*       -3.245000000E+02               0
GRID*             166079               00.0000000000E+007.8900001526E+01+
*       -3.237500000E+02               0
GRID*             166080               00.0000000000E+007.7400001526E+01+
*       -3.237500000E+02               0
GRID*             166081               00.0000000000E+008.0400001526E+01+
*       -3.237500000E+02               0
GRID*             166082               00.0000000000E+007.9650001526E+01+
*       -3.245000000E+02               0
GRID*             166083               00.0000000000E+008.1900001526E+01+
*       -3.237500000E+02               0
GRID*             166084               00.0000000000E+008.1150001526E+01+
*       -3.245000000E+02               0
GRID*             166085               00.0000000000E+008.3400001526E+01+
*       -3.237500000E+02               0
GRID*             166086               00.0000000000E+008.2650001526E+01+
*       -3.245000000E+02               0
GRID*             166087               00.0000000000E+008.4900001526E+01+
*       -3.237500000E+02               0
GRID*             166088               00.0000000000E+008.4150001526E+01+
*       -3.245000000E+02               0
GRID*             166089               00.0000000000E+008.6400001526E+01+
*       -3.237500000E+02               0
GRID*             166090               00.0000000000E+008.5650001526E+01+
*       -3.230000000E+02               0
GRID*             166091               00.0000000000E+008.5650001526E+01+
*       -3.245000000E+02               0
GRID*             166092               00.0000000000E+008.5650001526E+01+
*       -3.215000000E+02               0
GRID*             166093               00.0000000000E+008.6400001526E+01+
*       -3.222500000E+02               0
GRID*             166094               00.0000000000E+008.6400001526E+01+
*       -3.207500000E+02               0
GRID*             166095               00.0000000000E+008.5650001526E+01+
*       -1.964999962E+01               0
GRID*             166096               00.0000000000E+008.5650001526E+01+
*       -2.114999962E+01               0
GRID*             166097               00.0000000000E+008.6400001526E+01+
*       -2.039999962E+01               0
GRID*             166098               00.0000000000E+008.5650001526E+01+
*       -1.814999962E+01               0
GRID*             166099               00.0000000000E+008.4900001526E+01+
*       -1.889999962E+01               0
GRID*             166100               00.0000000000E+008.6400001526E+01+
*       -1.889999962E+01               0
GRID*             166101               00.0000000000E+008.3400001526E+01+
*       -1.889999962E+01               0
GRID*             166102               00.0000000000E+008.4150001526E+01+
*       -1.814999962E+01               0
GRID*             166103               00.0000000000E+008.1900001526E+01+
*       -1.889999962E+01               0
GRID*             166104               00.0000000000E+008.2650001526E+01+
*       -1.814999962E+01               0
GRID*             166105               00.0000000000E+008.0400001526E+01+
*       -1.889999962E+01               0
GRID*             166106               00.0000000000E+008.1150001526E+01+
*       -1.814999962E+01               0
GRID*             166107               00.0000000000E+007.8900001526E+01+
*       -1.889999962E+01               0
GRID*             166108               00.0000000000E+007.9650001526E+01+
*       -1.814999962E+01               0
GRID*             166109               00.0000000000E+007.7400001526E+01+
*       -1.889999962E+01               0
GRID*             166110               00.0000000000E+007.8150001526E+01+
*       -1.964999962E+01               0
GRID*             166111               00.0000000000E+007.8150001526E+01+
*       -1.814999962E+01               0
GRID*             166112               00.0000000000E+007.8150001526E+01+
*       -2.114999962E+01               0
GRID*             166113               00.0000000000E+007.7400001526E+01+
*       -2.039999962E+01               0
GRID*             166114               00.0000000000E+007.8150001526E+01+
*       -2.264999962E+01               0
GRID*             166115               00.0000000000E+007.7400001526E+01+
*       -2.189999962E+01               0
GRID*             166116               00.0000000000E+007.8150001526E+01+
*       -2.414999962E+01               0
GRID*             166117               00.0000000000E+007.7400001526E+01+
*       -2.339999962E+01               0
GRID*             166118               00.0000000000E+007.8150001526E+01+
*       -2.564999962E+01               0
GRID*             166119               00.0000000000E+007.7400001526E+01+
*       -2.489999962E+01               0
GRID*             166120               00.0000000000E+007.8150001526E+01+
*       -2.714999962E+01               0
GRID*             166121               00.0000000000E+007.8900001526E+01+
*       -2.639999962E+01               0
GRID*             166122               00.0000000000E+007.7400001526E+01+
*       -2.639999962E+01               0
GRID*             166123               00.0000000000E+008.0400001526E+01+
*       -2.639999962E+01               0
GRID*             166124               00.0000000000E+007.9650001526E+01+
*       -2.714999962E+01               0
GRID*             166125               00.0000000000E+008.1900001526E+01+
*       -2.639999962E+01               0
GRID*             166126               00.0000000000E+008.1150001526E+01+
*       -2.714999962E+01               0
GRID*             166127               00.0000000000E+008.3400001526E+01+
*       -2.639999962E+01               0
GRID*             166128               00.0000000000E+008.2650001526E+01+
*       -2.714999962E+01               0
GRID*             166129               00.0000000000E+008.4900001526E+01+
*       -2.639999962E+01               0
GRID*             166130               00.0000000000E+008.4150001526E+01+
*       -2.714999962E+01               0
GRID*             166131               00.0000000000E+008.6400001526E+01+
*       -2.639999962E+01               0
GRID*             166132               00.0000000000E+008.5650001526E+01+
*       -2.564999962E+01               0
GRID*             166133               00.0000000000E+008.5650001526E+01+
*       -2.714999962E+01               0
GRID*             166134               00.0000000000E+008.5650001526E+01+
*       -2.414999962E+01               0
GRID*             166135               00.0000000000E+008.6400001526E+01+
*       -2.489999962E+01               0
GRID*             166136               00.0000000000E+008.5650001526E+01+
*       -2.264999962E+01               0
GRID*             166137               00.0000000000E+008.6400001526E+01+
*       -2.339999962E+01               0
GRID*             166138               00.0000000000E+008.6400001526E+01+
*       -2.189999962E+01               0
GRID*             166139               00.0000000000E+008.7916651980E+01+
*       -1.142309518E+01               0
GRID*             166140               00.0000000000E+008.9435170534E+01+
*       -1.290920629E+01               0
GRID*             166141               00.0000000000E+008.9316289443E+01+
*       -1.590244121E+01               0
GRID*             166142               00.0000000000E+008.7751459977E+01+
*       -1.435331416E+01               0
GRID*             166143               00.0000000000E+008.9504714838E+01+
*       -1.888144352E+01               0
GRID*             166144               00.0000000000E+008.7821004281E+01+
*       -1.735332918E+01               0
GRID*             166145               00.0000000000E+008.9592833021E+01+
*       -2.189020549E+01               0
GRID*             166146               00.0000000000E+008.8097547859E+01+
*       -2.036887123E+01               0
GRID*             166147               00.0000000000E+008.9692325982E+01+
*       -2.483728451E+01               0
GRID*             166148               00.0000000000E+008.8285159002E+01+
*       -2.335249000E+01               0
GRID*             166149               00.0000000000E+008.9981983829E+01+
*       -2.773287917E+01               0
GRID*             166150               00.0000000000E+008.8674309810E+01+
*       -2.622294146E+01               0
GRID*             166151               00.0000000000E+008.9760693332E+01+
*       -3.054461712E+01               0
GRID*             166152               00.0000000000E+008.8742677161E+01+
*       -2.895805184E+01               0
GRID*             166153               00.0000000000E+008.9646574193E+01+
*       -3.356842236E+01               0
GRID*             166154               00.0000000000E+008.8407267525E+01+
*       -3.182137281E+01               0
GRID*             166155               00.0000000000E+008.9569652789E+01+
*       -3.660426477E+01               0
GRID*             166156               00.0000000000E+008.8216226982E+01+
*       -3.490879824E+01               0
GRID*             166157               00.0000000000E+008.9521941230E+01+
*       -3.963151581E+01               0
GRID*             166158               00.0000000000E+008.8091594019E+01+
*       -3.799966948E+01               0
GRID*             166159               00.0000000000E+008.9495547741E+01+
*       -4.264556349E+01               0
GRID*             166160               00.0000000000E+008.8017488971E+01+
*       -4.106874597E+01               0
GRID*             166161               00.0000000000E+008.9482138407E+01+
*       -4.564740691E+01               0
GRID*             166162               00.0000000000E+008.7977686149E+01+
*       -4.411241484E+01               0
GRID*             166163               00.0000000000E+008.9476098048E+01+
*       -4.863974624E+01               0
GRID*             166164               00.0000000000E+008.7958236455E+01+
*       -4.713437537E+01               0
GRID*             166165               00.0000000000E+008.9473982318E+01+
*       -5.162533116E+01               0
GRID*             166166               00.0000000000E+008.7950080366E+01+
*       -5.014007739E+01               0
GRID*             166167               00.0000000000E+008.9473829444E+01+
*       -5.460639532E+01               0
GRID*             166168               00.0000000000E+008.7947811762E+01+
*       -5.313450425E+01               0
GRID*             166169               00.0000000000E+008.9474597593E+01+
*       -5.758458097E+01               0
GRID*             166170               00.0000000000E+008.7948427036E+01+
*       -5.612153184E+01               0
GRID*             166171               00.0000000000E+008.9475780799E+01+
*       -6.056103673E+01               0
GRID*             166172               00.0000000000E+008.7950378391E+01+
*       -5.910395103E+01               0
GRID*             166173               00.0000000000E+008.9477169825E+01+
*       -6.353654965E+01               0
GRID*             166174               00.0000000000E+008.7952950624E+01+
*       -6.208369749E+01               0
GRID*             166175               00.0000000000E+008.9478741917E+01+
*       -6.651162409E+01               0
GRID*             166176               00.0000000000E+008.7955911742E+01+
*       -6.506206263E+01               0
GRID*             166177               00.0000000000E+008.9480245211E+01+
*       -6.948703171E+01               0
GRID*             166178               00.0000000000E+008.7958987128E+01+
*       -6.804032246E+01               0
GRID*             166179               00.0000000000E+008.9482088024E+01+
*       -7.246281560E+01               0
GRID*             166180               00.0000000000E+008.7962333234E+01+
*       -7.101929175E+01               0
GRID*             166181               00.0000000000E+008.9484486892E+01+
*       -7.543931013E+01               0
GRID*             166182               00.0000000000E+008.7966574916E+01+
*       -7.399934795E+01               0
GRID*             166183               00.0000000000E+008.9487865910E+01+
*       -7.841663417E+01               0
GRID*             166184               00.0000000000E+008.7972352803E+01+
*       -7.698094430E+01               0
GRID*             166185               00.0000000000E+008.9492768883E+01+
*       -8.139478134E+01               0
GRID*             166186               00.0000000000E+008.7980634794E+01+
*       -7.996419330E+01               0
GRID*             166187               00.0000000000E+008.9499797184E+01+
*       -8.437362387E+01               0
GRID*             166188               00.0000000000E+008.7992566067E+01+
*       -8.294896077E+01               0
GRID*             166189               00.0000000000E+008.9509520688E+01+
*       -8.735290979E+01               0
GRID*             166190               00.0000000000E+008.8009317872E+01+
*       -8.593486700E+01               0
GRID*             166191               00.0000000000E+008.9522349619E+01+
*       -9.033230285E+01               0
GRID*             166192               00.0000000000E+008.8031870306E+01+
*       -8.892132376E+01               0
GRID*             166193               00.0000000000E+008.9538394609E+01+
*       -9.331148200E+01               0
GRID*             166194               00.0000000000E+008.8060744227E+01+
*       -9.190767374E+01               0
GRID*             166195               00.0000000000E+008.9557466499E+01+
*       -9.629024787E+01               0
GRID*             166196               00.0000000000E+008.8095861108E+01+
*       -9.489339654E+01               0
GRID*             166197               00.0000000000E+008.9579367034E+01+
*       -9.926859697E+01               0
GRID*             166198               00.0000000000E+008.8136833533E+01+
*       -9.787828928E+01               0
GRID*             166199               00.0000000000E+008.9604358605E+01+
*       -1.022470660E+02               0
GRID*             166200               00.0000000000E+008.8183725640E+01+
*       -1.008628852E+02               0
GRID*             166201               00.0000000000E+008.9633479547E+01+
*       -1.052286120E+02               0
GRID*             166202               00.0000000000E+008.8237838153E+01+
*       -1.038506780E+02               0
GRID*             166203               00.0000000000E+008.9668402916E+01+
*       -1.082283037E+02               0
GRID*             166204               00.0000000000E+008.8301882464E+01+
*       -1.068596934E+02               0
GRID*             166205               00.0000000000E+008.9709493363E+01+
*       -1.113360704E+02               0
GRID*             166206               00.0000000000E+008.8377896280E+01+
*       -1.099949296E+02               0
GRID*             166207               00.0000000000E+009.0126907772E+01+
*       -1.142219821E+02               0
GRID*             166208               00.0000000000E+008.8836401136E+01+
*       -1.130163858E+02               0
GRID*             166209               00.0000000000E+008.9376907772E+01+
*       -1.157080932E+02               0
GRID*             166210               00.0000000000E+008.7869161100E+01+
*       -1.159238367E+02               0
GRID*             166211               00.0000000000E+008.8496068872E+01+
*       -1.146319299E+02               0
GRID*             166212               00.0000000000E+008.6350681988E+01+
*       -1.159906817E+02               0
GRID*             166213               00.0000000000E+008.6969843088E+01+
*       -1.149145184E+02               0
GRID*             166214               00.0000000000E+008.4789604612E+01+
*       -1.159836862E+02               0
GRID*             166215               00.0000000000E+008.5390286600E+01+
*       -1.149743679E+02               0
GRID*             166216               00.0000000000E+008.2780194840E+01+
*       -1.156217791E+02               0
GRID*             166217               00.0000000000E+008.3913957470E+01+
*       -1.168552781E+02               0
GRID*             166218               00.0000000000E+008.3655841982E+01+
*       -1.147501872E+02               0
GRID*             166219               00.0000000000E+008.3994237391E+01+
*       -1.185298210E+02               0
GRID*             166220               00.0000000000E+008.2908194860E+01+
*       -1.176350991E+02               0
GRID*             166221               00.0000000000E+008.4100513607E+01+
*       -1.201143604E+02               0
GRID*             166222               00.0000000000E+008.3094750998E+01+
*       -1.193941814E+02               0
GRID*             166223               00.0000000000E+008.4214500636E+01+
*       -1.216214309E+02               0
GRID*             166224               00.0000000000E+008.3315014243E+01+
*       -1.209857912E+02               0
GRID*             166225               00.0000000000E+008.4134534282E+01+
*       -1.231850494E+02               0
GRID*             166226               00.0000000000E+008.3349034918E+01+
*       -1.225564803E+02               0
GRID*             166227               00.0000000000E+008.3948984129E+01+
*       -1.252821649E+02               0
GRID*             166228               00.0000000000E+008.4891757414E+01+
*       -1.240365053E+02               0
GRID*             166229               00.0000000000E+008.3191760998E+01+
*       -1.244307090E+02               0
GRID*             166230               00.0000000000E+008.6415517398E+01+
*       -1.240183364E+02               0
GRID*             166231               00.0000000000E+008.5557274812E+01+
*       -1.250548417E+02               0
GRID*             166232               00.0000000000E+008.7913958077E+01+
*       -1.240826967E+02               0
GRID*             166233               00.0000000000E+008.7079475475E+01+
*       -1.251010332E+02               0
GRID*             166234               00.0000000000E+008.9404048308E+01+
*       -1.243034998E+02               0
GRID*             166235               00.0000000000E+008.8568006385E+01+
*       -1.253861965E+02               0
GRID*             166236               00.0000000000E+009.0154048308E+01+
*       -1.258196288E+02               0
GRID*             166237               00.0000000000E+008.9769359212E+01+
*       -1.287569395E+02               0
GRID*             166238               00.0000000000E+008.8923407520E+01+
*       -1.270281813E+02               0
GRID*             166239               00.0000000000E+008.9730619023E+01+
*       -1.319492484E+02               0
GRID*             166240               00.0000000000E+008.8499978235E+01+
*       -1.301255427E+02               0
GRID*             166241               00.0000000000E+008.9695702052E+01+
*       -1.350205645E+02               0
GRID*             166242               00.0000000000E+008.8426321075E+01+
*       -1.333569096E+02               0
GRID*             166243               00.0000000000E+008.9666238898E+01+
*       -1.380692861E+02               0
GRID*             166244               00.0000000000E+008.8361940951E+01+
*       -1.364446893E+02               0
GRID*             166245               00.0000000000E+008.9641225924E+01+
*       -1.411119820E+02               0
GRID*             166246               00.0000000000E+008.8307464822E+01+
*       -1.395038488E+02               0
GRID*             166247               00.0000000000E+008.9619734279E+01+
*       -1.441524562E+02               0
GRID*             166248               00.0000000000E+008.8260960203E+01+
*       -1.425547608E+02               0
GRID*             166249               00.0000000000E+008.9601117412E+01+
*       -1.471918677E+02               0
GRID*             166250               00.0000000000E+008.8220851691E+01+
*       -1.456023884E+02               0
GRID*             166251               00.0000000000E+008.9584917304E+01+
*       -1.502307012E+02               0
GRID*             166252               00.0000000000E+008.8186034715E+01+
*       -1.486483753E+02               0
GRID*             166253               00.0000000000E+008.9570790633E+01+
*       -1.532692427E+02               0
GRID*             166254               00.0000000000E+008.8155707936E+01+
*       -1.516934923E+02               0
GRID*             166255               00.0000000000E+008.9558478091E+01+
*       -1.563077161E+02               0
GRID*             166256               00.0000000000E+008.8129268724E+01+
*       -1.547382492E+02               0
GRID*             166257               00.0000000000E+008.9547800688E+01+
*       -1.593463226E+02               0
GRID*             166258               00.0000000000E+008.8106278779E+01+
*       -1.577830710E+02               0
GRID*             166259               00.0000000000E+008.9538668389E+01+
*       -1.623852432E+02               0
GRID*             166260               00.0000000000E+008.8086469077E+01+
*       -1.608283400E+02               0
GRID*             166261               00.0000000000E+008.9531090226E+01+
*       -1.654246233E+02               0
GRID*             166262               00.0000000000E+008.8069758615E+01+
*       -1.638743827E+02               0
GRID*             166263               00.0000000000E+008.9525176779E+01+
*       -1.684645481E+02               0
GRID*             166264               00.0000000000E+008.8056267004E+01+
*       -1.669214295E+02               0
GRID*             166265               00.0000000000E+008.9521126649E+01+
*       -1.715050167E+02               0
GRID*             166266               00.0000000000E+008.8046303427E+01+
*       -1.699695648E+02               0
GRID*             166267               00.0000000000E+008.9519190969E+01+
*       -1.745459265E+02               0
GRID*             166268               00.0000000000E+008.8040317617E+01+
*       -1.730186851E+02               0
GRID*             166269               00.0000000000E+008.9519617996E+01+
*       -1.775870813E+02               0
GRID*             166270               00.0000000000E+008.8038808964E+01+
*       -1.760684916E+02               0
GRID*             166271               00.0000000000E+008.9522594223E+01+
*       -1.806282294E+02               0
GRID*             166272               00.0000000000E+008.8042212218E+01+
*       -1.791185365E+02               0
GRID*             166273               00.0000000000E+008.9528212556E+01+
*       -1.836691274E+02               0
GRID*             166274               00.0000000000E+008.8050806778E+01+
*       -1.821683245E+02               0
GRID*             166275               00.0000000000E+008.9536490805E+01+
*       -1.867096036E+02               0
GRID*             166276               00.0000000000E+008.8064703360E+01+
*       -1.852174407E+02               0
GRID*             166277               00.0000000000E+008.9547410647E+01+
*       -1.897495983E+02               0
GRID*             166278               00.0000000000E+008.8083901452E+01+
*       -1.882656535E+02               0
GRID*             166279               00.0000000000E+008.9560912746E+01+
*       -1.927891825E+02               0
GRID*             166280               00.0000000000E+008.8108323393E+01+
*       -1.913129743E+02               0
GRID*             166281               00.0000000000E+008.9576888454E+01+
*       -1.958285747E+02               0
GRID*             166282               00.0000000000E+008.8137801200E+01+
*       -1.943596927E+02               0
GRID*             166283               00.0000000000E+008.9595348114E+01+
*       -1.988681833E+02               0
GRID*             166284               00.0000000000E+008.8172236568E+01+
*       -1.974064354E+02               0
GRID*             166285               00.0000000000E+008.9616783482E+01+
*       -2.019089839E+02               0
GRID*             166286               00.0000000000E+008.8212131596E+01+
*       -2.004545866E+02               0
GRID*             166287               00.0000000000E+008.9642461990E+01+
*       -2.049545111E+02               0
GRID*             166288               00.0000000000E+008.8259245472E+01+
*       -2.035086564E+02               0
GRID*             166289               00.0000000000E+008.9674314601E+01+
*       -2.080210202E+02               0
GRID*             166290               00.0000000000E+008.8316776592E+01+
*       -2.065884345E+02               0
GRID*             166291               00.0000000000E+008.9712858199E+01+
*       -2.112049436E+02               0
GRID*             166292               00.0000000000E+008.8387172800E+01+
*       -2.098066089E+02               0
GRID*             166293               00.0000000000E+009.0129068030E+01+
*       -2.141601843E+02               0
GRID*             166294               00.0000000000E+008.8841926228E+01+
*       -2.129135150E+02               0
GRID*             166295               00.0000000000E+008.9379068030E+01+
*       -2.156763133E+02               0
GRID*             166296               00.0000000000E+008.7869002648E+01+
*       -2.158882335E+02               0
GRID*             166297               00.0000000000E+008.8498070678E+01+
*       -2.145645468E+02               0
GRID*             166298               00.0000000000E+008.6348226207E+01+
*       -2.159483994E+02               0
GRID*             166299               00.0000000000E+008.6967228855E+01+
*       -2.148366328E+02               0
GRID*             166300               00.0000000000E+008.4783103612E+01+
*       -2.159249245E+02               0
GRID*             166301               00.0000000000E+008.5381329819E+01+
*       -2.148733238E+02               0
GRID*             166302               00.0000000000E+008.2770238340E+01+
*       -2.154697845E+02               0
GRID*             166303               00.0000000000E+008.3910105711E+01+
*       -2.167971956E+02               0
GRID*             166304               00.0000000000E+008.3643236240E+01+
*       -2.145975134E+02               0
GRID*             166305               00.0000000000E+008.3993469543E+01+
*       -2.184884743E+02               0
GRID*             166306               00.0000000000E+008.2903575254E+01+
*       -2.175356700E+02               0
GRID*             166307               00.0000000000E+008.4100652900E+01+
*       -2.200800982E+02               0
GRID*             166308               00.0000000000E+008.3094122443E+01+
*       -2.193185725E+02               0
GRID*             166309               00.0000000000E+008.4210608212E+01+
*       -2.215905763E+02               0
GRID*             166310               00.0000000000E+008.3311261112E+01+
*       -2.209206744E+02               0
GRID*             166311               00.0000000000E+008.4126429394E+01+
*       -2.231458029E+02               0
GRID*             166312               00.0000000000E+008.3337037607E+01+
*       -2.224863792E+02               0
GRID*             166313               00.0000000000E+008.3938687196E+01+
*       -2.251630498E+02               0
GRID*             166314               00.0000000000E+008.4889048473E+01+
*       -2.239879592E+02               0
GRID*             166315               00.0000000000E+008.3176068117E+01+
*       -2.243208935E+02               0
GRID*             166316               00.0000000000E+008.6412806556E+01+
*       -2.239810439E+02               0
GRID*             166317               00.0000000000E+008.5551855029E+01+
*       -2.249690031E+02               0
GRID*             166318               00.0000000000E+008.7911051059E+01+
*       -2.240496340E+02               0
GRID*             166319               00.0000000000E+008.7073857615E+01+
*       -2.250306779E+02               0
GRID*             166320               00.0000000000E+008.9400351675E+01+
*       -2.242729125E+02               0
GRID*             166321               00.0000000000E+008.8561402734E+01+
*       -2.253225465E+02               0
GRID*             166322               00.0000000000E+009.0150351675E+01+
*       -2.257590236E+02               0
GRID*             166323               00.0000000000E+008.9763247725E+01+
*       -2.286314574E+02               0
GRID*             166324               00.0000000000E+008.8913599400E+01+
*       -2.269321477E+02               0
GRID*             166325               00.0000000000E+008.9721455018E+01+
*       -2.317514485E+02               0
GRID*             166326               00.0000000000E+008.8484702743E+01+
*       -2.299523504E+02               0
GRID*             166327               00.0000000000E+008.9684768201E+01+
*       -2.347577438E+02               0
GRID*             166328               00.0000000000E+008.8406223219E+01+
*       -2.331064146E+02               0
GRID*             166329               00.0000000000E+008.9653527198E+01+
*       -2.377439660E+02               0
GRID*             166330               00.0000000000E+008.8338295399E+01+
*       -2.361267098E+02               0
GRID*             166331               00.0000000000E+008.9626840415E+01+
*       -2.407254599E+02               0
GRID*             166332               00.0000000000E+008.8280367613E+01+
*       -2.391222036E+02               0
GRID*             166333               00.0000000000E+008.9603951463E+01+
*       -2.437053836E+02               0
GRID*             166334               00.0000000000E+008.8230791878E+01+
*       -2.421113990E+02               0
GRID*             166335               00.0000000000E+008.9584341154E+01+
*       -2.466844803E+02               0
GRID*             166336               00.0000000000E+008.8188292617E+01+
*       -2.450981972E+02               0
GRID*             166337               00.0000000000E+008.9567640092E+01+
*       -2.496629290E+02               0
GRID*             166338               00.0000000000E+008.8151981246E+01+
*       -2.480835204E+02               0
GRID*             166339               00.0000000000E+008.9553557271E+01+
*       -2.526407482E+02               0
GRID*             166340               00.0000000000E+008.8121197363E+01+
*       -2.510675660E+02               0
GRID*             166341               00.0000000000E+008.9541836305E+01+
*       -2.556178961E+02               0
GRID*             166342               00.0000000000E+008.8095393576E+01+
*       -2.540503110E+02               0
GRID*             166343               00.0000000000E+008.9532231794E+01+
*       -2.585942982E+02               0
GRID*             166344               00.0000000000E+008.8074068099E+01+
*       -2.570316388E+02               0
GRID*             166345               00.0000000000E+008.9524501441E+01+
*       -2.615698647E+02               0
GRID*             166346               00.0000000000E+008.8056733235E+01+
*       -2.600113852E+02               0
GRID*             166347               00.0000000000E+008.9518410195E+01+
*       -2.645445217E+02               0
GRID*             166348               00.0000000000E+008.8042911636E+01+
*       -2.629893864E+02               0
GRID*             166349               00.0000000000E+008.9513739011E+01+
*       -2.675182354E+02               0
GRID*             166350               00.0000000000E+008.8032149206E+01+
*       -2.659655349E+02               0
GRID*             166351               00.0000000000E+008.9510290568E+01+
*       -2.704910102E+02               0
GRID*             166352               00.0000000000E+008.8024029580E+01+
*       -2.689398012E+02               0
GRID*             166353               00.0000000000E+008.9507890345E+01+
*       -2.734628697E+02               0
GRID*             166354               00.0000000000E+008.8018180913E+01+
*       -2.719122132E+02               0
GRID*             166355               00.0000000000E+008.9506390053E+01+
*       -2.764338977E+02               0
GRID*             166356               00.0000000000E+008.8014280397E+01+
*       -2.748828785E+02               0
GRID*             166357               00.0000000000E+008.9505582450E+01+
*       -2.794035045E+02               0
GRID*             166358               00.0000000000E+008.8011972502E+01+
*       -2.778512911E+02               0
GRID*             166359               00.0000000000E+008.9505431924E+01+
*       -2.823722232E+02               0
GRID*             166360               00.0000000000E+008.8011014374E+01+
*       -2.808173944E+02               0
GRID*             166361               00.0000000000E+008.9505854323E+01+
*       -2.853398752E+02               0
GRID*             166362               00.0000000000E+008.8011286247E+01+
*       -2.837815428E+02               0
GRID*             166363               00.0000000000E+008.9506817824E+01+
*       -2.883066272E+02               0
GRID*             166364               00.0000000000E+008.8012672147E+01+
*       -2.867437247E+02               0
GRID*             166365               00.0000000000E+008.9508332158E+01+
*       -2.912729257E+02               0
GRID*             166366               00.0000000000E+008.8015149982E+01+
*       -2.897045529E+02               0
GRID*             166367               00.0000000000E+008.9510554298E+01+
*       -2.942397824E+02               0
GRID*             166368               00.0000000000E+008.8018886456E+01+
*       -2.926654859E+02               0
GRID*             166369               00.0000000000E+008.9514015499E+01+
*       -2.972092974E+02               0
GRID*             166370               00.0000000000E+008.8024569797E+01+
*       -2.956296353E+02               0
GRID*             166371               00.0000000000E+008.9519879652E+01+
*       -3.001856613E+02               0
GRID*             166372               00.0000000000E+008.8033895150E+01+
*       -2.986032920E+02               0
GRID*             166373               00.0000000000E+008.9530387452E+01+
*       -3.031772761E+02               0
GRID*             166374               00.0000000000E+008.8050267104E+01+
*       -3.015990486E+02               0
GRID*             166375               00.0000000000E+008.9552680858E+01+
*       -3.061994433E+02               0
GRID*             166376               00.0000000000E+008.8083068310E+01+
*       -3.046406084E+02               0
GRID*             166377               00.0000000000E+008.9607109856E+01+
*       -3.092718728E+02               0
GRID*             166378               00.0000000000E+008.8159790714E+01+
*       -3.077629828E+02               0
GRID*             166379               00.0000000000E+008.9779547134E+01+
*       -3.123179438E+02               0
GRID*             166380               00.0000000000E+008.8386656990E+01+
*       -3.109092610E+02               0
GRID*             166381               00.0000000000E+008.9791403800E+01+
*       -3.154069408E+02               0
GRID*             166382               00.0000000000E+008.8570950934E+01+
*       -3.140721068E+02               0
GRID*             166383               00.0000000000E+009.0097852945E+01+
*       -3.182401410E+02               0
GRID*             166384               00.0000000000E+008.8889256745E+01+
*       -3.170220818E+02               0
GRID*             166385               00.0000000000E+008.9936407085E+01+
*       -3.211436143E+02               0
GRID*             166386               00.0000000000E+008.9034260030E+01+
*       -3.197865330E+02               0
GRID*             166387               00.0000000000E+009.0029132048E+01+
*       -3.239499348E+02               0
GRID*             166388               00.0000000000E+008.8965539133E+01+
*       -3.225241046E+02               0
GRID*             166389               00.0000000000E+008.9402008867E+01+
*       -3.267394734E+02               0
GRID*             166390               00.0000000000E+008.8431140915E+01+
*       -3.251477416E+02               0
GRID*             166391               00.0000000000E+008.7883490313E+01+
*       -3.282255845E+02               0
GRID*             166392               00.0000000000E+008.4822019999E+01+
*       -3.284274343E+02               0
GRID*             166393               00.0000000000E+008.6261065973E+01+
*       -3.266530188E+02               0
GRID*             166394               00.0000000000E+008.1926971512E+01+
*       -3.288228921E+02               0
GRID*             166395               00.0000000000E+008.3341584280E+01+
*       -3.272503264E+02               0
GRID*             166396               00.0000000000E+007.9054388803E+01+
*       -3.285647142E+02               0
GRID*             166397               00.0000000000E+008.0610990192E+01+
*       -3.273876063E+02               0
GRID*             166398               00.0000000000E+007.6134055239E+01+
*       -3.286806693E+02               0
GRID*             166399               00.0000000000E+007.7855111027E+01+
*       -3.272453835E+02               0
GRID*             166400               00.0000000000E+007.2966683325E+01+
*       -3.288414255E+02               0
GRID*             166401               00.0000000000E+007.4804442657E+01+
*       -3.275220949E+02               0
GRID*             166402               00.0000000000E+006.9870089138E+01+
*       -3.288840822E+02               0
GRID*             166403               00.0000000000E+007.1577513663E+01+
*       -3.277255077E+02               0
GRID*             166404               00.0000000000E+006.6800139217E+01+
*       -3.288885639E+02               0
GRID*             166405               00.0000000000E+006.8448006663E+01+
*       -3.277726461E+02               0
GRID*             166406               00.0000000000E+006.3743009423E+01+
*       -3.288805442E+02               0
GRID*             166407               00.0000000000E+006.5357964056E+01+
*       -3.277691081E+02               0
GRID*             166408               00.0000000000E+006.0692986756E+01+
*       -3.288700375E+02               0
GRID*             166409               00.0000000000E+006.2287848702E+01+
*       -3.277505817E+02               0
GRID*             166410               00.0000000000E+005.7647582782E+01+
*       -3.288607590E+02               0
GRID*             166411               00.0000000000E+005.9229459168E+01+
*       -3.277307965E+02               0
GRID*             166412               00.0000000000E+005.4605575492E+01+
*       -3.288540155E+02               0
GRID*             166413               00.0000000000E+005.6179085012E+01+
*       -3.277147744E+02               0
GRID*             166414               00.0000000000E+005.1566287966E+01+
*       -3.288502618E+02               0
GRID*             166415               00.0000000000E+005.3134827304E+01+
*       -3.277042772E+02               0
GRID*             166416               00.0000000000E+004.8529345017E+01+
*       -3.288496491E+02               0
GRID*             166417               00.0000000000E+005.0095633937E+01+
*       -3.276999109E+02               0
GRID*             166418               00.0000000000E+004.5494582358E+01+
*       -3.288521865E+02               0
GRID*             166419               00.0000000000E+004.7060965436E+01+
*       -3.277018356E+02               0
GRID*             166420               00.0000000000E+004.2461992068E+01+
*       -3.288577360E+02               0
GRID*             166421               00.0000000000E+004.4030649595E+01+
*       -3.277099224E+02               0
GRID*             166422               00.0000000000E+003.9431657659E+01+
*       -3.288658546E+02               0
GRID*             166423               00.0000000000E+004.1004762004E+01+
*       -3.277235906E+02               0
GRID*             166424               00.0000000000E+003.6403614942E+01+
*       -3.288753361E+02               0
GRID*             166425               00.0000000000E+003.7983421986E+01+
*       -3.277411907E+02               0
GRID*             166426               00.0000000000E+003.3377375291E+01+
*       -3.288830372E+02               0
GRID*             166427               00.0000000000E+003.4966176725E+01+
*       -3.277583733E+02               0
GRID*             166428               00.0000000000E+003.0349635831E+01+
*       -3.288808213E+02               0
GRID*             166429               00.0000000000E+003.1949234722E+01+
*       -3.277638585E+02               0
GRID*             166430               00.0000000000E+002.7301313202E+01+
*       -3.288465770E+02               0
GRID*             166431               00.0000000000E+002.8910209740E+01+
*       -3.277273983E+02               0
GRID*             166432               00.0000000000E+002.4110746002E+01+
*       -3.287046078E+02               0
GRID*             166433               00.0000000000E+002.5708357019E+01+
*       -3.275511848E+02               0
GRID*             166434               00.0000000000E+002.1107753704E+01+
*       -3.289278813E+02               0
GRID*             166435               00.0000000000E+002.2551834629E+01+
*       -3.276324890E+02               0
GRID*             166436               00.0000000000E+001.8105625974E+01+
*       -3.287404042E+02               0
GRID*             166437               00.0000000000E+001.9583751708E+01+
*       -3.276682855E+02               0
GRID*             166438               00.0000000000E+001.5101141093E+01+
*       -3.288842897E+02               0
GRID*             166439               00.0000000000E+001.6614176204E+01+
*       -3.276246939E+02               0
GRID*             166440               00.0000000000E+001.2148445439E+01+
*       -3.284861377E+02               0
GRID*             166441               00.0000000000E+001.3694032778E+01+
*       -3.273704274E+02               0
GRID*             166442               00.0000000000E+001.0629926886E+01+
*       -3.270000266E+02               0
GRID*             166443               00.0000000000E+001.0342229429E+01+
*       -3.240421691E+02               0
GRID*             166444               00.0000000000E+001.1972158222E+01+
*       -3.255005290E+02               0
GRID*             166445               00.0000000000E+009.9215705816E+00+
*       -3.211763236E+02               0
GRID*             166446               00.0000000000E+001.1263801918E+01+
*       -3.226490482E+02               0
GRID*             166447               00.0000000000E+001.0050440886E+01+
*       -3.182221217E+02               0
GRID*             166448               00.0000000000E+001.0972013375E+01+
*       -3.198012231E+02               0
GRID*             166449               00.0000000000E+009.9369060140E+00+
*       -3.152523769E+02               0
GRID*             166450               00.0000000000E+001.0987348808E+01+
*       -3.168494986E+02               0
GRID*             166451               00.0000000000E+001.0410921465E+01+
*       -3.124119889E+02               0
GRID*             166452               00.0000000000E+001.1347829386E+01+
*       -3.140115880E+02               0
GRID*             166453               00.0000000000E+001.0452440981E+01+
*       -3.092683734E+02               0
GRID*             166454               00.0000000000E+001.1863364353E+01+
*       -3.109998067E+02               0
GRID*             166455               00.0000000000E+001.0486715011E+01+
*       -3.062391999E+02               0
GRID*             166456               00.0000000000E+001.1939157900E+01+
*       -3.077992400E+02               0
GRID*             166457               00.0000000000E+001.0511570261E+01+
*       -3.032369780E+02               0
GRID*             166458               00.0000000000E+001.1998287179E+01+
*       -3.047400668E+02               0
GRID*             166459               00.0000000000E+001.0525770042E+01+
*       -3.002443016E+02               0
GRID*             166460               00.0000000000E+001.2037342210E+01+
*       -3.017173907E+02               0
GRID*             166461               00.0000000000E+001.0532089120E+01+
*       -2.972585978E+02               0
GRID*             166462               00.0000000000E+001.2057861068E+01+
*       -2.987112327E+02               0
GRID*             166463               00.0000000000E+001.0533544557E+01+
*       -2.942784797E+02               0
GRID*             166464               00.0000000000E+001.2065635584E+01+
*       -2.957176330E+02               0
GRID*             166465               00.0000000000E+001.0532393365E+01+
*       -2.913024988E+02               0
GRID*             166466               00.0000000000E+001.2065939829E+01+
*       -2.927337562E+02               0
GRID*             166467               00.0000000000E+001.0530033481E+01+
*       -2.883293150E+02               0
GRID*             166468               00.0000000000E+001.2062428753E+01+
*       -2.897568138E+02               0
GRID*             166469               00.0000000000E+001.0527212146E+01+
*       -2.853578818E+02               0
GRID*             166470               00.0000000000E+001.2057247535E+01+
*       -2.867844191E+02               0
GRID*             166471               00.0000000000E+001.0524262555E+01+
*       -2.823874828E+02               0
GRID*             166472               00.0000000000E+001.2051476608E+01+
*       -2.838148091E+02               0
GRID*             166473               00.0000000000E+001.0521289857E+01+
*       -2.794176760E+02               0
GRID*             166474               00.0000000000E+001.2045554319E+01+
*       -2.808468255E+02               0
GRID*             166475               00.0000000000E+001.0518287467E+01+
*       -2.764482251E+02               0
GRID*             166476               00.0000000000E+001.2039579231E+01+
*       -2.778797900E+02               0
GRID*             166477               00.0000000000E+001.0515724517E+01+
*       -2.734781650E+02               0
GRID*             166478               00.0000000000E+001.2034013891E+01+
*       -2.749125012E+02               0
GRID*             166479               00.0000000000E+001.0513300794E+01+
*       -2.705078203E+02               0
GRID*             166480               00.0000000000E+001.2029027219E+01+
*       -2.719443186E+02               0
GRID*             166481               00.0000000000E+001.0510953622E+01+
*       -2.675371878E+02               0
GRID*             166482               00.0000000000E+001.2024256323E+01+
*       -2.689755636E+02               0
GRID*             166483               00.0000000000E+001.0508669519E+01+
*       -2.645662133E+02               0
GRID*             166484               00.0000000000E+001.2019625049E+01+
*       -2.660061789E+02               0
GRID*             166485               00.0000000000E+001.0506448554E+01+
*       -2.615948131E+02               0
GRID*             166486               00.0000000000E+001.2015119981E+01+
*       -2.630360264E+02               0
GRID*             166487               00.0000000000E+001.0504293586E+01+
*       -2.586228416E+02               0
GRID*             166488               00.0000000000E+001.2010744047E+01+
*       -2.600648769E+02               0
GRID*             166489               00.0000000000E+001.0502195505E+01+
*       -2.556500411E+02               0
GRID*             166490               00.0000000000E+001.2006490998E+01+
*       -2.570923272E+02               0
GRID*             166491               00.0000000000E+001.0500103421E+01+
*       -2.526759710E+02               0
GRID*             166492               00.0000000000E+001.2002300833E+01+
*       -2.541176788E+02               0
GRID*             166493               00.0000000000E+001.0497864502E+01+
*       -2.496999127E+02               0
GRID*             166494               00.0000000000E+001.1997969830E+01+
*       -2.511397726E+02               0
GRID*             166495               00.0000000000E+001.0495065534E+01+
*       -2.467207066E+02               0
GRID*             166496               00.0000000000E+001.1992931943E+01+
*       -2.481567304E+02               0
GRID*             166497               00.0000000000E+001.0490664415E+01+
*       -2.437364309E+02               0
GRID*             166498               00.0000000000E+001.1985731856E+01+
*       -2.451654708E+02               0
GRID*             166499               00.0000000000E+001.0482469572E+01+
*       -2.407440911E+02               0
GRID*             166500               00.0000000000E+001.1973135894E+01+
*       -2.421610775E+02               0
GRID*             166501               00.0000000000E+001.0466398067E+01+
*       -2.377399810E+02               0
GRID*             166502               00.0000000000E+001.1948869546E+01+
*       -2.391368498E+02               0
GRID*             166503               00.0000000000E+001.0434563959E+01+
*       -2.347223192E+02               0
GRID*             166504               00.0000000000E+001.1900963933E+01+
*       -2.360873001E+02               0
GRID*             166505               00.0000000000E+001.0371727376E+01+
*       -2.317017552E+02               0
GRID*             166506               00.0000000000E+001.1806293242E+01+
*       -2.330212966E+02               0
GRID*             166507               00.0000000000E+001.0259938820E+01+
*       -2.287389912E+02               0
GRID*             166508               00.0000000000E+001.1631668102E+01+
*       -2.300101909E+02               0
GRID*             166509               00.0000000000E+001.0237019265E+01+
*       -2.258459444E+02               0
GRID*             166510               00.0000000000E+001.1496959992E+01+
*       -2.271266022E+02               0
GRID*             166511               00.0000000000E+001.1737018311E+01+
*       -2.243598333E+02               0
GRID*             166512               00.0000000000E+001.3522091856E+01+
*       -2.242407081E+02               0
GRID*             166513               00.0000000000E+001.2509112314E+01+
*       -2.256005414E+02               0
GRID*             166514               00.0000000000E+001.5215942573E+01+
*       -2.241118114E+02               0
GRID*             166515               00.0000000000E+001.4488033237E+01+
*       -2.253525195E+02               0
GRID*             166516               00.0000000000E+001.7174899315E+01+
*       -2.240414119E+02               0
GRID*             166517               00.0000000000E+001.6029003752E+01+
*       -2.230593174E+02               0
GRID*             166518               00.0000000000E+001.6361838135E+01+
*       -2.250939058E+02               0
GRID*             166519               00.0000000000E+001.5922622803E+01+
*       -2.214729148E+02               0
GRID*             166520               00.0000000000E+001.6951623695E+01+
*       -2.222822322E+02               0
GRID*             166521               00.0000000000E+001.5833282390E+01+
*       -2.199651537E+02               0
GRID*             166522               00.0000000000E+001.6755902332E+01+
*       -2.206880685E+02               0
GRID*             166523               00.0000000000E+001.5955496974E+01+
*       -2.184311822E+02               0
GRID*             166524               00.0000000000E+001.6788776504E+01+
*       -2.191463359E+02               0
GRID*             166525               00.0000000000E+001.6139653919E+01+
*       -2.167222598E+02               0
GRID*             166526               00.0000000000E+001.7095148033E+01+
*       -2.174034420E+02               0
GRID*             166527               00.0000000000E+001.6673751881E+01+
*       -2.139184783E+02               0
GRID*             166528               00.0000000000E+001.5276582216E+01+
*       -2.154836939E+02               0
GRID*             166529               00.0000000000E+001.7536823585E+01+
*       -2.151570441E+02               0
GRID*             166530               00.0000000000E+001.3497979836E+01+
*       -2.155003762E+02               0
GRID*             166531               00.0000000000E+001.4524560859E+01+
*       -2.139840701E+02               0
GRID*             166532               00.0000000000E+001.1699701054E+01+
*       -2.154973726E+02               0
GRID*             166533               00.0000000000E+001.2447683036E+01+
*       -2.139977488E+02               0
GRID*             166534               00.0000000000E+001.0199702008E+01+
*       -2.139812436E+02               0
GRID*             166535               00.0000000000E+001.0166986324E+01+
*       -2.109694910E+02               0
GRID*             166536               00.0000000000E+001.1366690239E+01+
*       -2.124991217E+02               0
GRID*             166537               00.0000000000E+001.0187859902E+01+
*       -2.079549822E+02               0
GRID*             166538               00.0000000000E+001.1354848133E+01+
*       -2.095051184E+02               0
GRID*             166539               00.0000000000E+001.0218356450E+01+
*       -2.049351172E+02               0
GRID*             166540               00.0000000000E+001.1406218259E+01+
*       -2.065030026E+02               0
GRID*             166541               00.0000000000E+001.0248599823E+01+
*       -2.019116423E+02               0
GRID*             166542               00.0000000000E+001.1466958180E+01+
*       -2.034919208E+02               0
GRID*             166543               00.0000000000E+001.0276739148E+01+
*       -1.988867147E+02               0
GRID*             166544               00.0000000000E+001.1525340878E+01+
*       -2.004757763E+02               0
GRID*             166545               00.0000000000E+001.0303066690E+01+
*       -1.958614250E+02               0
GRID*             166546               00.0000000000E+001.1579807746E+01+
*       -1.974578171E+02               0
GRID*             166547               00.0000000000E+001.0328330501E+01+
*       -1.928357424E+02               0
GRID*             166548               00.0000000000E+001.1631399099E+01+
*       -1.944391029E+02               0
GRID*             166549               00.0000000000E+001.0353010304E+01+
*       -1.898088858E+02               0
GRID*             166550               00.0000000000E+001.1681342712E+01+
*       -1.914188217E+02               0
GRID*             166551               00.0000000000E+001.0376952890E+01+
*       -1.867798157E+02               0
GRID*             166552               00.0000000000E+001.1729965101E+01+
*       -1.883951531E+02               0
GRID*             166553               00.0000000000E+001.0399411825E+01+
*       -1.837477716E+02               0
GRID*             166554               00.0000000000E+001.1776366623E+01+
*       -1.853662970E+02               0
GRID*             166555               00.0000000000E+001.0419463751E+01+
*       -1.807126653E+02               0
GRID*             166556               00.0000000000E+001.1818877484E+01+
*       -1.823314046E+02               0
GRID*             166557               00.0000000000E+001.0436527464E+01+
*       -1.776750385E+02               0
GRID*             166558               00.0000000000E+001.1855993123E+01+
*       -1.792909296E+02               0
GRID*             166559               00.0000000000E+001.0450447063E+01+
*       -1.746357022E+02               0
GRID*             166560               00.0000000000E+001.1886976435E+01+
*       -1.762462246E+02               0
GRID*             166561               00.0000000000E+001.0461405261E+01+
*       -1.715954616E+02               0
GRID*             166562               00.0000000000E+001.1911854232E+01+
*       -1.731989058E+02               0
GRID*             166563               00.0000000000E+001.0469822822E+01+
*       -1.685549662E+02               0
GRID*             166564               00.0000000000E+001.1931229991E+01+
*       -1.701504278E+02               0
GRID*             166565               00.0000000000E+001.0476229706E+01+
*       -1.655146315E+02               0
GRID*             166566               00.0000000000E+001.1946054436E+01+
*       -1.671018558E+02               0
GRID*             166567               00.0000000000E+001.0481145113E+01+
*       -1.624746172E+02               0
GRID*             166568               00.0000000000E+001.1957376727E+01+
*       -1.640537649E+02               0
GRID*             166569               00.0000000000E+001.0484996204E+01+
*       -1.594348393E+02               0
GRID*             166570               00.0000000000E+001.1966143224E+01+
*       -1.610062308E+02               0
GRID*             166571               00.0000000000E+001.0488075965E+01+
*       -1.563949839E+02               0
GRID*             166572               00.0000000000E+001.1973074076E+01+
*       -1.579588555E+02               0
GRID*             166573               00.0000000000E+001.0490520903E+01+
*       -1.533544924E+02               0
GRID*             166574               00.0000000000E+001.1978598776E+01+
*       -1.549107666E+02               0
GRID*             166575               00.0000000000E+001.0492279352E+01+
*       -1.503125037E+02               0
GRID*             166576               00.0000000000E+001.1982802163E+01+
*       -1.518605446E+02               0
GRID*             166577               00.0000000000E+001.0492985286E+01+
*       -1.472676939E+02               0
GRID*             166578               00.0000000000E+001.1985266545E+01+
*       -1.488060041E+02               0
GRID*             166579               00.0000000000E+001.0491586618E+01+
*       -1.442178896E+02               0
GRID*             166580               00.0000000000E+001.1984573811E+01+
*       -1.457436480E+02               0
GRID*             166581               00.0000000000E+001.0485755084E+01+
*       -1.411596150E+02               0
GRID*             166582               00.0000000000E+001.1977343610E+01+
*       -1.426678272E+02               0
GRID*             166583               00.0000000000E+001.0471040461E+01+
*       -1.380883194E+02               0
GRID*             166584               00.0000000000E+001.1956797453E+01+
*       -1.395705150E+02               0
GRID*             166585               00.0000000000E+001.0438825309E+01+
*       -1.350011002E+02               0
GRID*             166586               00.0000000000E+001.1909867678E+01+
*       -1.364442583E+02               0
GRID*             166587               00.0000000000E+001.0372610199E+01+
*       -1.319084550E+02               0
GRID*             166588               00.0000000000E+001.1811437415E+01+
*       -1.332966520E+02               0
GRID*             166589               00.0000000000E+001.0254365549E+01+
*       -1.288751865E+02               0
GRID*             166590               00.0000000000E+001.1626977655E+01+
*       -1.302029963E+02               0
GRID*             166591               00.0000000000E+001.0230188564E+01+
*       -1.259153834E+02               0
GRID*             166592               00.0000000000E+001.1484556020E+01+
*       -1.272421828E+02               0
GRID*             166593               00.0000000000E+001.1730187610E+01+
*       -1.243992544E+02               0
GRID*             166594               00.0000000000E+001.3515815914E+01+
*       -1.242897839E+02               0
GRID*             166595               00.0000000000E+001.2496005670E+01+
*       -1.256890382E+02               0
GRID*             166596               00.0000000000E+001.5214993196E+01+
*       -1.241764640E+02               0
GRID*             166597               00.0000000000E+001.4480807918E+01+
*       -1.254662479E+02               0
GRID*             166598               00.0000000000E+001.7195082411E+01+
*       -1.241935342E+02               0
GRID*             166599               00.0000000000E+001.6038574401E+01+
*       -1.231176421E+02               0
GRID*             166600               00.0000000000E+001.6371501206E+01+
*       -1.252523561E+02               0
GRID*             166601               00.0000000000E+001.5929669061E+01+
*       -1.215139036E+02               0
GRID*             166602               00.0000000000E+001.6968240601E+01+
*       -1.223815457E+02               0
GRID*             166603               00.0000000000E+001.5845203531E+01+
*       -1.199986123E+02               0
GRID*             166604               00.0000000000E+001.6774869731E+01+
*       -1.207625159E+02               0
GRID*             166605               00.0000000000E+001.5974957314E+01+
*       -1.184690354E+02               0
GRID*             166606               00.0000000000E+001.6820157984E+01+
*       -1.192176476E+02               0
GRID*             166607               00.0000000000E+001.6164945851E+01+
*       -1.167814075E+02               0
GRID*             166608               00.0000000000E+001.7139900304E+01+
*       -1.175004429E+02               0
GRID*             166609               00.0000000000E+001.6730081116E+01+
*       -1.141143175E+02               0
GRID*             166610               00.0000000000E+001.5297443683E+01+
*       -1.155630289E+02               0
GRID*             166611               00.0000000000E+001.7597583284E+01+
*       -1.153326962E+02               0
GRID*             166612               00.0000000000E+001.3514261267E+01+
*       -1.155577902E+02               0
GRID*             166613               00.0000000000E+001.4561703757E+01+
*       -1.141208191E+02               0
GRID*             166614               00.0000000000E+001.1711229313E+01+
*       -1.155402690E+02               0
GRID*             166615               00.0000000000E+001.2475492726E+01+
*       -1.140980593E+02               0
GRID*             166616               00.0000000000E+001.0211230267E+01+
*       -1.140541579E+02               0
GRID*             166617               00.0000000000E+001.0181718959E+01+
*       -1.111090639E+02               0
GRID*             166618               00.0000000000E+001.1392951133E+01+
*       -1.126215551E+02               0
GRID*             166619               00.0000000000E+001.0206535845E+01+
*       -1.081586918E+02               0
GRID*             166620               00.0000000000E+001.1388256711E+01+
*       -1.096983112E+02               0
GRID*             166621               00.0000000000E+001.0241943875E+01+
*       -1.052014460E+02               0
GRID*             166622               00.0000000000E+001.1448481627E+01+
*       -1.067629156E+02               0
GRID*             166623               00.0000000000E+001.0277688526E+01+
*       -1.022391337E+02               0
GRID*             166624               00.0000000000E+001.1519634309E+01+
*       -1.038155797E+02               0
GRID*             166625               00.0000000000E+001.0311528389E+01+
*       -9.927368524E+01               0
GRID*             166626               00.0000000000E+001.1589218822E+01+
*       -1.008600412E+02               0
GRID*             166627               00.0000000000E+001.0343244489E+01+
*       -9.630599247E+01               0
GRID*             166628               00.0000000000E+001.1654774785E+01+
*       -9.789912216E+01               0
GRID*             166629               00.0000000000E+001.0372865587E+01+
*       -9.333603158E+01               0
GRID*             166630               00.0000000000E+001.1716111983E+01+
*       -9.493369072E+01               0
GRID*             166631               00.0000000000E+001.0400045229E+01+
*       -9.036340749E+01               0
GRID*             166632               00.0000000000E+001.1772912723E+01+
*       -9.196332796E+01               0
GRID*             166633               00.0000000000E+001.0424067401E+01+
*       -8.738795336E+01               0
GRID*             166634               00.0000000000E+001.1824114538E+01+
*       -8.898747196E+01               0
GRID*             166635               00.0000000000E+001.0444237666E+01+
*       -8.441008743E+01               0
GRID*             166636               00.0000000000E+001.1868306974E+01+
*       -8.600637412E+01               0
GRID*             166637               00.0000000000E+001.0460321429E+01+
*       -8.143069744E+01               0
GRID*             166638               00.0000000000E+001.1904561002E+01+
*       -8.302134043E+01               0
GRID*             166639               00.0000000000E+001.0472562765E+01+
*       -7.845073388E+01               0
GRID*             166640               00.0000000000E+001.1932886101E+01+
*       -8.003420910E+01               0
GRID*             166641               00.0000000000E+001.0481483959E+01+
*       -7.547092987E+01               0
GRID*             166642               00.0000000000E+001.1954048631E+01+
*       -7.704666375E+01               0
GRID*             166643               00.0000000000E+001.0487683134E+01+
*       -7.249172349E+01               0
GRID*             166644               00.0000000000E+001.1969169001E+01+
*       -7.405987558E+01               0
GRID*             166645               00.0000000000E+001.0491707687E+01+
*       -6.951327003E+01               0
GRID*             166646               00.0000000000E+001.1979392728E+01+
*       -7.107443796E+01               0
GRID*             166647               00.0000000000E+001.0494065394E+01+
*       -6.653632224E+01               0
GRID*             166648               00.0000000000E+001.1985774988E+01+
*       -6.809125894E+01               0
GRID*             166649               00.0000000000E+001.0495213998E+01+
*       -6.356141377E+01               0
GRID*             166650               00.0000000000E+001.1989281299E+01+
*       -6.511162490E+01               0
GRID*             166651               00.0000000000E+001.0495358030E+01+
*       -6.058755471E+01               0
GRID*             166652               00.0000000000E+001.1990573935E+01+
*       -6.213507959E+01               0
GRID*             166653               00.0000000000E+001.0494702916E+01+
*       -5.761480151E+01               0
GRID*             166654               00.0000000000E+001.1990062853E+01+
*       -5.916068956E+01               0
GRID*             166655               00.0000000000E+001.0493363285E+01+
*       -5.464293440E+01               0
GRID*             166656               00.0000000000E+001.1988068108E+01+
*       -5.618829146E+01               0
GRID*             166657               00.0000000000E+001.0491389639E+01+
*       -5.167146798E+01               0
GRID*             166658               00.0000000000E+001.1984754831E+01+
*       -5.321718016E+01               0
GRID*             166659               00.0000000000E+001.0488683854E+01+
*       -4.869940445E+01               0
GRID*             166660               00.0000000000E+001.1980075400E+01+
*       -5.024587243E+01               0
GRID*             166661               00.0000000000E+001.0484794995E+01+
*       -4.572476855E+01               0
GRID*             166662               00.0000000000E+001.1973480756E+01+
*       -4.727139522E+01               0
GRID*             166663               00.0000000000E+001.0478702427E+01+
*       -4.274370963E+01               0
GRID*             166664               00.0000000000E+001.1963499329E+01+
*       -4.428792263E+01               0
GRID*             166665               00.0000000000E+001.0468452640E+01+
*       -3.974859622E+01               0
GRID*             166666               00.0000000000E+001.1947156974E+01+
*       -4.128397252E+01               0
GRID*             166667               00.0000000000E+001.0447594981E+01+
*       -3.672518898E+01               0
GRID*             166668               00.0000000000E+001.1916049528E+01+
*       -3.823767410E+01               0
GRID*             166669               00.0000000000E+001.0397288738E+01+
*       -3.365613737E+01               0
GRID*             166670               00.0000000000E+001.1844885626E+01+
*       -3.511743747E+01               0
GRID*             166671               00.0000000000E+001.0228237631E+01+
*       -3.063325379E+01               0
GRID*             166672               00.0000000000E+001.1625528276E+01+
*       -3.199772450E+01               0
GRID*             166673               00.0000000000E+001.0206071420E+01+
*       -2.767009288E+01               0
GRID*             166674               00.0000000000E+001.1434310958E+01+
*       -2.898390223E+01               0
GRID*             166675               00.0000000000E+001.0346053930E+01+
*       -2.481880494E+01               0
GRID*             166676               00.0000000000E+001.1552127257E+01+
*       -2.614167560E+01               0
GRID*             166677               00.0000000000E+001.0395646095E+01+
*       -2.183850007E+01               0
GRID*             166678               00.0000000000E+001.1741701932E+01+
*       -2.328230501E+01               0
GRID*             166679               00.0000000000E+001.0417992403E+01+
*       -1.884411256E+01               0
GRID*             166680               00.0000000000E+001.1813640406E+01+
*       -2.027983485E+01               0
GRID*             166681               00.0000000000E+001.0153874559E+01+
*       -1.599481584E+01               0
GRID*             166682               00.0000000000E+001.1571868869E+01+
*       -1.740837284E+01               0
GRID*             166683               00.0000000000E+001.0688584929E+01+
*       -1.317531627E+01               0
GRID*             166684               00.0000000000E+001.1842461395E+01+
*       -1.471179878E+01               0
GRID*             166685               00.0000000000E+001.2207103483E+01+
*       -1.168920516E+01               0
GRID*             166686               00.0000000000E+001.5276242445E+01+
*       -1.131109439E+01               0
GRID*             166687               00.0000000000E+001.3927792174E+01+
*       -1.300029955E+01               0
GRID*             166688               00.0000000000E+001.8164777153E+01+
*       -1.124972246E+01               0
GRID*             166689               00.0000000000E+001.6848428736E+01+
*       -1.256081686E+01               0
GRID*             166690               00.0000000000E+002.1059504872E+01+
*       -1.133462725E+01               0
GRID*             166691               00.0000000000E+001.9594654055E+01+
*       -1.258434971E+01               0
GRID*             166692               00.0000000000E+002.4003469244E+01+
*       -1.132699961E+01               0
GRID*             166693               00.0000000000E+002.2396309038E+01+
*       -1.266162686E+01               0
GRID*             166694               00.0000000000E+002.7028541057E+01+
*       -1.130089343E+01               0
GRID*             166695               00.0000000000E+002.5328308116E+01+
*       -1.262789304E+01               0
GRID*             166696               00.0000000000E+003.0084236001E+01+
*       -1.129950577E+01               0
GRID*             166697               00.0000000000E+002.8372037765E+01+
*       -1.260039921E+01               0
GRID*             166698               00.0000000000E+003.3152528495E+01+
*       -1.130487261E+01               0
GRID*             166699               00.0000000000E+003.1458988096E+01+
*       -1.260437838E+01               0
GRID*             166700               00.0000000000E+003.6219232882E+01+
*       -1.131152164E+01               0
GRID*             166701               00.0000000000E+003.4556947869E+01+
*       -1.261639425E+01               0
GRID*             166702               00.0000000000E+003.9280101099E+01+
*       -1.131743763E+01               0
GRID*             166703               00.0000000000E+003.7647483365E+01+
*       -1.262895927E+01               0
GRID*             166704               00.0000000000E+004.2335045934E+01+
*       -1.132195138E+01               0
GRID*             166705               00.0000000000E+004.0726259310E+01+
*       -1.263938900E+01               0
GRID*             166706               00.0000000000E+004.5385167346E+01+
*       -1.132488930E+01               0
GRID*             166707               00.0000000000E+004.3794288449E+01+
*       -1.264684068E+01               0
GRID*             166708               00.0000000000E+004.8431669886E+01+
*       -1.132633147E+01               0
GRID*             166709               00.0000000000E+004.6853875293E+01+
*       -1.265122076E+01               0
GRID*             166710               00.0000000000E+005.1475626199E+01+
*       -1.132655738E+01               0
GRID*             166711               00.0000000000E+004.9907297038E+01+
*       -1.265288884E+01               0
GRID*             166712               00.0000000000E+005.4518030968E+01+
*       -1.132593820E+01               0
GRID*             166713               00.0000000000E+005.2956621013E+01+
*       -1.265249558E+01               0
GRID*             166714               00.0000000000E+005.7559948104E+01+
*       -1.132461501E+01               0
GRID*             166715               00.0000000000E+005.6003905810E+01+
*       -1.265055321E+01               0
GRID*             166716               00.0000000000E+006.0603039235E+01+
*       -1.132290963E+01               0
GRID*             166717               00.0000000000E+005.9051876970E+01+
*       -1.264752464E+01               0
GRID*             166718               00.0000000000E+006.3650328051E+01+
*       -1.132139647E+01               0
GRID*             166719               00.0000000000E+006.2105219809E+01+
*       -1.264430610E+01               0
GRID*             166720               00.0000000000E+006.6707733745E+01+
*       -1.132072533E+01               0
GRID*             166721               00.0000000000E+006.5172877211E+01+
*       -1.264212180E+01               0
GRID*             166722               00.0000000000E+006.9786938307E+01+
*       -1.132049948E+01               0
GRID*             166723               00.0000000000E+006.8272450359E+01+
*       -1.264122481E+01               0
GRID*             166724               00.0000000000E+007.2904140998E+01+
*       -1.131156815E+01               0
GRID*             166725               00.0000000000E+007.1431820505E+01+
*       -1.263206763E+01               0
GRID*             166726               00.0000000000E+007.5953376279E+01+
*       -1.119250501E+01               0
GRID*             166727               00.0000000000E+007.4561221370E+01+
*       -1.250407316E+01               0
GRID*             166728               00.0000000000E+007.8917352525E+01+
*       -1.117091049E+01               0
GRID*             166729               00.0000000000E+007.7537395789E+01+
*       -1.236341550E+01               0
GRID*             166730               00.0000000000E+008.1909096720E+01+
*       -1.125096179E+01               0
GRID*             166731               00.0000000000E+008.0456079122E+01+
*       -1.242187228E+01               0
GRID*             166732               00.0000000000E+008.4913686521E+01+
*       -1.126755740E+01               0
GRID*             166733               00.0000000000E+008.3415376011E+01+
*       -1.251851919E+01               0
GRID*             166734               00.0000000000E+008.6385894163E+01+
*       -1.269065258E+01               0
GRID*             166735               00.0000000000E+008.8363439391E+01+
*       -3.237107955E+02               0
GRID*             166736               00.0000000000E+008.7034308106E+01+
*       -3.240386385E+02               0
GRID*             166737               00.0000000000E+008.7102009630E+01+
*       -3.254755845E+02               0
GRID*             166738               00.0000000000E+008.4809057869E+01+
*       -3.256774343E+02               0
GRID*             166739               00.0000000000E+008.0403113847E+01+
*       -3.252417492E+02               0
GRID*             166740               00.0000000000E+007.9078463781E+01+
*       -3.258147142E+02               0
GRID*             166741               00.0000000000E+007.9831576102E+01+
*       -3.265564634E+02               0
GRID*             166742               00.0000000000E+008.1177285917E+01+
*       -3.259891939E+02               0
GRID*             166743               00.0000000000E+008.1924173596E+01+
*       -3.252474446E+02               0
GRID*             166744               00.0000000000E+008.1956700007E+01+
*       -3.268203367E+02               0
GRID*             166745               00.0000000000E+008.4109100896E+01+
*       -3.263581703E+02               0
GRID*             166746               00.0000000000E+008.3450044553E+01+
*       -3.251807360E+02               0
GRID*             166747               00.0000000000E+008.2724216622E+01+
*       -3.259281806E+02               0
GRID*             166748               00.0000000000E+002.0140839200E+01+
*       -3.259949469E+02               0
GRID*             166749               00.0000000000E+002.1053327767E+01+
*       -3.252878711E+02               0
GRID*             166750               00.0000000000E+001.9437513723E+01+
*       -3.252070762E+02               0
GRID*             166751               00.0000000000E+002.1037007064E+01+
*       -3.269657524E+02               0
GRID*             166752               00.0000000000E+001.8687583844E+01+
*       -3.266974800E+02               0
GRID*             166753               00.0000000000E+002.2611827235E+01+
*       -3.252693644E+02               0
GRID*             166754               00.0000000000E+002.1815152713E+01+
*       -3.260572356E+02               0
GRID*             166755               00.0000000000E+002.3329980277E+01+
*       -3.267239722E+02               0
GRID*             166756               00.0000000000E+002.4413965595E+01+
*       -3.263223622E+02               0
GRID*             166757               00.0000000000E+002.3695812553E+01+
*       -3.248677544E+02               0
GRID*             166758               00.0000000000E+002.7528225263E+01+
*       -3.266075906E+02               0
GRID*             166759               00.0000000000E+002.6233833839E+01+
*       -3.253787681E+02               0
GRID*             166760               00.0000000000E+003.0540109694E+01+
*       -3.266752390E+02               0
GRID*             166761               00.0000000000E+002.9158125217E+01+
*       -3.255554313E+02               0
GRID*             166762               00.0000000000E+003.3539768071E+01+
*       -3.266703068E+02               0
GRID*             166763               00.0000000000E+003.2130643043E+01+
*       -3.255816873E+02               0
GRID*             166764               00.0000000000E+003.6543333738E+01+
*       -3.266430137E+02               0
GRID*             166765               00.0000000000E+003.5116925083E+01+
*       -3.255549472E+02               0
GRID*             166766               00.0000000000E+003.9553664050E+01+
*       -3.266129237E+02               0
GRID*             166767               00.0000000000E+003.8113575802E+01+
*       -3.255147466E+02               0
GRID*             166768               00.0000000000E+004.2570933890E+01+
*       -3.265878438E+02               0
GRID*             166769               00.0000000000E+004.1119835936E+01+
*       -3.254771769E+02               0
GRID*             166770               00.0000000000E+004.5594818747E+01+
*       -3.265708448E+02               0
GRID*             166771               00.0000000000E+004.4135103041E+01+
*       -3.254487662E+02               0
GRID*             166772               00.0000000000E+004.8625060198E+01+
*       -3.265630818E+02               0
GRID*             166773               00.0000000000E+004.7158913508E+01+
*       -3.254320910E+02               0
GRID*             166774               00.0000000000E+005.1661696229E+01+
*       -3.265649354E+02               0
GRID*             166775               00.0000000000E+005.0191122490E+01+
*       -3.254281063E+02               0
GRID*             166776               00.0000000000E+005.4705206038E+01+
*       -3.265764235E+02               0
GRID*             166777               00.0000000000E+005.3232074963E+01+
*       -3.254370817E+02               0
GRID*             166778               00.0000000000E+005.7756651423E+01+
*       -3.265972211E+02               0
GRID*             166779               00.0000000000E+005.6282772449E+01+
*       -3.254588702E+02               0
GRID*             166780               00.0000000000E+006.0817928007E+01+
*       -3.266262249E+02               0
GRID*             166781               00.0000000000E+005.9345120262E+01+
*       -3.254926495E+02               0
GRID*             166782               00.0000000000E+006.3892485064E+01+
*       -3.266599795E+02               0
GRID*             166783               00.0000000000E+006.2422564369E+01+
*       -3.255356227E+02               0
GRID*             166784               00.0000000000E+006.6987587604E+01+
*       -3.266880812E+02               0
GRID*             166785               00.0000000000E+006.5522108613E+01+
*       -3.255789526E+02               0
GRID*             166786               00.0000000000E+007.0121427311E+01+
*       -3.266809397E+02               0
GRID*             166787               00.0000000000E+006.8661008252E+01+
*       -3.255963748E+02               0
GRID*             166788               00.0000000000E+007.3348823100E+01+
*       -3.265512798E+02               0
GRID*             166789               00.0000000000E+007.1892736747E+01+
*       -3.255067119E+02               0
GRID*             166790               00.0000000000E+007.6926648771E+01+
*       -3.259306693E+02               0
GRID*             166791               00.0000000000E+007.5471029214E+01+
*       -3.249598543E+02               0
GRID*             166792               00.0000000000E+002.8004356480E+01+
*       -3.225161537E+02               0
GRID*             166793               00.0000000000E+002.6684754270E+01+
*       -3.215564717E+02               0
GRID*             166794               00.0000000000E+002.5188520157E+01+
*       -3.224617895E+02               0
GRID*             166795               00.0000000000E+002.6508122367E+01+
*       -3.234214715E+02               0
GRID*             166796               00.0000000000E+003.0908156845E+01+
*       -3.224661375E+02               0
GRID*             166797               00.0000000000E+002.9542922010E+01+
*       -3.214915616E+02               0
GRID*             166798               00.0000000000E+002.9369591315E+01+
*       -3.234907296E+02               0
GRID*             166799               00.0000000000E+003.3847697618E+01+
*       -3.223761201E+02               0
GRID*             166800               00.0000000000E+003.2454604636E+01+
*       -3.213818671E+02               0
GRID*             166801               00.0000000000E+003.2301249828E+01+
*       -3.234603905E+02               0
GRID*             166802               00.0000000000E+003.6808618027E+01+
*       -3.222812780E+02               0
GRID*             166803               00.0000000000E+003.5394970637E+01+
*       -3.212636205E+02               0
GRID*             166804               00.0000000000E+003.5261345009E+01+
*       -3.233937776E+02               0
GRID*             166805               00.0000000000E+003.9786729176E+01+
*       -3.221981189E+02               0
GRID*             166806               00.0000000000E+003.8356254187E+01+
*       -3.211565352E+02               0
GRID*             166807               00.0000000000E+003.8239093016E+01+
*       -3.233228616E+02               0
GRID*             166808               00.0000000000E+004.2780195895E+01+
*       -3.221339143E+02               0
GRID*             166809               00.0000000000E+004.1335638510E+01+
*       -3.210699909E+02               0
GRID*             166810               00.0000000000E+004.1231286561E+01+
*       -3.232620423E+02               0
GRID*             166811               00.0000000000E+004.5787836376E+01+
*       -3.220916770E+02               0
GRID*             166812               00.0000000000E+004.4331518601E+01+
*       -3.210081228E+02               0
GRID*             166813               00.0000000000E+004.4236513670E+01+
*       -3.232174685E+02               0
GRID*             166814               00.0000000000E+004.8808956428E+01+
*       -3.220725916E+02               0
GRID*             166815               00.0000000000E+004.7342813863E+01+
*       -3.209726288E+02               0
GRID*             166816               00.0000000000E+004.7253978942E+01+
*       -3.231916398E+02               0
GRID*             166817               00.0000000000E+005.1843482541E+01+
*       -3.220771651E+02               0
GRID*             166818               00.0000000000E+005.0369025810E+01+
*       -3.209642251E+02               0
GRID*             166819               00.0000000000E+005.0283413160E+01+
*       -3.231855316E+02               0
GRID*             166820               00.0000000000E+005.4892122963E+01+
*       -3.221057142E+02               0
GRID*             166821               00.0000000000E+005.3410400616E+01+
*       -3.209833608E+02               0
GRID*             166822               00.0000000000E+005.3325204888E+01+
*       -3.231995186E+02               0
GRID*             166823               00.0000000000E+005.7956545983E+01+
*       -3.221584239E+02               0
GRID*             166824               00.0000000000E+005.6468090661E+01+
*       -3.210304773E+02               0
GRID*             166825               00.0000000000E+005.6380578285E+01+
*       -3.232336609E+02               0
GRID*             166826               00.0000000000E+006.1039726389E+01+
*       -3.222347766E+02               0
GRID*             166827               00.0000000000E+005.9544394967E+01+
*       -3.211057864E+02               0
GRID*             166828               00.0000000000E+005.9451877405E+01+
*       -3.232874141E+02               0
GRID*             166829               00.0000000000E+006.4147060798E+01+
*       -3.223314288E+02               0
GRID*             166830               00.0000000000E+006.2643467261E+01+
*       -3.212080688E+02               0
GRID*             166831               00.0000000000E+006.2543319926E+01+
*       -3.233581366E+02               0
GRID*             166832               00.0000000000E+006.7289978937E+01+
*       -3.224367522E+02               0
GRID*             166833               00.0000000000E+006.5773638747E+01+
*       -3.213314686E+02               0
GRID*             166834               00.0000000000E+006.5663400989E+01+
*       -3.234367125E+02               0
GRID*             166835               00.0000000000E+007.0495502115E+01+
*       -3.225188942E+02               0
GRID*             166836               00.0000000000E+006.8953397938E+01+
*       -3.214587991E+02               0
GRID*             166837               00.0000000000E+006.8832083114E+01+
*       -3.234968473E+02               0
GRID*             166838               00.0000000000E+007.3827394040E+01+
*       -3.225010333E+02               0
GRID*             166839               00.0000000000E+007.2222352857E+01+
*       -3.215500484E+02               0
GRID*             166840               00.0000000000E+007.2100543298E+01+
*       -3.234698791E+02               0
GRID*             166841               00.0000000000E+002.8170863002E+01+
*       -3.205794729E+02               0
GRID*             166842               00.0000000000E+002.6818728809E+01+
*       -3.197209998E+02               0
GRID*             166843               00.0000000000E+002.5332620077E+01+
*       -3.206979986E+02               0
GRID*             166844               00.0000000000E+003.1062343394E+01+
*       -3.204275099E+02               0
GRID*             166845               00.0000000000E+002.9690284386E+01+
*       -3.195154212E+02               0
GRID*             166846               00.0000000000E+003.3983153876E+01+
*       -3.202737079E+02               0
GRID*             166847               00.0000000000E+003.2590892634E+01+
*       -3.193193507E+02               0
GRID*             166848               00.0000000000E+003.6926790446E+01+
*       -3.201354656E+02               0
GRID*             166849               00.0000000000E+003.5514973685E+01+
*       -3.191455530E+02               0
GRID*             166850               00.0000000000E+003.9890965192E+01+
*       -3.200214760E+02               0
GRID*             166851               00.0000000000E+003.8461501451E+01+
*       -3.190004064E+02               0
GRID*             166852               00.0000000000E+004.2873938762E+01+
*       -3.199357725E+02               0
GRID*             166853               00.0000000000E+004.1429265444E+01+
*       -3.188872576E+02               0
GRID*             166854               00.0000000000E+004.5874180951E+01+
*       -3.198800132E+02               0
GRID*             166855               00.0000000000E+004.4416601112E+01+
*       -3.188076629E+02               0
GRID*             166856               00.0000000000E+004.8890636013E+01+
*       -3.198548341E+02               0
GRID*             166857               00.0000000000E+004.7422003102E+01+
*       -3.187622185E+02               0
GRID*             166858               00.0000000000E+005.1922949984E+01+
*       -3.198606292E+02               0
GRID*             166859               00.0000000000E+005.0444560187E+01+
*       -3.187512382E+02               0
GRID*             166860               00.0000000000E+005.4971613483E+01+
*       -3.198979477E+02               0
GRID*             166861               00.0000000000E+005.3484162851E+01+
*       -3.187752161E+02               0
GRID*             166862               00.0000000000E+005.8038080216E+01+
*       -3.199675912E+02               0
GRID*             166863               00.0000000000E+005.6541603038E+01+
*       -3.188350617E+02               0
GRID*             166864               00.0000000000E+006.1125033215E+01+
*       -3.200702406E+02               0
GRID*             166865               00.0000000000E+005.9618718464E+01+
*       -3.189320453E+02               0
GRID*             166866               00.0000000000E+006.4237461754E+01+
*       -3.202050815E+02               0
GRID*             166867               00.0000000000E+006.2719027708E+01+
*       -3.190672533E+02               0
GRID*             166868               00.0000000000E+006.7386141406E+01+
*       -3.203666966E+02               0
GRID*             166869               00.0000000000E+006.5849964414E+01+
*       -3.192403096E+02               0
GRID*             166870               00.0000000000E+007.0595347114E+01+
*       -3.205391749E+02               0
GRID*             166871               00.0000000000E+006.9028090581E+01+
*       -3.194470724E+02               0
GRID*             166872               00.0000000000E+007.3913586113E+01+
*       -3.206860555E+02               0
GRID*             166873               00.0000000000E+007.2286580369E+01+
*       -3.196751819E+02               0
GRID*             166874               00.0000000000E+002.8314404471E+01+
*       -3.186462396E+02               0
GRID*             166875               00.0000000000E+002.6939627570E+01+
*       -3.178654728E+02               0
GRID*             166876               00.0000000000E+002.5443951908E+01+
*       -3.189402330E+02               0
GRID*             166877               00.0000000000E+003.1199108083E+01+
*       -3.183909295E+02               0
GRID*             166878               00.0000000000E+002.9823228168E+01+
*       -3.175217480E+02               0
GRID*             166879               00.0000000000E+003.4103062633E+01+
*       -3.181729494E+02               0
GRID*             166880               00.0000000000E+003.2711278082E+01+
*       -3.172445282E+02               0
GRID*             166881               00.0000000000E+003.7030634328E+01+
*       -3.179911740E+02               0
GRID*             166882               00.0000000000E+003.5618723276E+01+
*       -3.170185703E+02               0
GRID*             166883               00.0000000000E+003.9982140374E+01+
*       -3.178463323E+02               0
GRID*             166884               00.0000000000E+003.8551273250E+01+
*       -3.168371000E+02               0
GRID*             166885               00.0000000000E+004.2955760669E+01+
*       -3.177391498E+02               0
GRID*             166886               00.0000000000E+004.1508635599E+01+
*       -3.166982245E+02               0
GRID*             166887               00.0000000000E+004.5949329214E+01+
*       -3.176698219E+02               0
GRID*             166888               00.0000000000E+004.4488488770E+01+
*       -3.166013088E+02               0
GRID*             166889               00.0000000000E+004.8961201667E+01+
*       -3.176383324E+02               0
GRID*             166890               00.0000000000E+004.7488527779E+01+
*       -3.165459358E+02               0
GRID*             166891               00.0000000000E+005.1990551736E+01+
*       -3.176448966E+02               0
GRID*             166892               00.0000000000E+005.0507193216E+01+
*       -3.165319908E+02               0
GRID*             166893               00.0000000000E+005.5037435655E+01+
*       -3.176902819E+02               0
GRID*             166894               00.0000000000E+005.3543824540E+01+
*       -3.165599623E+02               0
GRID*             166895               00.0000000000E+005.8102797676E+01+
*       -3.177759712E+02               0
GRID*             166896               00.0000000000E+005.6598630293E+01+
*       -3.166311914E+02               0
GRID*             166897               00.0000000000E+006.1188636037E+01+
*       -3.179041276E+02               0
GRID*             166898               00.0000000000E+005.9672715250E+01+
*       -3.167480535E+02               0
GRID*             166899               00.0000000000E+006.4299058003E+01+
*       -3.180773572E+02               0
GRID*             166900               00.0000000000E+006.2768666332E+01+
*       -3.169142315E+02               0
GRID*             166901               00.0000000000E+006.7443700982E+01+
*       -3.182985617E+02               0
GRID*             166902               00.0000000000E+006.5892794572E+01+
*       -3.171356094E+02               0
GRID*             166903               00.0000000000E+007.0644835400E+01+
*       -3.185710691E+02               0
GRID*             166904               00.0000000000E+006.9060445801E+01+
*       -3.174225584E+02               0
GRID*             166905               00.0000000000E+007.3946503912E+01+
*       -3.188961913E+02               0
GRID*             166906               00.0000000000E+007.2304758943E+01+
*       -3.177920784E+02               0
GRID*             166907               00.0000000000E+002.8451838722E+01+
*       -3.166676418E+02               0
GRID*             166908               00.0000000000E+002.7071235755E+01+
*       -3.159319490E+02               0
GRID*             166909               00.0000000000E+002.5559024603E+01+
*       -3.171297801E+02               0
GRID*             166910               00.0000000000E+003.1321040962E+01+
*       -3.163245685E+02               0
GRID*             166911               00.0000000000E+002.9949651516E+01+
*       -3.154704623E+02               0
GRID*             166912               00.0000000000E+003.4204782054E+01+
*       -3.160513949E+02               0
GRID*             166913               00.0000000000E+003.2814544934E+01+
*       -3.151314353E+02               0
GRID*             166914               00.0000000000E+003.7116363639E+01+
*       -3.158303696E+02               0
GRID*             166915               00.0000000000E+003.5702422417E+01+
*       -3.148631942E+02               0
GRID*             166916               00.0000000000E+004.0056623754E+01+
*       -3.156567972E+02               0
GRID*             166917               00.0000000000E+003.8621714143E+01+
*       -3.146500668E+02               0
GRID*             166918               00.0000000000E+004.3022447734E+01+
*       -3.155292565E+02               0
GRID*             166919               00.0000000000E+004.1570435889E+01+
*       -3.144878291E+02               0
GRID*             166920               00.0000000000E+004.6010451049E+01+
*       -3.154468422E+02               0
GRID*             166921               00.0000000000E+004.4544410013E+01+
*       -3.143747899E+02               0
GRID*             166922               00.0000000000E+004.9018129433E+01+
*       -3.154089368E+02               0
GRID*             166923               00.0000000000E+004.7540052703E+01+
*       -3.143098432E+02               0
GRID*             166924               00.0000000000E+005.2044025453E+01+
*       -3.154155261E+02               0
GRID*             166925               00.0000000000E+005.0554961671E+01+
*       -3.142924722E+02               0
GRID*             166926               00.0000000000E+005.5087611643E+01+
*       -3.154675060E+02               0
GRID*             166927               00.0000000000E+005.3587812556E+01+
*       -3.143230698E+02               0
GRID*             166928               00.0000000000E+005.8149143203E+01+
*       -3.155669336E+02               0
GRID*             166929               00.0000000000E+005.6638124553E+01+
*       -3.144032481E+02               0
GRID*             166930               00.0000000000E+006.1229728784E+01+
*       -3.157173683E+02               0
GRID*             166931               00.0000000000E+005.9706156737E+01+
*       -3.145362484E+02               0
GRID*             166932               00.0000000000E+006.4332343025E+01+
*       -3.159247999E+02               0
GRID*             166933               00.0000000000E+006.2793405476E+01+
*       -3.147279367E+02               0
GRID*             166934               00.0000000000E+006.7465150471E+01+
*       -3.162003984E+02               0
GRID*             166935               00.0000000000E+006.5904698923E+01+
*       -3.149895889E+02               0
GRID*             166936               00.0000000000E+007.0649028921E+01+
*       -3.165671329E+02               0
GRID*             166937               00.0000000000E+006.9053733590E+01+
*       -3.153449730E+02               0
GRID*             166938               00.0000000000E+007.3932965382E+01+
*       -3.170707769E+02               0
GRID*             166939               00.0000000000E+007.2277235360E+01+
*       -3.158458314E+02               0
GRID*             166940               00.0000000000E+002.4947439170E+01+
*       -3.242935511E+02               0
GRID*             166941               00.0000000000E+002.3851628906E+01+
*       -3.231757967E+02               0
GRID*             166942               00.0000000000E+002.3936893539E+01+
*       -3.215359928E+02               0
GRID*             166943               00.0000000000E+002.3995728826E+01+
*       -3.199120058E+02               0
GRID*             166944               00.0000000000E+002.4048225371E+01+
*       -3.182782271E+02               0
GRID*             166945               00.0000000000E+002.4110801521E+01+
*       -3.166015529E+02               0
GRID*             166946               00.0000000000E+002.5723546039E+01+
*       -3.151666576E+02               0
GRID*             166947               00.0000000000E+002.4212746807E+01+
*       -3.148151047E+02               0
GRID*             166948               00.0000000000E+002.8595182242E+01+
*       -3.145999410E+02               0
GRID*             166949               00.0000000000E+002.7247492525E+01+
*       -3.138346497E+02               0
GRID*             166950               00.0000000000E+003.1427268927E+01+
*       -3.142072760E+02               0
GRID*             166951               00.0000000000E+003.0072799652E+01+
*       -3.133367547E+02               0
GRID*             166952               00.0000000000E+003.4285054869E+01+
*       -3.138943010E+02               0
GRID*             166953               00.0000000000E+003.2897778863E+01+
*       -3.129701417E+02               0
GRID*             166954               00.0000000000E+003.7181386690E+01+
*       -3.136402039E+02               0
GRID*             166955               00.0000000000E+003.5764019143E+01+
*       -3.126713108E+02               0
GRID*             166956               00.0000000000E+004.0112851927E+01+
*       -3.134409207E+02               0
GRID*             166957               00.0000000000E+003.8672524474E+01+
*       -3.124310578E+02               0
GRID*             166958               00.0000000000E+004.3073194213E+01+
*       -3.132947953E+02               0
GRID*             166959               00.0000000000E+004.1615610251E+01+
*       -3.122478868E+02               0
GRID*             166960               00.0000000000E+004.6057250157E+01+
*       -3.132002626E+02               0
GRID*             166961               00.0000000000E+004.4586034357E+01+
*       -3.121202680E+02               0
GRID*             166962               00.0000000000E+004.9061548272E+01+
*       -3.131561254E+02               0
GRID*             166963               00.0000000000E+004.7578745726E+01+
*       -3.120465447E+02               0
GRID*             166964               00.0000000000E+005.2084008976E+01+
*       -3.131620553E+02               0
GRID*             166965               00.0000000000E+005.0590595577E+01+
*       -3.120257085E+02               0
GRID*             166966               00.0000000000E+005.5123539067E+01+
*       -3.132189387E+02               0
GRID*             166967               00.0000000000E+005.3619735486E+01+
*       -3.120579242E+02               0
GRID*             166968               00.0000000000E+005.8179705283E+01+
*       -3.133291794E+02               0
GRID*             166969               00.0000000000E+005.6665119797E+01+
*       -3.121448700E+02               0
GRID*             166970               00.0000000000E+006.1252641734E+01+
*       -3.134972615E+02               0
GRID*             166971               00.0000000000E+005.9726190280E+01+
*       -3.122901925E+02               0
GRID*             166972               00.0000000000E+006.4343775992E+01+
*       -3.137313690E+02               0
GRID*             166973               00.0000000000E+006.2803012250E+01+
*       -3.125006938E+02               0
GRID*             166974               00.0000000000E+006.7458568594E+01+
*       -3.140479908E+02               0
GRID*             166975               00.0000000000E+006.5897645662E+01+
*       -3.127897708E+02               0
GRID*             166976               00.0000000000E+007.0613608523E+01+
*       -3.144839315E+02               0
GRID*             166977               00.0000000000E+006.9018443527E+01+
*       -3.131869493E+02               0
GRID*             166978               00.0000000000E+007.3859709531E+01+
*       -3.151296566E+02               0
GRID*             166979               00.0000000000E+007.2196082695E+01+
*       -3.137677567E+02               0
GRID*             166980               00.0000000000E+007.5602573950E+01+
*       -3.148089072E+02               0
GRID*             166981               00.0000000000E+007.5657137108E+01+
*       -3.165707494E+02               0
GRID*             166982               00.0000000000E+007.5675829801E+01+
*       -3.182500275E+02               0
GRID*             166983               00.0000000000E+007.5670675638E+01+
*       -3.198961637E+02               0
GRID*             166984               00.0000000000E+007.5642912001E+01+
*       -3.215398917E+02               0
GRID*             166985               00.0000000000E+007.5584483565E+01+
*       -3.232111416E+02               0
GRID*             166986               00.0000000000E+007.3655511254E+01+
*       -3.244209959E+02               0
GRID*             166987               00.0000000000E+007.0337768791E+01+
*       -3.245555950E+02               0
GRID*             166988               00.0000000000E+006.7155322575E+01+
*       -3.245376271E+02               0
GRID*             166989               00.0000000000E+006.4030187026E+01+
*       -3.244780380E+02               0
GRID*             166990               00.0000000000E+006.0935697268E+01+
*       -3.244157214E+02               0
GRID*             166991               00.0000000000E+005.7861300399E+01+
*       -3.243643422E+02               0
GRID*             166992               00.0000000000E+005.4802050335E+01+
*       -3.243281889E+02               0
GRID*             166993               00.0000000000E+005.1755229516E+01+
*       -3.243084114E+02               0
GRID*             166994               00.0000000000E+004.8719306134E+01+
*       -3.243052265E+02               0
GRID*             166995               00.0000000000E+004.5693586316E+01+
*       -3.243185043E+02               0
GRID*             166996               00.0000000000E+004.2678030395E+01+
*       -3.243477304E+02               0
GRID*             166997               00.0000000000E+003.9673092101E+01+
*       -3.243914888E+02               0
GRID*             166998               00.0000000000E+003.6679576717E+01+
*       -3.244461194E+02               0
GRID*             166999               00.0000000000E+003.3698693375E+01+
*       -3.245026054E+02               0
GRID*             167000               00.0000000000E+003.0733199496E+01+
*       -3.245394725E+02               0
GRID*             167001               00.0000000000E+002.7794517036E+01+
*       -3.245066884E+02               0
GRID*             167002               00.0000000000E+001.6053304278E+01+
*       -3.259704839E+02               0
GRID*             167003               00.0000000000E+001.5157535157E+01+
*       -3.269031853E+02               0
GRID*             167004               00.0000000000E+001.7509945325E+01+
*       -3.266919925E+02               0
GRID*             167005               00.0000000000E+001.5143428502E+01+
*       -3.252688963E+02               0
GRID*             167006               00.0000000000E+001.6759873773E+01+
*       -3.252015890E+02               0
GRID*             167007               00.0000000000E+001.3593007446E+01+
*       -3.252357179E+02               0
GRID*             167008               00.0000000000E+001.2642227951E+01+
*       -3.242643920E+02               0
GRID*             167009               00.0000000000E+001.2922937717E+01+
*       -3.264718549E+02               0
GRID*             167010               00.0000000000E+001.4386440097E+01+
*       -3.260046128E+02               0
GRID*             167011               00.0000000000E+001.2995719084E+01+
*       -3.171494110E+02               0
GRID*             167012               00.0000000000E+001.2969104666E+01+
*       -3.155083984E+02               0
GRID*             167013               00.0000000000E+001.2364828613E+01+
*       -3.164078100E+02               0
GRID*             167014               00.0000000000E+001.1746163356E+01+
*       -3.178159771E+02               0
GRID*             167015               00.0000000000E+001.1606014065E+01+
*       -3.154413315E+02               0
GRID*             167016               00.0000000000E+001.2084427550E+01+
*       -3.234777584E+02               0
GRID*             167017               00.0000000000E+001.3042194735E+01+
*       -3.229633671E+02               0
GRID*             167018               00.0000000000E+001.2400304597E+01+
*       -3.221502164E+02               0
GRID*             167019               00.0000000000E+001.1579678966E+01+
*       -3.213215061E+02               0
GRID*             167020               00.0000000000E+001.2958105357E+01+
*       -3.214368492E+02               0
GRID*             167021               00.0000000000E+001.2346408129E+01+
*       -3.204886085E+02               0
GRID*             167022               00.0000000000E+001.2988298981E+01+
*       -3.198017592E+02               0
GRID*             167023               00.0000000000E+001.1738742538E+01+
*       -3.189683254E+02               0
GRID*             167024               00.0000000000E+007.1197329973E+01+
*       -2.248342815E+02               0
GRID*             167025               00.0000000000E+006.9641071810E+01+
*       -2.261415410E+02               0
GRID*             167026               00.0000000000E+007.0912362530E+01+
*       -2.276265074E+02               0
GRID*             167027               00.0000000000E+007.2468620693E+01+
*       -2.263192479E+02               0
GRID*             167028               00.0000000000E+006.8415868940E+01+
*       -2.246142376E+02               0
GRID*             167029               00.0000000000E+006.6837474027E+01+
*       -2.258655698E+02               0
GRID*             167030               00.0000000000E+006.8062676897E+01+
*       -2.273928732E+02               0
GRID*             167031               00.0000000000E+006.5646237865E+01+
*       -2.242384688E+02               0
GRID*             167032               00.0000000000E+006.3999485674E+01+
*       -2.254445171E+02               0
GRID*             167033               00.0000000000E+006.5190721837E+01+
*       -2.270716181E+02               0
GRID*             167034               00.0000000000E+006.2750609363E+01+
*       -2.236356456E+02               0
GRID*             167035               00.0000000000E+006.0991646158E+01+
*       -2.248647498E+02               0
GRID*             167036               00.0000000000E+006.2240522469E+01+
*       -2.266736213E+02               0
GRID*             167037               00.0000000000E+005.9589914794E+01+
*       -2.231176331E+02               0
GRID*             167038               00.0000000000E+005.7775486411E+01+
*       -2.245646242E+02               0
GRID*             167039               00.0000000000E+005.9177217775E+01+
*       -2.263117410E+02               0
GRID*             167040               00.0000000000E+005.6314654640E+01+
*       -2.228958957E+02               0
GRID*             167041               00.0000000000E+005.4594027564E+01+
*       -2.243978567E+02               0
GRID*             167042               00.0000000000E+005.6054859335E+01+
*       -2.260665852E+02               0
GRID*             167043               00.0000000000E+007.9646048027E+01+
*       -2.252526027E+02               0
GRID*             167044               00.0000000000E+007.8199538629E+01+
*       -2.265403827E+02               0
GRID*             167045               00.0000000000E+007.9405246717E+01+
*       -2.280368996E+02               0
GRID*             167046               00.0000000000E+008.0851756115E+01+
*       -2.267491196E+02               0
GRID*             167047               00.0000000000E+007.6919900865E+01+
*       -2.250543722E+02               0
GRID*             167048               00.0000000000E+007.5332208328E+01+
*       -2.264372879E+02               0
GRID*             167049               00.0000000000E+007.6611846092E+01+
*       -2.279232984E+02               0
GRID*             167050               00.0000000000E+007.4035585880E+01+
*       -2.249624395E+02               0
GRID*             167051               00.0000000000E+007.3765243142E+01+
*       -2.277940963E+02               0
GRID*             167052               00.0000000000E+008.8068655998E+01+
*       -2.275779136E+02               0
GRID*             167053               00.0000000000E+008.7716459332E+01+
*       -2.259683124E+02               0
GRID*             167054               00.0000000000E+008.6903465150E+01+
*       -2.267935661E+02               0
GRID*             167055               00.0000000000E+008.6125646834E+01+
*       -2.276878535E+02               0
GRID*             167056               00.0000000000E+008.7290837683E+01+
*       -2.284722010E+02               0
GRID*             167057               00.0000000000E+008.6260863433E+01+
*       -2.258559316E+02               0
GRID*             167058               00.0000000000E+008.2011247865E+01+
*       -2.253782492E+02               0
GRID*             167059               00.0000000000E+008.2178068815E+01+
*       -2.280376722E+02               0
GRID*             167060               00.0000000000E+008.3337560564E+01+
*       -2.266668018E+02               0
GRID*             167061               00.0000000000E+008.5471398380E+01+
*       -2.267025691E+02               0
GRID*             167062               00.0000000000E+008.4762389976E+01+
*       -2.258156406E+02               0
GRID*             167063               00.0000000000E+008.4161263345E+01+
*       -2.273193926E+02               0
GRID*             167064               00.0000000000E+008.4815511799E+01+
*       -2.283046771E+02               0
GRID*             167065               00.0000000000E+005.3121706796E+01+
*       -2.227888565E+02               0
GRID*             167066               00.0000000000E+005.1474803277E+01+
*       -2.242967514E+02               0
GRID*             167067               00.0000000000E+005.2947124045E+01+
*       -2.259057517E+02               0
GRID*             167068               00.0000000000E+005.0007361202E+01+
*       -2.227307151E+02               0
GRID*             167069               00.0000000000E+004.8408020355E+01+
*       -2.242316457E+02               0
GRID*             167070               00.0000000000E+004.9875462430E+01+
*       -2.257976821E+02               0
GRID*             167071               00.0000000000E+004.6949601774E+01+
*       -2.226969900E+02               0
GRID*             167072               00.0000000000E+004.5380393392E+01+
*       -2.241882162E+02               0
GRID*             167073               00.0000000000E+004.6838811973E+01+
*       -2.257228719E+02               0
GRID*             167074               00.0000000000E+004.3931189903E+01+
*       -2.226768449E+02               0
GRID*             167075               00.0000000000E+004.2380546580E+01+
*       -2.241581041E+02               0
GRID*             167076               00.0000000000E+004.3829750069E+01+
*       -2.256694754E+02               0
GRID*             167077               00.0000000000E+004.0939649545E+01+
*       -2.226640545E+02               0
GRID*             167078               00.0000000000E+003.9399153928E+01+
*       -2.241352102E+02               0
GRID*             167079               00.0000000000E+004.0840050963E+01+
*       -2.256292598E+02               0
GRID*             167080               00.0000000000E+003.7965297157E+01+
*       -2.226540306E+02               0
GRID*             167081               00.0000000000E+003.6428444790E+01+
*       -2.241142741E+02               0
GRID*             167082               00.0000000000E+003.7862301560E+01+
*       -2.255954537E+02               0
GRID*             167083               00.0000000000E+003.4999923265E+01+
*       -2.226429429E+02               0
GRID*             167084               00.0000000000E+003.3462057983E+01+
*       -2.240903903E+02               0
GRID*             167085               00.0000000000E+003.4890579507E+01+
*       -2.255617215E+02               0
GRID*             167086               00.0000000000E+003.2036181088E+01+
*       -2.226278728E+02               0
GRID*             167087               00.0000000000E+003.0495777116E+01+
*       -2.240591085E+02               0
GRID*             167088               00.0000000000E+003.1921654011E+01+
*       -2.255216260E+02               0
GRID*             167089               00.0000000000E+002.9068050585E+01+
*       -2.226084595E+02               0
GRID*             167090               00.0000000000E+002.7530690470E+01+
*       -2.240177779E+02               0
GRID*             167091               00.0000000000E+002.8958417001E+01+
*       -2.254684269E+02               0
GRID*             167092               00.0000000000E+002.6090781018E+01+
*       -2.225939292E+02               0
GRID*             167093               00.0000000000E+002.4579324655E+01+
*       -2.239720214E+02               0
GRID*             167094               00.0000000000E+002.6019234106E+01+
*       -2.253958701E+02               0
GRID*             167095               00.0000000000E+002.3127805430E+01+
*       -2.226260454E+02               0
GRID*             167096               00.0000000000E+002.1712893159E+01+
*       -2.239554845E+02               0
GRID*             167097               00.0000000000E+002.3164412385E+01+
*       -2.253014605E+02               0
GRID*             167098               00.0000000000E+002.0399514495E+01+
*       -2.228456258E+02               0
GRID*             167099               00.0000000000E+001.9226759762E+01+
*       -2.240836534E+02               0
GRID*             167100               00.0000000000E+002.0540138427E+01+
*       -2.251935121E+02               0
GRID*             167101               00.0000000000E+001.8100364000E+01+
*       -2.230738941E+02               0
GRID*             167102               00.0000000000E+001.8301295077E+01+
*       -2.250511711E+02               0
GRID*             167103               00.0000000000E+002.1285999050E+01+
*       -3.045787326E+02               0
GRID*             167104               00.0000000000E+001.9769160866E+01+
*       -3.030017852E+02               0
GRID*             167105               00.0000000000E+001.8081780209E+01+
*       -3.046404642E+02               0
GRID*             167106               00.0000000000E+001.9598618393E+01+
*       -3.062174116E+02               0
GRID*             167107               00.0000000000E+002.0906076960E+01+
*       -3.080170433E+02               0
GRID*             167108               00.0000000000E+001.7834757580E+01+
*       -3.077130861E+02               0
GRID*             167109               00.0000000000E+001.9142216147E+01+
*       -3.095127178E+02               0
GRID*             167110               00.0000000000E+002.1151788285E+01+
*       -3.141612691E+02               0
GRID*             167111               00.0000000000E+002.0323056061E+01+
*       -3.131066292E+02               0
GRID*             167112               00.0000000000E+001.9521270066E+01+
*       -3.144453598E+02               0
GRID*             167113               00.0000000000E+001.7931993068E+01+
*       -3.145726401E+02               0
GRID*             167114               00.0000000000E+001.8603260845E+01+
*       -3.135180010E+02               0
GRID*             167115               00.0000000000E+001.9904978253E+01+
*       -3.106652226E+02               0
GRID*             167116               00.0000000000E+001.7488933545E+01+
*       -3.104506319E+02               0
GRID*             167117               00.0000000000E+001.8251695652E+01+
*       -3.116031368E+02               0
GRID*             167118               00.0000000000E+001.9320755274E+01+
*       -3.124605531E+02               0
GRID*             167119               00.0000000000E+002.0907279041E+01+
*       -3.113112988E+02               0
GRID*             167120               00.0000000000E+001.7534201222E+01+
*       -3.126605847E+02               0
GRID*             167121               00.0000000000E+001.3546152344E+01+
*       -3.031966203E+02               0
GRID*             167122               00.0000000000E+001.3468154077E+01+
*       -3.062438128E+02               0
GRID*             167123               00.0000000000E+001.5016019241E+01+
*       -3.047003663E+02               0
GRID*             167124               00.0000000000E+001.6618328004E+01+
*       -3.031247086E+02               0
GRID*             167125               00.0000000000E+001.6479471446E+01+
*       -3.062161220E+02               0
GRID*             167126               00.0000000000E+001.2198459983E+01+
*       -3.133261092E+02               0
GRID*             167127               00.0000000000E+001.2456644662E+01+
*       -3.147558528E+02               0
GRID*             167128               00.0000000000E+001.6956706023E+01+
*       -3.138157324E+02               0
GRID*             167129               00.0000000000E+001.6374713813E+01+
*       -3.147430908E+02               0
GRID*             167130               00.0000000000E+001.5619544856E+01+
*       -3.142746650E+02               0
GRID*             167131               00.0000000000E+001.5094829040E+01+
*       -3.150315728E+02               0
GRID*             167132               00.0000000000E+001.3360318070E+01+
*       -3.093192041E+02               0
GRID*             167133               00.0000000000E+001.4889314247E+01+
*       -3.077637769E+02               0
GRID*             167134               00.0000000000E+001.6244600381E+01+
*       -3.092607410E+02               0
GRID*             167135               00.0000000000E+001.5445174070E+01+
*       -3.132007912E+02               0
GRID*             167136               00.0000000000E+001.6022669270E+01+
*       -3.120456436E+02               0
GRID*             167137               00.0000000000E+001.4778336106E+01+
*       -3.108557526E+02               0
GRID*             167138               00.0000000000E+002.3030610436E+01+
*       -3.027314923E+02               0
GRID*             167139               00.0000000000E+002.3017914940E+01+
*       -3.060850219E+02               0
GRID*             167140               00.0000000000E+002.4762526325E+01+
*       -3.042377816E+02               0
GRID*             167141               00.0000000000E+002.8046194908E+01+
*       -3.032021031E+02               0
GRID*             167142               00.0000000000E+002.6302318157E+01+
*       -3.021905332E+02               0
GRID*             167143               00.0000000000E+002.6506403076E+01+
*       -3.052493516E+02               0
GRID*             167144               00.0000000000E+003.1081120193E+01+
*       -3.026105269E+02               0
GRID*             167145               00.0000000000E+002.9451112771E+01+
*       -3.015764210E+02               0
GRID*             167146               00.0000000000E+002.9676202330E+01+
*       -3.042362090E+02               0
GRID*             167147               00.0000000000E+003.4068520546E+01+
*       -3.021804246E+02               0
GRID*             167148               00.0000000000E+003.2497024326E+01+
*       -3.011064604E+02               0
GRID*             167149               00.0000000000E+003.2652616412E+01+
*       -3.036844911E+02               0
GRID*             167150               00.0000000000E+003.7050964192E+01+
*       -3.018512468E+02               0
GRID*             167151               00.0000000000E+003.5506873178E+01+
*       -3.007418799E+02               0
GRID*             167152               00.0000000000E+003.5612611559E+01+
*       -3.032897915E+02               0
GRID*             167153               00.0000000000E+004.0038926495E+01+
*       -3.016002771E+02               0
GRID*             167154               00.0000000000E+003.8507609052E+01+
*       -3.004593890E+02               0
GRID*             167155               00.0000000000E+003.8582281634E+01+
*       -3.029921350E+02               0
GRID*             167156               00.0000000000E+004.3034856595E+01+
*       -3.014167393E+02               0
GRID*             167157               00.0000000000E+004.1509259566E+01+
*       -3.002463067E+02               0
GRID*             167158               00.0000000000E+004.1564523524E+01+
*       -3.027707097E+02               0
GRID*             167159               00.0000000000E+004.6038969861E+01+
*       -3.012946394E+02               0
GRID*             167160               00.0000000000E+004.4515386789E+01+
*       -3.000955214E+02               0
GRID*             167161               00.0000000000E+004.4558439667E+01+
*       -3.026158573E+02               0
GRID*             167162               00.0000000000E+004.9050775615E+01+
*       -3.012304356E+02               0
GRID*             167163               00.0000000000E+004.7527053568E+01+
*       -3.000028019E+02               0
GRID*             167164               00.0000000000E+004.7562691908E+01+
*       -3.025222731E+02               0
GRID*             167165               00.0000000000E+005.2069455148E+01+
*       -3.012221425E+02               0
GRID*             167166               00.0000000000E+005.0544243962E+01+
*       -2.999656027E+02               0
GRID*             167167               00.0000000000E+005.0575986801E+01+
*       -3.024869754E+02               0
GRID*             167168               00.0000000000E+005.5093902900E+01+
*       -3.012689033E+02               0
GRID*             167169               00.0000000000E+005.3566342669E+01+
*       -2.999825031E+02               0
GRID*             167170               00.0000000000E+005.3597015379E+01+
*       -3.025085427E+02               0
GRID*             167171               00.0000000000E+005.8122652947E+01+
*       -3.013707000E+02               0
GRID*             167172               00.0000000000E+005.6592266250E+01+
*       -3.000528737E+02               0
GRID*             167173               00.0000000000E+005.6624289597E+01+
*       -3.025867296E+02               0
GRID*             167174               00.0000000000E+006.1153747063E+01+
*       -3.015280444E+02               0
GRID*             167175               00.0000000000E+005.9620448852E+01+
*       -3.001765705E+02               0
GRID*             167176               00.0000000000E+005.9655951158E+01+
*       -3.027221738E+02               0
GRID*             167177               00.0000000000E+006.4184694557E+01+
*       -3.017416440E+02               0
GRID*             167178               00.0000000000E+006.2648790544E+01+
*       -3.003535429E+02               0
GRID*             167179               00.0000000000E+006.2689651076E+01+
*       -3.029161454E+02               0
GRID*             167180               00.0000000000E+006.7212763946E+01+
*       -3.020123256E+02               0
GRID*             167181               00.0000000000E+006.5674754717E+01+
*       -3.005834138E+02               0
GRID*             167182               00.0000000000E+006.5722703786E+01+
*       -3.031705558E+02               0
GRID*             167183               00.0000000000E+007.0235465419E+01+
*       -3.023411478E+02               0
GRID*             167184               00.0000000000E+006.8695698729E+01+
*       -3.008651447E+02               0
GRID*             167185               00.0000000000E+006.8752530636E+01+
*       -3.034883287E+02               0
GRID*             167186               00.0000000000E+007.3250660848E+01+
*       -3.027283258E+02               0
GRID*             167187               00.0000000000E+007.1709178316E+01+
*       -3.011962597E+02               0
GRID*             167188               00.0000000000E+007.1776947951E+01+
*       -3.038732139E+02               0
GRID*             167189               00.0000000000E+007.6255522678E+01+
*       -3.031685442E+02               0
GRID*             167190               00.0000000000E+007.4712787222E+01+
*       -3.015702881E+02               0
GRID*             167191               00.0000000000E+007.4793396304E+01+
*       -3.043265819E+02               0
GRID*             167192               00.0000000000E+007.9241073368E+01+
*       -3.036370131E+02               0
GRID*             167193               00.0000000000E+007.7703037097E+01+
*       -3.019709053E+02               0
GRID*             167194               00.0000000000E+007.7793558948E+01+
*       -3.048346520E+02               0
GRID*             167195               00.0000000000E+008.2196227864E+01+
*       -3.040561854E+02               0
GRID*             167196               00.0000000000E+008.0676213690E+01+
*       -3.023637811E+02               0
GRID*             167197               00.0000000000E+008.0761087542E+01+
*       -3.053294174E+02               0
GRID*             167198               00.0000000000E+008.5142356186E+01+
*       -3.044517503E+02               0
GRID*             167199               00.0000000000E+008.3635914242E+01+
*       -3.027188546E+02               0
GRID*             167200               00.0000000000E+008.3702669808E+01+
*       -3.057890810E+02               0
GRID*             167201               00.0000000000E+008.6587220151E+01+
*       -3.029948292E+02               0
GRID*             167202               00.0000000000E+008.6638204345E+01+
*       -3.060975295E+02               0
GRID*             167203               00.0000000000E+008.6729416720E+01+
*       -3.094466714E+02               0
GRID*             167204               00.0000000000E+008.5207830351E+01+
*       -3.077812181E+02               0
GRID*             167205               00.0000000000E+008.7446183828E+01+
*       -3.125980154E+02               0
GRID*             167206               00.0000000000E+008.5788943558E+01+
*       -3.111354258E+02               0
GRID*             167207               00.0000000000E+008.7491404563E+01+
*       -3.155874963E+02               0
GRID*             167208               00.0000000000E+008.6366637457E+01+
*       -3.141134050E+02               0
GRID*             167209               00.0000000000E+008.4735838303E+01+
*       -3.143402945E+02               0
GRID*             167210               00.0000000000E+008.5452474234E+01+
*       -3.129536994E+02               0
GRID*             167211               00.0000000000E+008.3167367403E+01+
*       -3.144545075E+02               0
GRID*             167212               00.0000000000E+008.3753204180E+01+
*       -3.132948020E+02               0
GRID*             167213               00.0000000000E+008.1639457568E+01+
*       -3.146034325E+02               0
GRID*             167214               00.0000000000E+008.2156823445E+01+
*       -3.135579400E+02               0
GRID*             167215               00.0000000000E+008.0321502868E+01+
*       -3.149097392E+02               0
GRID*             167216               00.0000000000E+008.0810958911E+01+
*       -3.140131716E+02               0
GRID*             167217               00.0000000000E+007.8897924977E+01+
*       -3.145525543E+02               0
GRID*             167218               00.0000000000E+007.9569426319E+01+
*       -3.139622935E+02               0
GRID*             167219               00.0000000000E+007.7053789710E+01+
*       -3.141589898E+02               0
GRID*             167220               00.0000000000E+007.7801713161E+01+
*       -3.132115441E+02               0
GRID*             167221               00.0000000000E+007.3708438547E+01+
*       -3.129572711E+02               0
GRID*             167222               00.0000000000E+007.5159654307E+01+
*       -3.123073537E+02               0
GRID*             167223               00.0000000000E+007.0543962403E+01+
*       -3.122775464E+02               0
GRID*             167224               00.0000000000E+007.2056318255E+01+
*       -3.114670609E+02               0
GRID*             167225               00.0000000000E+006.7427047698E+01+
*       -3.118142421E+02               0
GRID*             167226               00.0000000000E+006.8952566574E+01+
*       -3.109048392E+02               0
GRID*             167227               00.0000000000E+006.4333890889E+01+
*       -3.114766166E+02               0
GRID*             167228               00.0000000000E+006.5863292925E+01+
*       -3.105010879E+02               0
GRID*             167229               00.0000000000E+006.1256599487E+01+
*       -3.112270590E+02               0
GRID*             167230               00.0000000000E+006.2787478125E+01+
*       -3.102029818E+02               0
GRID*             167231               00.0000000000E+005.8193063189E+01+
*       -3.110482772E+02               0
GRID*             167232               00.0000000000E+005.9723472396E+01+
*       -3.099851437E+02               0
GRID*             167233               00.0000000000E+005.5143395145E+01+
*       -3.109316058E+02               0
GRID*             167234               00.0000000000E+005.6671338538E+01+
*       -3.098350129E+02               0
GRID*             167235               00.0000000000E+005.2108339895E+01+
*       -3.108723617E+02               0
GRID*             167236               00.0000000000E+005.3631999553E+01+
*       -3.097460433E+02               0
GRID*             167237               00.0000000000E+004.9088931067E+01+
*       -3.108681553E+02               0
GRID*             167238               00.0000000000E+005.0606675384E+01+
*       -3.097148085E+02               0
GRID*             167239               00.0000000000E+004.6086728367E+01+
*       -3.109183067E+02               0
GRID*             167240               00.0000000000E+004.7596913708E+01+
*       -3.097399172E+02               0
GRID*             167241               00.0000000000E+004.3104298705E+01+
*       -3.110235623E+02               0
GRID*             167242               00.0000000000E+004.4604992715E+01+
*       -3.098216010E+02               0
GRID*             167243               00.0000000000E+004.0145949452E+01+
*       -3.111857201E+02               0
GRID*             167244               00.0000000000E+004.1634637906E+01+
*       -3.099613956E+02               0
GRID*             167245               00.0000000000E+003.7218763798E+01+
*       -3.114068143E+02               0
GRID*             167246               00.0000000000E+003.8692188775E+01+
*       -3.101614766E+02               0
GRID*             167247               00.0000000000E+003.4333583767E+01+
*       -3.116875270E+02               0
GRID*             167248               00.0000000000E+003.5788328422E+01+
*       -3.104230305E+02               0
GRID*             167249               00.0000000000E+003.1503850674E+01+
*       -3.120251774E+02               0
GRID*             167250               00.0000000000E+003.2939655579E+01+
*       -3.107425627E+02               0
GRID*             167251               00.0000000000E+002.8734401901E+01+
*       -3.124170219E+02               0
GRID*             167252               00.0000000000E+003.0165452924E+01+
*       -3.111054445E+02               0
GRID*             167253               00.0000000000E+002.5980063102E+01+
*       -3.129129584E+02               0
GRID*             167254               00.0000000000E+002.7466972478E+01+
*       -3.114953306E+02               0
GRID*             167255               00.0000000000E+002.3014003638E+01+
*       -3.138850643E+02               0
GRID*             167256               00.0000000000E+002.4781319933E+01+
*       -3.119829180E+02               0
GRID*             167257               00.0000000000E+002.2315789633E+01+
*       -3.125463334E+02               0
GRID*             167258               00.0000000000E+002.2181687797E+01+
*       -3.095414818E+02               0
GRID*             167259               00.0000000000E+002.3590198390E+01+
*       -3.107765164E+02               0
GRID*             167260               00.0000000000E+002.4293525777E+01+
*       -3.076094603E+02               0
GRID*             167261               00.0000000000E+008.2284560131E+01+
*       -3.070916529E+02               0
GRID*             167262               00.0000000000E+008.3789720674E+01+
*       -3.090837900E+02               0
GRID*             167263               00.0000000000E+008.3159295016E+01+
*       -3.112038550E+02               0
GRID*             167264               00.0000000000E+008.2590635461E+01+
*       -3.123018241E+02               0
GRID*             167265               00.0000000000E+008.4321863735E+01+
*       -3.121968329E+02               0
GRID*             167266               00.0000000000E+008.4658333060E+01+
*       -3.103785593E+02               0
GRID*             167267               00.0000000000E+008.2290682631E+01+
*       -3.099090857E+02               0
GRID*             167268               00.0000000000E+007.9365036741E+01+
*       -3.066084749E+02               0
GRID*             167269               00.0000000000E+008.0888509330E+01+
*       -3.083707103E+02               0
GRID*             167270               00.0000000000E+008.0975752458E+01+
*       -3.112894971E+02               0
GRID*             167271               00.0000000000E+007.9573579158E+01+
*       -3.097511217E+02               0
GRID*             167272               00.0000000000E+007.9300407851E+01+
*       -3.124947349E+02               0
GRID*             167273               00.0000000000E+008.0541940443E+01+
*       -3.125456130E+02               0
GRID*             167274               00.0000000000E+002.8819174436E+01+
*       -3.101622357E+02               0
GRID*             167275               00.0000000000E+002.7592107360E+01+
*       -3.091721341E+02               0
GRID*             167276               00.0000000000E+002.6239905401E+01+
*       -3.105052290E+02               0
GRID*             167277               00.0000000000E+002.5048783858E+01+
*       -3.092988275E+02               0
GRID*             167278               00.0000000000E+002.7623779658E+01+
*       -3.070404394E+02               0
GRID*             167279               00.0000000000E+002.8445929661E+01+
*       -3.056890338E+02               0
GRID*             167280               00.0000000000E+002.5684253073E+01+
*       -3.066007573E+02               0
GRID*             167281               00.0000000000E+002.6439511155E+01+
*       -3.082901244E+02               0
GRID*             167282               00.0000000000E+002.8776375863E+01+
*       -3.079224492E+02               0
GRID*             167283               00.0000000000E+003.0057579605E+01+
*       -3.065731266E+02               0
GRID*             167284               00.0000000000E+003.1287852274E+01+
*       -3.051203019E+02               0
GRID*             167285               00.0000000000E+003.0177463012E+01+
*       -3.088365706E+02               0
GRID*             167286               00.0000000000E+003.1458666754E+01+
*       -3.074872480E+02               0
GRID*             167287               00.0000000000E+003.1523741499E+01+
*       -3.097797794E+02               0
GRID*             167288               00.0000000000E+003.5769666548E+01+
*       -3.081099422E+02               0
GRID*             167289               00.0000000000E+003.7190885485E+01+
*       -3.067643890E+02               0
GRID*             167290               00.0000000000E+003.5709789411E+01+
*       -3.057423982E+02               0
GRID*             167291               00.0000000000E+003.4288570474E+01+
*       -3.070879514E+02               0
GRID*             167292               00.0000000000E+003.8680741158E+01+
*       -3.078306093E+02               0
GRID*             167293               00.0000000000E+004.0133625442E+01+
*       -3.065140517E+02               0
GRID*             167294               00.0000000000E+003.8643769769E+01+
*       -3.054478315E+02               0
GRID*             167295               00.0000000000E+004.1629661011E+01+
*       -3.076183867E+02               0
GRID*             167296               00.0000000000E+004.3102647866E+01+
*       -3.063314552E+02               0
GRID*             167297               00.0000000000E+004.1606612297E+01+
*       -3.052271203E+02               0
GRID*             167298               00.0000000000E+004.4604244522E+01+
*       -3.074701222E+02               0
GRID*             167299               00.0000000000E+004.6090912261E+01+
*       -3.062118851E+02               0
GRID*             167300               00.0000000000E+004.4589315604E+01+
*       -3.050732182E+02               0
GRID*             167301               00.0000000000E+004.7598086855E+01+
*       -3.073825759E+02               0
GRID*             167302               00.0000000000E+004.9094506308E+01+
*       -3.061521188E+02               0
GRID*             167303               00.0000000000E+004.7587331714E+01+
*       -3.049814280E+02               0
GRID*             167304               00.0000000000E+005.0607532962E+01+
*       -3.073536318E+02               0
GRID*             167305               00.0000000000E+005.2110962604E+01+
*       -3.061504996E+02               0
GRID*             167306               00.0000000000E+005.0597935950E+01+
*       -3.049489867E+02               0
GRID*             167307               00.0000000000E+005.3630226685E+01+
*       -3.073826199E+02               0
GRID*             167308               00.0000000000E+005.5138422595E+01+
*       -3.062068784E+02               0
GRID*             167309               00.0000000000E+005.3619158514E+01+
*       -3.049747581E+02               0
GRID*             167310               00.0000000000E+005.6664340732E+01+
*       -3.074704172E+02               0
GRID*             167311               00.0000000000E+005.8175139411E+01+
*       -3.063225683E+02               0
GRID*             167312               00.0000000000E+005.6649221275E+01+
*       -3.050590294E+02               0
GRID*             167313               00.0000000000E+005.9708149424E+01+
*       -3.076196385E+02               0
GRID*             167314               00.0000000000E+006.1219187134E+01+
*       -3.065004660E+02               0
GRID*             167315               00.0000000000E+005.9686177122E+01+
*       -3.052033958E+02               0
GRID*             167316               00.0000000000E+006.2759945988E+01+
*       -3.078353411E+02               0
GRID*             167317               00.0000000000E+006.4268531055E+01+
*       -3.067457775E+02               0
GRID*             167318               00.0000000000E+006.2727772201E+01+
*       -3.054109024E+02               0
GRID*             167319               00.0000000000E+006.5818464302E+01+
*       -3.081270006E+02               0
GRID*             167320               00.0000000000E+006.7321640521E+01+
*       -3.070681058E+02               0
GRID*             167321               00.0000000000E+006.5771707274E+01+
*       -3.056868827E+02               0
GRID*             167322               00.0000000000E+006.8883840268E+01+
*       -3.085128431E+02               0
GRID*             167323               00.0000000000E+007.0378479908E+01+
*       -3.074855232E+02               0
GRID*             167324               00.0000000000E+006.8816280162E+01+
*       -3.060407859E+02               0
GRID*             167325               00.0000000000E+007.1959300468E+01+
*       -3.090287215E+02               0
GRID*             167326               00.0000000000E+007.3441774128E+01+
*       -3.080315643E+02               0
GRID*             167327               00.0000000000E+007.1860953568E+01+
*       -3.064883661E+02               0
GRID*             167328               00.0000000000E+007.5058617747E+01+
*       -3.097530498E+02               0
GRID*             167329               00.0000000000E+007.6523098137E+01+
*       -3.087737972E+02               0
GRID*             167330               00.0000000000E+007.4906254517E+01+
*       -3.070523118E+02               0
GRID*             167331               00.0000000000E+003.2826491946E+01+
*       -3.061200300E+02               0
GRID*             167332               00.0000000000E+003.4191256084E+01+
*       -3.046842192E+02               0
GRID*             167333               00.0000000000E+003.7131144887E+01+
*       -3.043479704E+02               0
GRID*             167334               00.0000000000E+004.0094906516E+01+
*       -3.040919960E+02               0
GRID*             167335               00.0000000000E+004.3076229305E+01+
*       -3.039058340E+02               0
GRID*             167336               00.0000000000E+004.6071525967E+01+
*       -3.037832415E+02               0
GRID*             167337               00.0000000000E+004.9078497656E+01+
*       -3.037204596E+02               0
GRID*             167338               00.0000000000E+005.2095425096E+01+
*       -3.037155024E+02               0
GRID*             167339               00.0000000000E+005.5120748798E+01+
*       -3.037677985E+02               0
GRID*             167340               00.0000000000E+005.8152762074E+01+
*       -3.038779606E+02               0
GRID*             167341               00.0000000000E+006.1189366205E+01+
*       -3.040476090E+02               0
GRID*             167342               00.0000000000E+006.4228057071E+01+
*       -3.042794389E+02               0
GRID*             167343               00.0000000000E+006.7266353989E+01+
*       -3.045779996E+02               0
GRID*             167344               00.0000000000E+007.0302456809E+01+
*       -3.049511150E+02               0
GRID*             167345               00.0000000000E+007.3335444710E+01+
*       -3.054104649E+02               0
GRID*             167346               00.0000000000E+007.6364206111E+01+
*       -3.059684288E+02               0
GRID*             167347               00.0000000000E+007.7935683903E+01+
*       -3.077422516E+02               0
GRID*             167348               00.0000000000E+007.8160993391E+01+
*       -3.107826673E+02               0
GRID*             167349               00.0000000000E+007.6662298701E+01+
*       -3.114994766E+02               0
GRID*             167350               00.0000000000E+007.3555973354E+01+
*       -3.105609269E+02               0
GRID*             167351               00.0000000000E+007.0459645369E+01+
*       -3.099348554E+02               0
GRID*             167352               00.0000000000E+006.7376761473E+01+
*       -3.094828268E+02               0
GRID*             167353               00.0000000000E+006.4304995754E+01+
*       -3.091452616E+02               0
GRID*             167354               00.0000000000E+006.1242428359E+01+
*       -3.088930613E+02               0
GRID*             167355               00.0000000000E+005.8189193461E+01+
*       -3.087117209E+02               0
GRID*             167356               00.0000000000E+005.5146485809E+01+
*       -3.085937092E+02               0
GRID*             167357               00.0000000000E+005.2115740429E+01+
*       -3.085349540E+02               0
GRID*             167358               00.0000000000E+004.9098467917E+01+
*       -3.085334863E+02               0
GRID*             167359               00.0000000000E+004.6096532646E+01+
*       -3.085890068E+02               0
GRID*             167360               00.0000000000E+004.3112704591E+01+
*       -3.087027164E+02               0
GRID*             167361               00.0000000000E+004.0151594325E+01+
*       -3.088770659E+02               0
GRID*             167362               00.0000000000E+003.7221335608E+01+
*       -3.091150200E+02               0
GRID*             167363               00.0000000000E+003.4336659361E+01+
*       -3.094179527E+02               0
GRID*             167364               00.0000000000E+003.2920745282E+01+
*       -3.084551694E+02               0
GRID*             167365               00.0000000000E+001.5095996807E+01+
*       -3.016442480E+02               0
GRID*             167366               00.0000000000E+001.3587186674E+01+
*       -3.001650185E+02               0
GRID*             167367               00.0000000000E+001.3603625087E+01+
*       -2.971538598E+02               0
GRID*             167368               00.0000000000E+001.5132950692E+01+
*       -2.986076455E+02               0
GRID*             167369               00.0000000000E+001.3605898450E+01+
*       -2.941597494E+02               0
GRID*             167370               00.0000000000E+001.5143887952E+01+
*       -2.955959761E+02               0
GRID*             167371               00.0000000000E+001.3601045635E+01+
*       -2.911779698E+02               0
GRID*             167372               00.0000000000E+001.5141004255E+01+
*       -2.926039629E+02               0
GRID*             167373               00.0000000000E+001.3593109651E+01+
*       -2.882042674E+02               0
GRID*             167374               00.0000000000E+001.5131726533E+01+
*       -2.896254234E+02               0
GRID*             167375               00.0000000000E+001.3584135632E+01+
*       -2.852354557E+02               0
GRID*             167376               00.0000000000E+001.5119997749E+01+
*       -2.866553041E+02               0
GRID*             167377               00.0000000000E+001.3574992189E+01+
*       -2.822694077E+02               0
GRID*             167378               00.0000000000E+001.5107651214E+01+
*       -2.836900544E+02               0
GRID*             167379               00.0000000000E+001.3565929822E+01+
*       -2.793048223E+02               0
GRID*             167380               00.0000000000E+001.5095367692E+01+
*       -2.807274045E+02               0
GRID*             167381               00.0000000000E+001.3556400610E+01+
*       -2.763418476E+02               0
GRID*             167382               00.0000000000E+001.5082751201E+01+
*       -2.777668798E+02               0
GRID*             167383               00.0000000000E+001.8129942146E+01+
*       -2.776463873E+02               0
GRID*             167384               00.0000000000E+001.6598358004E+01+
*       -2.762285138E+02               0
GRID*             167385               00.0000000000E+001.6614335343E+01+
*       -2.791847533E+02               0
GRID*             167386               00.0000000000E+002.1181095386E+01+
*       -2.775184614E+02               0
GRID*             167387               00.0000000000E+001.9644545151E+01+
*       -2.761076752E+02               0
GRID*             167388               00.0000000000E+001.9666492382E+01+
*       -2.790571735E+02               0
GRID*             167389               00.0000000000E+002.4235100427E+01+
*       -2.773853214E+02               0
GRID*             167390               00.0000000000E+002.2694144575E+01+
*       -2.759810769E+02               0
GRID*             167391               00.0000000000E+002.2722051238E+01+
*       -2.789227060E+02               0
GRID*             167392               00.0000000000E+002.7290513944E+01+
*       -2.772504536E+02               0
GRID*             167393               00.0000000000E+002.5746102786E+01+
*       -2.758513425E+02               0
GRID*             167394               00.0000000000E+002.5779511585E+01+
*       -2.787844325E+02               0
GRID*             167395               00.0000000000E+003.0346122883E+01+
*       -2.771178852E+02               0
GRID*             167396               00.0000000000E+002.8799258757E+01+
*       -2.757219733E+02               0
GRID*             167397               00.0000000000E+002.8837378070E+01+
*       -2.786463655E+02               0
GRID*             167398               00.0000000000E+003.3401259192E+01+
*       -2.769916504E+02               0
GRID*             167399               00.0000000000E+003.1852795999E+01+
*       -2.755966896E+02               0
GRID*             167400               00.0000000000E+003.1894586075E+01+
*       -2.785128460E+02               0
GRID*             167401               00.0000000000E+003.6455836334E+01+
*       -2.768755273E+02               0
GRID*             167402               00.0000000000E+003.4906432575E+01+
*       -2.754790673E+02               0
GRID*             167403               00.0000000000E+003.4950662951E+01+
*       -2.783881104E+02               0
GRID*             167404               00.0000000000E+003.9510189238E+01+
*       -2.767729913E+02               0
GRID*             167405               00.0000000000E+003.7960372916E+01+
*       -2.753724474E+02               0
GRID*             167406               00.0000000000E+003.8005652656E+01+
*       -2.782760712E+02               0
GRID*             167407               00.0000000000E+004.2564811192E+01+
*       -2.766872727E+02               0
GRID*             167408               00.0000000000E+004.1015098576E+01+
*       -2.752800083E+02               0
GRID*             167409               00.0000000000E+004.1059901853E+01+
*       -2.781802557E+02               0
GRID*             167410               00.0000000000E+004.5620061862E+01+
*       -2.766213907E+02               0
GRID*             167411               00.0000000000E+004.4071078600E+01+
*       -2.752048529E+02               0
GRID*             167412               00.0000000000E+004.4113794454E+01+
*       -2.781038105E+02               0
GRID*             167413               00.0000000000E+004.8675903222E+01+
*       -2.765780775E+02               0
GRID*             167414               00.0000000000E+004.7128464789E+01+
*       -2.751499891E+02               0
GRID*             167415               00.0000000000E+004.7167500296E+01+
*       -2.780494791E+02               0
GRID*             167416               00.0000000000E+005.1731728745E+01+
*       -2.765595525E+02               0
GRID*             167417               00.0000000000E+005.0186840866E+01+
*       -2.751181315E+02               0
GRID*             167418               00.0000000000E+005.0220791101E+01+
*       -2.780194985E+02               0
GRID*             167419               00.0000000000E+005.4786361531E+01+
*       -2.765672072E+02               0
GRID*             167420               00.0000000000E+005.3245118065E+01+
*       -2.751113391E+02               0
GRID*             167421               00.0000000000E+005.3272972211E+01+
*       -2.780154206E+02               0
GRID*             167422               00.0000000000E+005.7838250880E+01+
*       -2.766013638E+02               0
GRID*             167423               00.0000000000E+005.6301655037E+01+
*       -2.751306387E+02               0
GRID*             167424               00.0000000000E+005.6322957373E+01+
*       -2.780379323E+02               0
GRID*             167425               00.0000000000E+006.0885785825E+01+
*       -2.766612694E+02               0
GRID*             167426               00.0000000000E+005.9354575364E+01+
*       -2.751758579E+02               0
GRID*             167427               00.0000000000E+005.9369461340E+01+
*       -2.780867752E+02               0
GRID*             167428               00.0000000000E+006.3927579657E+01+
*       -2.767452715E+02               0
GRID*             167429               00.0000000000E+006.2402133137E+01+
*       -2.752457415E+02               0
GRID*             167430               00.0000000000E+006.2411232345E+01+
*       -2.781607993E+02               0
GRID*             167431               00.0000000000E+006.6962634693E+01+
*       -2.768509958E+02               0
GRID*             167432               00.0000000000E+006.5442974413E+01+
*       -2.753381981E+02               0
GRID*             167433               00.0000000000E+006.5447239936E+01+
*       -2.782580692E+02               0
GRID*             167434               00.0000000000E+006.9990372307E+01+
*       -2.769753335E+02               0
GRID*             167435               00.0000000000E+006.8476238617E+01+
*       -2.754504579E+02               0
GRID*             167436               00.0000000000E+006.8476768383E+01+
*       -2.783758714E+02               0
GRID*             167437               00.0000000000E+007.3010568053E+01+
*       -2.771142050E+02               0
GRID*             167438               00.0000000000E+007.1501524928E+01+
*       -2.755790010E+02               0
GRID*             167439               00.0000000000E+007.1499415432E+01+
*       -2.785105375E+02               0
GRID*             167440               00.0000000000E+007.6023276643E+01+
*       -2.772624260E+02               0
GRID*             167441               00.0000000000E+007.4518795042E+01+
*       -2.757193605E+02               0
GRID*             167442               00.0000000000E+007.4515049654E+01+
*       -2.786572705E+02               0
GRID*             167443               00.0000000000E+007.9028829843E+01+
*       -2.774141862E+02               0
GRID*             167444               00.0000000000E+007.7528302595E+01+
*       -2.758661941E+02               0
GRID*             167445               00.0000000000E+007.7523803892E+01+
*       -2.788104181E+02               0
GRID*             167446               00.0000000000E+008.2027919958E+01+
*       -2.775642439E+02               0
GRID*             167447               00.0000000000E+008.0530607717E+01+
*       -2.760139923E+02               0
GRID*             167448               00.0000000000E+008.0526142084E+01+
*       -2.789644378E+02               0
GRID*             167449               00.0000000000E+008.5021691045E+01+
*       -2.777094062E+02               0
GRID*             167450               00.0000000000E+008.3526657299E+01+
*       -2.761583292E+02               0
GRID*             167451               00.0000000000E+008.3522953704E+01+
*       -2.791153209E+02               0
GRID*             167452               00.0000000000E+008.6518021935E+01+
*       -2.762984933E+02               0
GRID*             167453               00.0000000000E+008.6515641612E+01+
*       -2.792622040E+02               0
GRID*             167454               00.0000000000E+008.6515292893E+01+
*       -2.822238126E+02               0
GRID*             167455               00.0000000000E+008.5019920131E+01+
*       -2.806686222E+02               0
GRID*             167456               00.0000000000E+008.6516651947E+01+
*       -2.851818875E+02               0
GRID*             167457               00.0000000000E+008.5020658593E+01+
*       -2.836241573E+02               0
GRID*             167458               00.0000000000E+008.6519666211E+01+
*       -2.881369914E+02               0
GRID*             167459               00.0000000000E+008.5023646011E+01+
*       -2.865751543E+02               0
GRID*             167460               00.0000000000E+008.6524428929E+01+
*       -2.910902749E+02               0
GRID*             167461               00.0000000000E+008.5028945158E+01+
*       -2.895227134E+02               0
GRID*             167462               00.0000000000E+008.6531475345E+01+
*       -2.940442500E+02               0
GRID*             167463               00.0000000000E+008.5037017819E+01+
*       -2.924690390E+02               0
GRID*             167464               00.0000000000E+008.6542311433E+01+
*       -2.970040568E+02               0
GRID*             167465               00.0000000000E+008.5049216982E+01+
*       -2.954186715E+02               0
GRID*             167466               00.0000000000E+008.6559962344E+01+
*       -2.999799711E+02               0
GRID*             167467               00.0000000000E+008.5068378627E+01+
*       -2.983807359E+02               0
GRID*             167468               00.0000000000E+008.5096915392E+01+
*       -3.013757517E+02               0
GRID*             167469               00.0000000000E+008.2136251743E+01+
*       -3.010693487E+02               0
GRID*             167470               00.0000000000E+008.3597252893E+01+
*       -2.997262458E+02               0
GRID*             167471               00.0000000000E+007.9167696457E+01+
*       -3.007223224E+02               0
GRID*             167472               00.0000000000E+008.0627734511E+01+
*       -2.994278901E+02               0
GRID*             167473               00.0000000000E+007.6184130419E+01+
*       -3.003509313E+02               0
GRID*             167474               00.0000000000E+007.7648789779E+01+
*       -2.991023484E+02               0
GRID*             167475               00.0000000000E+007.3187020205E+01+
*       -2.999903539E+02               0
GRID*             167476               00.0000000000E+007.4658363403E+01+
*       -2.987709971E+02               0
GRID*             167477               00.0000000000E+007.0179411462E+01+
*       -2.996611950E+02               0
GRID*             167478               00.0000000000E+007.1657253351E+01+
*       -2.984552891E+02               0
GRID*             167479               00.0000000000E+006.7163432174E+01+
*       -2.993735621E+02               0
GRID*             167480               00.0000000000E+006.8647144907E+01+
*       -2.981696124E+02               0
GRID*             167481               00.0000000000E+006.4141188336E+01+
*       -2.991322719E+02               0
GRID*             167482               00.0000000000E+006.5629865793E+01+
*       -2.979224202E+02               0
GRID*             167483               00.0000000000E+006.1115019859E+01+
*       -2.989397984E+02               0
GRID*             167484               00.0000000000E+006.2607417650E+01+
*       -2.977185274E+02               0
GRID*             167485               00.0000000000E+005.8087318923E+01+
*       -2.987974699E+02               0
GRID*             167486               00.0000000000E+005.9581889930E+01+
*       -2.975606977E+02               0
GRID*             167487               00.0000000000E+005.5060194200E+01+
*       -2.987059173E+02               0
GRID*             167488               00.0000000000E+005.6555246873E+01+
*       -2.974505135E+02               0
GRID*             167489               00.0000000000E+005.2035272122E+01+
*       -2.986654965E+02               0
GRID*             167490               00.0000000000E+005.3529123653E+01+
*       -2.973889107E+02               0
GRID*             167491               00.0000000000E+004.9013683356E+01+
*       -2.986767040E+02               0
GRID*             167492               00.0000000000E+005.0504711516E+01+
*       -2.973765978E+02               0
GRID*             167493               00.0000000000E+004.5996064138E+01+
*       -2.987404753E+02               0
GRID*             167494               00.0000000000E+004.7482693926E+01+
*       -2.974143774E+02               0
GRID*             167495               00.0000000000E+004.2982467175E+01+
*       -2.988584168E+02               0
GRID*             167496               00.0000000000E+004.4463144524E+01+
*       -2.975033707E+02               0
GRID*             167497               00.0000000000E+003.9972081434E+01+
*       -2.990330737E+02               0
GRID*             167498               00.0000000000E+004.1445289043E+01+
*       -2.976451838E+02               0
GRID*             167499               00.0000000000E+003.6962493080E+01+
*       -2.992683759E+02               0
GRID*             167500               00.0000000000E+003.8426965462E+01+
*       -2.978420607E+02               0
GRID*             167501               00.0000000000E+003.3947867631E+01+
*       -2.995705071E+02               0
GRID*             167502               00.0000000000E+003.5403487533E+01+
*       -2.980970030E+02               0
GRID*             167503               00.0000000000E+003.0914684602E+01+
*       -2.999494493E+02               0
GRID*             167504               00.0000000000E+003.2365527907E+01+
*       -2.984134960E+02               0
GRID*             167505               00.0000000000E+002.7832602605E+01+
*       -3.004198566E+02               0
GRID*             167506               00.0000000000E+002.9296174437E+01+
*       -2.987928849E+02               0
GRID*             167507               00.0000000000E+002.4641245355E+01+
*       -3.009922309E+02               0
GRID*             167508               00.0000000000E+002.6171529804E+01+
*       -2.992215543E+02               0
GRID*             167509               00.0000000000E+002.1382614624E+01+
*       -3.013498034E+02               0
GRID*             167510               00.0000000000E+002.2993249544E+01+
*       -2.996105419E+02               0
GRID*             167511               00.0000000000E+001.8199854808E+01+
*       -3.015315447E+02               0
GRID*             167512               00.0000000000E+001.9813308567E+01+
*       -2.998795629E+02               0
GRID*             167513               00.0000000000E+001.6677523612E+01+
*       -3.000510841E+02               0
GRID*             167514               00.0000000000E+001.8239235400E+01+
*       -2.984623796E+02               0
GRID*             167515               00.0000000000E+001.6694662480E+01+
*       -2.970189410E+02               0
GRID*             167516               00.0000000000E+001.6691165550E+01+
*       -2.940168997E+02               0
GRID*             167517               00.0000000000E+001.8241940078E+01+
*       -2.954398646E+02               0
GRID*             167518               00.0000000000E+001.6678645571E+01+
*       -2.910347707E+02               0
GRID*             167519               00.0000000000E+001.8228806865E+01+
*       -2.924477075E+02               0
GRID*             167520               00.0000000000E+001.6662886583E+01+
*       -2.880647580E+02               0
GRID*             167521               00.0000000000E+001.8209805621E+01+
*       -2.894741053E+02               0
GRID*             167522               00.0000000000E+001.6646509739E+01+
*       -2.851015701E+02               0
GRID*             167523               00.0000000000E+001.8189398574E+01+
*       -2.865110240E+02               0
GRID*             167524               00.0000000000E+001.6630483068E+01+
*       -2.821418782E+02               0
GRID*             167525               00.0000000000E+001.8169341594E+01+
*       -2.835533938E+02               0
GRID*             167526               00.0000000000E+001.8149450719E+01+
*       -2.805992270E+02               0
GRID*             167527               00.0000000000E+002.1206928175E+01+
*       -2.804632100E+02               0
GRID*             167528               00.0000000000E+001.9689886513E+01+
*       -2.820052635E+02               0
GRID*             167529               00.0000000000E+002.4267003484E+01+
*       -2.803206104E+02               0
GRID*             167530               00.0000000000E+002.2751880421E+01+
*       -2.818611144E+02               0
GRID*             167531               00.0000000000E+002.7327760294E+01+
*       -2.801754400E+02               0
GRID*             167532               00.0000000000E+002.5815252193E+01+
*       -2.817116179E+02               0
GRID*             167533               00.0000000000E+003.0387623099E+01+
*       -2.800324796E+02               0
GRID*             167534               00.0000000000E+002.8878005324E+01+
*       -2.815615542E+02               0
GRID*             167535               00.0000000000E+003.3445705274E+01+
*       -2.798966061E+02               0
GRID*             167536               00.0000000000E+003.1938742298E+01+
*       -2.814162397E+02               0
GRID*             167537               00.0000000000E+003.6501803036E+01+
*       -2.797723676E+02               0
GRID*             167538               00.0000000000E+003.4996845358E+01+
*       -2.812808633E+02               0
GRID*             167539               00.0000000000E+003.9556193294E+01+
*       -2.796637895E+02               0
GRID*             167540               00.0000000000E+003.8052343675E+01+
*       -2.811600859E+02               0
GRID*             167541               00.0000000000E+004.2609351171E+01+
*       -2.795743459E+02               0
GRID*             167542               00.0000000000E+004.1105642612E+01+
*       -2.810578797E+02               0
GRID*             167543               00.0000000000E+004.5661673241E+01+
*       -2.795069829E+02               0
GRID*             167544               00.0000000000E+004.4157229958E+01+
*       -2.809775183E+02               0
GRID*             167545               00.0000000000E+004.8713258145E+01+
*       -2.794641013E+02               0
GRID*             167546               00.0000000000E+004.7207431091E+01+
*       -2.809216051E+02               0
GRID*             167547               00.0000000000E+005.1763782321E+01+
*       -2.794474663E+02               0
GRID*             167548               00.0000000000E+005.0256249365E+01+
*       -2.808920690E+02               0
GRID*             167549               00.0000000000E+005.4812499997E+01+
*       -2.794580686E+02               0
GRID*             167550               00.0000000000E+005.3303310107E+01+
*       -2.808901143E+02               0
GRID*             167551               00.0000000000E+005.7858367147E+01+
*       -2.794960196E+02               0
GRID*             167552               00.0000000000E+005.6347909770E+01+
*       -2.809161560E+02               0
GRID*             167553               00.0000000000E+006.0900240442E+01+
*       -2.795605469E+02               0
GRID*             167554               00.0000000000E+005.9389146248E+01+
*       -2.809697913E+02               0
GRID*             167555               00.0000000000E+006.3937074821E+01+
*       -2.796500719E+02               0
GRID*             167556               00.0000000000E+006.2426082918E+01+
*       -2.810498195E+02               0
GRID*             167557               00.0000000000E+006.6968058037E+01+
*       -2.797622534E+02               0
GRID*             167558               00.0000000000E+006.5457892923E+01+
*       -2.811542562E+02               0
GRID*             167559               00.0000000000E+006.9992655188E+01+
*       -2.798938553E+02               0
GRID*             167560               00.0000000000E+006.8483944843E+01+
*       -2.812802373E+02               0
GRID*             167561               00.0000000000E+007.3010587026E+01+
*       -2.800404800E+02               0
GRID*             167562               00.0000000000E+007.1503826782E+01+
*       -2.814237979E+02               0
GRID*             167563               00.0000000000E+007.6021813435E+01+
*       -2.801965651E+02               0
GRID*             167564               00.0000000000E+007.4517350806E+01+
*       -2.815797746E+02               0
GRID*             167565               00.0000000000E+007.9026583411E+01+
*       -2.803561257E+02               0
GRID*             167566               00.0000000000E+007.7524592954E+01+
*       -2.817422727E+02               0
GRID*             167567               00.0000000000E+008.2025548417E+01+
*       -2.805140406E+02               0
GRID*             167568               00.0000000000E+008.0525989744E+01+
*       -2.819057285E+02               0
GRID*             167569               00.0000000000E+008.3522514845E+01+
*       -2.820673420E+02               0
GRID*             167570               00.0000000000E+008.3525038683E+01+
*       -2.850146823E+02               0
GRID*             167571               00.0000000000E+008.2026894935E+01+
*       -2.834578669E+02               0
GRID*             167572               00.0000000000E+008.3530380254E+01+
*       -2.879563589E+02               0
GRID*             167573               00.0000000000E+008.2031772926E+01+
*       -2.863958868E+02               0
GRID*             167574               00.0000000000E+008.3538808882E+01+
*       -2.908937127E+02               0
GRID*             167575               00.0000000000E+008.2040243978E+01+
*       -2.893273581E+02               0
GRID*             167576               00.0000000000E+008.3551277594E+01+
*       -2.938295620E+02               0
GRID*             167577               00.0000000000E+008.2053068658E+01+
*       -2.922542357E+02               0
GRID*             167578               00.0000000000E+008.3570032733E+01+
*       -2.967693965E+02               0
GRID*             167579               00.0000000000E+008.2072093345E+01+
*       -2.951802871E+02               0
GRID*             167580               00.0000000000E+008.2098906999E+01+
*       -2.981149065E+02               0
GRID*             167581               00.0000000000E+007.9122213197E+01+
*       -2.978208710E+02               0
GRID*             167582               00.0000000000E+008.0593385685E+01+
*       -2.965078874E+02               0
GRID*             167583               00.0000000000E+007.6135647925E+01+
*       -2.975117945E+02               0
GRID*             167584               00.0000000000E+007.7609071343E+01+
*       -2.962303171E+02               0
GRID*             167585               00.0000000000E+007.3138895994E+01+
*       -2.972080841E+02               0
GRID*             167586               00.0000000000E+007.4616180517E+01+
*       -2.959488815E+02               0
GRID*             167587               00.0000000000E+007.0133030218E+01+
*       -2.969256206E+02               0
GRID*             167588               00.0000000000E+007.1614672861E+01+
*       -2.956784155E+02               0
GRID*             167589               00.0000000000E+006.7119451122E+01+
*       -2.966747560E+02               0
GRID*             167590               00.0000000000E+006.8605336433E+01+
*       -2.954307642E+02               0
GRID*             167591               00.0000000000E+006.4099807935E+01+
*       -2.964618806E+02               0
GRID*             167592               00.0000000000E+006.5589393265E+01+
*       -2.952142165E+02               0
GRID*             167593               00.0000000000E+006.1075930923E+01+
*       -2.962909176E+02               0
GRID*             167594               00.0000000000E+006.2568321209E+01+
*       -2.950342709E+02               0
GRID*             167595               00.0000000000E+005.8049652709E+01+
*       -2.961642667E+02               0
GRID*             167596               00.0000000000E+005.9543693703E+01+
*       -2.948944867E+02               0
GRID*             167597               00.0000000000E+005.5022595671E+01+
*       -2.960833793E+02               0
GRID*             167598               00.0000000000E+005.6517001507E+01+
*       -2.947971326E+02               0
GRID*             167599               00.0000000000E+005.1996017821E+01+
*       -2.960491912E+02               0
GRID*             167600               00.0000000000E+005.3489489840E+01+
*       -2.947436599E+02               0
GRID*             167601               00.0000000000E+004.8970724818E+01+
*       -2.960624587E+02               0
GRID*             167602               00.0000000000E+005.0462031123E+01+
*       -2.947350522E+02               0
GRID*             167603               00.0000000000E+004.5946982945E+01+
*       -2.961239844E+02               0
GRID*             167604               00.0000000000E+004.7435013837E+01+
*       -2.947720657E+02               0
GRID*             167605               00.0000000000E+004.2924366037E+01+
*       -2.962347457E+02               0
GRID*             167606               00.0000000000E+004.4408204458E+01+
*       -2.948553594E+02               0
GRID*             167607               00.0000000000E+003.9901448682E+01+
*       -2.963959508E+02               0
GRID*             167608               00.0000000000E+004.1380525675E+01+
*       -2.949855127E+02               0
GRID*             167609               00.0000000000E+003.6875191331E+01+
*       -2.966090057E+02               0
GRID*             167610               00.0000000000E+003.8349674551E+01+
*       -2.951628959E+02               0
GRID*             167611               00.0000000000E+003.3839824544E+01+
*       -2.968752382E+02               0
GRID*             167612               00.0000000000E+003.5311528341E+01+
*       -2.953872409E+02               0
GRID*             167613               00.0000000000E+003.0785182539E+01+
*       -2.971947204E+02               0
GRID*             167614               00.0000000000E+003.2259479176E+01+
*       -2.956564627E+02               0
GRID*             167615               00.0000000000E+002.7695497193E+01+
*       -2.975617617E+02               0
GRID*             167616               00.0000000000E+002.9184505295E+01+
*       -2.959635971E+02               0
GRID*             167617               00.0000000000E+002.4554607357E+01+
*       -2.979495254E+02               0
GRID*             167618               00.0000000000E+002.6078574746E+01+
*       -2.962897327E+02               0
GRID*             167619               00.0000000000E+002.1385175577E+01+
*       -2.982533892E+02               0
GRID*             167620               00.0000000000E+002.2946533390E+01+
*       -2.965923727E+02               0
GRID*             167621               00.0000000000E+001.9811102410E+01+
*       -2.968362060E+02               0
GRID*             167622               00.0000000000E+002.1360289409E+01+
*       -2.952356138E+02               0
GRID*             167623               00.0000000000E+001.9791127077E+01+
*       -2.938392724E+02               0
GRID*             167624               00.0000000000E+001.9765524728E+01+
*       -2.908667566E+02               0
GRID*             167625               00.0000000000E+002.1327844940E+01+
*       -2.922583216E+02               0
GRID*             167626               00.0000000000E+001.9739251447E+01+
*       -2.879073806E+02               0
GRID*             167627               00.0000000000E+002.1294970554E+01+
*       -2.893000319E+02               0
GRID*             167628               00.0000000000E+001.9714137379E+01+
*       -2.849544717E+02               0
GRID*             167629               00.0000000000E+002.1263990252E+01+
*       -2.863508283E+02               0
GRID*             167630               00.0000000000E+002.1234682298E+01+
*       -2.834063414E+02               0
GRID*             167631               00.0000000000E+002.4301576458E+01+
*       -2.832516381E+02               0
GRID*             167632               00.0000000000E+002.2784378335E+01+
*       -2.847968650E+02               0
GRID*             167633               00.0000000000E+002.7368204151E+01+
*       -2.830925922E+02               0
GRID*             167634               00.0000000000E+002.5854528416E+01+
*       -2.846326123E+02               0
GRID*             167635               00.0000000000E+003.0432427229E+01+
*       -2.829352389E+02               0
GRID*             167636               00.0000000000E+002.8922626057E+01+
*       -2.844662769E+02               0
GRID*             167637               00.0000000000E+003.3493151447E+01+
*       -2.827857329E+02               0
GRID*             167638               00.0000000000E+003.1986836379E+01+
*       -2.843047321E+02               0
GRID*             167639               00.0000000000E+003.6550200653E+01+
*       -2.826496818E+02               0
GRID*             167640               00.0000000000E+003.5046506742E+01+
*       -2.841545515E+02               0
GRID*             167641               00.0000000000E+003.9604004258E+01+
*       -2.825317907E+02               0
GRID*             167642               00.0000000000E+003.8101861236E+01+
*       -2.840213866E+02               0
GRID*             167643               00.0000000000E+004.2655229738E+01+
*       -2.824358296E+02               0
GRID*             167644               00.0000000000E+004.1153591384E+01+
*       -2.839097406E+02               0
GRID*             167645               00.0000000000E+004.5704476066E+01+
*       -2.823647252E+02               0
GRID*             167646               00.0000000000E+004.4202475847E+01+
*       -2.838230365E+02               0
GRID*             167647               00.0000000000E+004.8752066641E+01+
*       -2.823206445E+02               0
GRID*             167648               00.0000000000E+004.7249111616E+01+
*       -2.837637646E+02               0
GRID*             167649               00.0000000000E+005.1797947830E+01+
*       -2.823050230E+02               0
GRID*             167650               00.0000000000E+005.0293765107E+01+
*       -2.837335985E+02               0
GRID*             167651               00.0000000000E+005.4841690715E+01+
*       -2.823185429E+02               0
GRID*             167652               00.0000000000E+005.3336328438E+01+
*       -2.837334517E+02               0
GRID*             167653               00.0000000000E+005.7882581105E+01+
*       -2.823611041E+02               0
GRID*             167654               00.0000000000E+005.6376362049E+01+
*       -2.837634910E+02               0
GRID*             167655               00.0000000000E+006.0919763451E+01+
*       -2.824318213E+02               0
GRID*             167656               00.0000000000E+005.9413198308E+01+
*       -2.838231340E+02               0
GRID*             167657               00.0000000000E+006.3952392279E+01+
*       -2.825290358E+02               0
GRID*             167658               00.0000000000E+006.2446072812E+01+
*       -2.839110376E+02               0
GRID*             167659               00.0000000000E+006.6979748082E+01+
*       -2.826502592E+02               0
GRID*             167660               00.0000000000E+006.5474247438E+01+
*       -2.840250389E+02               0
GRID*             167661               00.0000000000E+007.0001295414E+01+
*       -2.827919669E+02               0
GRID*             167662               00.0000000000E+006.8497098654E+01+
*       -2.841619888E+02               0
GRID*             167663               00.0000000000E+007.3016701832E+01+
*       -2.829493497E+02               0
GRID*             167664               00.0000000000E+007.1514170464E+01+
*       -2.843175187E+02               0
GRID*             167665               00.0000000000E+007.6025870038E+01+
*       -2.831164253E+02               0
GRID*             167666               00.0000000000E+007.4525221063E+01+
*       -2.844860004E+02               0
GRID*             167667               00.0000000000E+007.9029011054E+01+
*       -2.832871547E+02               0
GRID*             167668               00.0000000000E+007.7530288138E+01+
*       -2.846613074E+02               0
GRID*             167669               00.0000000000E+008.0529916245E+01+
*       -2.848392931E+02               0
GRID*             167670               00.0000000000E+008.0537832372E+01+
*       -2.877654743E+02               0
GRID*             167671               00.0000000000E+007.9035975690E+01+
*       -2.862088805E+02               0
GRID*             167672               00.0000000000E+008.0550149019E+01+
*       -2.906834925E+02               0
GRID*             167673               00.0000000000E+007.9047737413E+01+
*       -2.891216086E+02               0
GRID*             167674               00.0000000000E+008.0568124959E+01+
*       -2.935954241E+02               0
GRID*             167675               00.0000000000E+007.9065205320E+01+
*       -2.920246810E+02               0
GRID*             167676               00.0000000000E+007.9089417299E+01+
*       -2.949230244E+02               0
GRID*             167677               00.0000000000E+007.6099005344E+01+
*       -2.946583296E+02               0
GRID*             167678               00.0000000000E+007.7579351300E+01+
*       -2.933510369E+02               0
GRID*             167679               00.0000000000E+007.3100497616E+01+
*       -2.943974704E+02               0
GRID*             167680               00.0000000000E+007.4583322443E+01+
*       -2.931069186E+02               0
GRID*             167681               00.0000000000E+007.0094211352E+01+
*       -2.941527506E+02               0
GRID*             167682               00.0000000000E+007.1580036107E+01+
*       -2.928718056E+02               0
GRID*             167683               00.0000000000E+006.7080985006E+01+
*       -2.939333882E+02               0
GRID*             167684               00.0000000000E+006.8569859925E+01+
*       -2.926553746E+02               0
GRID*             167685               00.0000000000E+006.4061989648E+01+
*       -2.937458714E+02               0
GRID*             167686               00.0000000000E+006.5553581389E+01+
*       -2.924650431E+02               0
GRID*             167687               00.0000000000E+006.1038582087E+01+
*       -2.935946116E+02               0
GRID*             167688               00.0000000000E+006.2532250525E+01+
*       -2.923062122E+02               0
GRID*             167689               00.0000000000E+005.8012142803E+01+
*       -2.934825305E+02               0
GRID*             167690               00.0000000000E+005.9507031187E+01+
*       -2.921826555E+02               0
GRID*             167691               00.0000000000E+005.4983912339E+01+
*       -2.934115222E+02               0
GRID*             167692               00.0000000000E+005.6479053634E+01+
*       -2.920969201E+02               0
GRID*             167693               00.0000000000E+005.1954851818E+01+
*       -2.933828087E+02               0
GRID*             167694               00.0000000000E+005.3449274317E+01+
*       -2.920506710E+02               0
GRID*             167695               00.0000000000E+004.8925526863E+01+
*       -2.933971924E+02               0
GRID*             167696               00.0000000000E+005.0418347559E+01+
*       -2.920449490E+02               0
GRID*             167697               00.0000000000E+004.5895989877E+01+
*       -2.934552052E+02               0
GRID*             167698               00.0000000000E+004.7386502904E+01+
*       -2.920803319E+02               0
GRID*             167699               00.0000000000E+004.2865628598E+01+
*       -2.935571471E+02               0
GRID*             167700               00.0000000000E+004.4353414018E+01+
*       -2.921569929E+02               0
GRID*             167701               00.0000000000E+003.9832937163E+01+
*       -2.937030017E+02               0
GRID*             167702               00.0000000000E+004.1318040086E+01+
*       -2.922746361E+02               0
GRID*             167703               00.0000000000E+003.6795165471E+01+
*       -2.938921545E+02               0
GRID*             167704               00.0000000000E+003.8278428083E+01+
*       -2.924322603E+02               0
GRID*             167705               00.0000000000E+003.3747888901E+01+
*       -2.941227090E+02               0
GRID*             167706               00.0000000000E+003.5231526031E+01+
*       -2.926276226E+02               0
GRID*             167707               00.0000000000E+003.0684813921E+01+
*       -2.943899214E+02               0
GRID*             167708               00.0000000000E+003.2173223646E+01+
*       -2.928561678E+02               0
GRID*             167709               00.0000000000E+002.7598828203E+01+
*       -2.946828381E+02               0
GRID*             167710               00.0000000000E+002.9099136828E+01+
*       -2.931091624E+02               0
GRID*             167711               00.0000000000E+002.4486719780E+01+
*       -2.949781786E+02               0
GRID*             167712               00.0000000000E+002.6006973237E+01+
*       -2.933712840E+02               0
GRID*             167713               00.0000000000E+002.2900475799E+01+
*       -2.936214197E+02               0
GRID*             167714               00.0000000000E+002.4430451596E+01+
*       -2.920357638E+02               0
GRID*             167715               00.0000000000E+002.2857820737E+01+
*       -2.906726657E+02               0
GRID*             167716               00.0000000000E+002.2819442222E+01+
*       -2.877327900E+02               0
GRID*             167717               00.0000000000E+002.4382292405E+01+
*       -2.891054239E+02               0
GRID*             167718               00.0000000000E+002.4339830304E+01+
*       -2.861788267E+02               0
GRID*             167719               00.0000000000E+002.7413355838E+01+
*       -2.860010852E+02               0
GRID*             167720               00.0000000000E+002.5898657727E+01+
*       -2.875472996E+02               0
GRID*             167721               00.0000000000E+003.0482213531E+01+
*       -2.858241549E+02               0
GRID*             167722               00.0000000000E+002.8972943313E+01+
*       -2.873589633E+02               0
GRID*             167723               00.0000000000E+003.3545210615E+01+
*       -2.856561187E+02               0
GRID*             167724               00.0000000000E+003.2040587767E+01+
*       -2.871755415E+02               0
GRID*             167725               00.0000000000E+003.6602456440E+01+
*       -2.855040404E+02               0
GRID*             167726               00.0000000000E+003.5101160313E+01+
*       -2.870056076E+02               0
GRID*             167727               00.0000000000E+003.9654830149E+01+
*       -2.853734095E+02               0
GRID*             167728               00.0000000000E+003.8155425353E+01+
*       -2.868560633E+02               0
GRID*             167729               00.0000000000E+004.2703435697E+01+
*       -2.852682592E+02               0
GRID*             167730               00.0000000000E+004.1204674461E+01+
*       -2.867319281E+02               0
GRID*             167731               00.0000000000E+004.5749231861E+01+
*       -2.851914468E+02               0
GRID*             167732               00.0000000000E+004.4250191711E+01+
*       -2.866366695E+02               0
GRID*             167733               00.0000000000E+004.8792834084E+01+
*       -2.851448916E+02               0
GRID*             167734               00.0000000000E+004.7292954328E+01+
*       -2.865725738E+02               0
GRID*             167735               00.0000000000E+005.1834442058E+01+
*       -2.851297210E+02               0
GRID*             167736               00.0000000000E+005.0333511035E+01+
*       -2.865410141E+02               0
GRID*             167737               00.0000000000E+005.4873857340E+01+
*       -2.851463342E+02               0
GRID*             167738               00.0000000000E+005.3371970959E+01+
*       -2.865426035E+02               0
GRID*             167739               00.0000000000E+005.7910565904E+01+
*       -2.851944158E+02               0
GRID*             167740               00.0000000000E+005.6408061195E+01+
*       -2.865772590E+02               0
GRID*             167741               00.0000000000E+006.0943859267E+01+
*       -2.852729216E+02               0
GRID*             167742               00.0000000000E+005.9441226863E+01+
*       -2.866442035E+02               0
GRID*             167743               00.0000000000E+006.3972964450E+01+
*       -2.853800299E+02               0
GRID*             167744               00.0000000000E+006.2470750906E+01+
*       -2.867419139E+02               0
GRID*             167745               00.0000000000E+006.6997155222E+01+
*       -2.855130069E+02               0
GRID*             167746               00.0000000000E+006.5495872234E+01+
*       -2.868679979E+02               0
GRID*             167747               00.0000000000E+007.0015831125E+01+
*       -2.856679616E+02               0
GRID*             167748               00.0000000000E+006.8515887693E+01+
*       -2.870189797E+02               0
GRID*             167749               00.0000000000E+007.3028577712E+01+
*       -2.858396057E+02               0
GRID*             167750               00.0000000000E+007.1530238373E+01+
*       -2.871900486E+02               0
GRID*             167751               00.0000000000E+007.6035242354E+01+
*       -2.860212656E+02               0
GRID*             167752               00.0000000000E+007.4538599004E+01+
*       -2.873748708E+02               0
GRID*             167753               00.0000000000E+007.7540929907E+01+
*       -2.875688388E+02               0
GRID*             167754               00.0000000000E+007.7556993861E+01+
*       -2.904646406E+02               0
GRID*             167755               00.0000000000E+007.6050186355E+01+
*       -2.889118707E+02               0
GRID*             167756               00.0000000000E+007.6071139841E+01+
*       -2.917909965E+02               0
GRID*             167757               00.0000000000E+007.3070098067E+01+
*       -2.915628428E+02               0
GRID*             167758               00.0000000000E+007.4557915465E+01+
*       -2.902469208E+02               0
GRID*             167759               00.0000000000E+007.0062199068E+01+
*       -2.913484184E+02               0
GRID*             167760               00.0000000000E+007.1552261028E+01+
*       -2.900394556E+02               0
GRID*             167761               00.0000000000E+006.7047948932E+01+
*       -2.911553377E+02               0
GRID*             167762               00.0000000000E+006.8540288075E+01+
*       -2.898483814E+02               0
GRID*             167763               00.0000000000E+006.4028157941E+01+
*       -2.909896239E+02               0
GRID*             167764               00.0000000000E+006.5522525485E+01+
*       -2.896799185E+02               0
GRID*             167765               00.0000000000E+006.1003820584E+01+
*       -2.908556828E+02               0
GRID*             167766               00.0000000000E+006.2499728000E+01+
*       -2.895390946E+02               0
GRID*             167767               00.0000000000E+005.7975986161E+01+
*       -2.907565816E+02               0
GRID*             167768               00.0000000000E+005.9472775558E+01+
*       -2.894296090E+02               0
GRID*             167769               00.0000000000E+005.4945626788E+01+
*       -2.906943680E+02               0
GRID*             167770               00.0000000000E+005.6442559315E+01+
*       -2.893540295E+02               0
GRID*             167771               00.0000000000E+005.1913509355E+01+
*       -2.906703310E+02               0
GRID*             167772               00.0000000000E+005.3409861826E+01+
*       -2.893140279E+02               0
GRID*             167773               00.0000000000E+004.8880073073E+01+
*       -2.906851770E+02               0
GRID*             167774               00.0000000000E+005.0375234870E+01+
*       -2.893105590E+02               0
GRID*             167775               00.0000000000E+004.5845309400E+01+
*       -2.907391164E+02               0
GRID*             167776               00.0000000000E+004.7338879569E+01+
*       -2.893439615E+02               0
GRID*             167777               00.0000000000E+004.2808638938E+01+
*       -2.908318523E+02               0
GRID*             167778               00.0000000000E+004.4300534320E+01+
*       -2.894139759E+02               0
GRID*             167779               00.0000000000E+003.9768778142E+01+
*       -2.909624453E+02               0
GRID*             167780               00.0000000000E+004.1259376994E+01+
*       -2.895196615E+02               0
GRID*             167781               00.0000000000E+003.6723610574E+01+
*       -2.911289884E+02               0
GRID*             167782               00.0000000000E+003.8213960632E+01+
*       -2.896591733E+02               0
GRID*             167783               00.0000000000E+003.3670162962E+01+
*       -2.913279607E+02               0
GRID*             167784               00.0000000000E+003.5162247504E+01+
*       -2.898293265E+02               0
GRID*             167785               00.0000000000E+003.0604952167E+01+
*       -2.915530764E+02               0
GRID*             167786               00.0000000000E+003.2101891483E+01+
*       -2.900248693E+02               0
GRID*             167787               00.0000000000E+002.7525193585E+01+
*       -2.917935348E+02               0
GRID*             167788               00.0000000000E+002.9031008923E+01+
*       -2.902374488E+02               0
GRID*             167789               00.0000000000E+002.5948671943E+01+
*       -2.904580147E+02               0
GRID*             167790               00.0000000000E+002.7465037265E+01+
*       -2.888998904E+02               0
GRID*             167791               00.0000000000E+003.0538914970E+01+
*       -2.886965216E+02               0
GRID*             167792               00.0000000000E+003.3603564280E+01+
*       -2.885038893E+02               0
GRID*             167793               00.0000000000E+003.6659843538E+01+
*       -2.883310448E+02               0
GRID*             167794               00.0000000000E+003.9709542447E+01+
*       -2.881841917E+02               0
GRID*             167795               00.0000000000E+004.2754509008E+01+
*       -2.880673979E+02               0
GRID*             167796               00.0000000000E+004.5796217023E+01+
*       -2.879832475E+02               0
GRID*             167797               00.0000000000E+004.8835616875E+01+
*       -2.879332877E+02               0
GRID*             167798               00.0000000000E+005.1873129030E+01+
*       -2.879182853E+02               0
GRID*             167799               00.0000000000E+005.4908703755E+01+
*       -2.879383461E+02               0
GRID*             167800               00.0000000000E+005.7941916754E+01+
*       -2.879929424E+02               0
GRID*             167801               00.0000000000E+006.0972085667E+01+
*       -2.880808701E+02               0
GRID*             167802               00.0000000000E+006.3998393238E+01+
*       -2.882001384E+02               0
GRID*             167803               00.0000000000E+006.7020004481E+01+
*       -2.883477779E+02               0
GRID*             167804               00.0000000000E+007.0036171287E+01+
*       -2.885195833E+02               0
GRID*             167805               00.0000000000E+007.3046328114E+01+
*       -2.887099209E+02               0
GRID*             167806               00.0000000000E+001.5071220748E+01+
*       -2.748052672E+02               0
GRID*             167807               00.0000000000E+001.3548834029E+01+
*       -2.733759208E+02               0
GRID*             167808               00.0000000000E+001.3541445064E+01+
*       -2.704094664E+02               0
GRID*             167809               00.0000000000E+001.5061251875E+01+
*       -2.718410686E+02               0
GRID*             167810               00.0000000000E+001.3534255919E+01+
*       -2.674421539E+02               0
GRID*             167811               00.0000000000E+001.5051444661E+01+
*       -2.688760567E+02               0
GRID*             167812               00.0000000000E+001.3527257495E+01+
*       -2.644737982E+02               0
GRID*             167813               00.0000000000E+001.5041888366E+01+
*       -2.659097733E+02               0
GRID*             167814               00.0000000000E+001.3520460349E+01+
*       -2.615041751E+02               0
GRID*             167815               00.0000000000E+001.5032597863E+01+
*       -2.629419469E+02               0
GRID*             167816               00.0000000000E+001.3513891450E+01+
*       -2.585328867E+02               0
GRID*             167817               00.0000000000E+001.5023607752E+01+
*       -2.599721850E+02               0
GRID*             167818               00.0000000000E+001.3507557782E+01+
*       -2.555592120E+02               0
GRID*             167819               00.0000000000E+001.5014958235E+01+
*       -2.569997715E+02               0
GRID*             167820               00.0000000000E+001.3501366457E+01+
*       -2.525819065E+02               0
GRID*             167821               00.0000000000E+001.5006623406E+01+
*       -2.540234397E+02               0
GRID*             167822               00.0000000000E+001.3494960389E+01+
*       -2.495989230E+02               0
GRID*             167823               00.0000000000E+001.4998357017E+01+
*       -2.510410570E+02               0
GRID*             167824               00.0000000000E+001.3487304342E+01+
*       -2.466068885E+02               0
GRID*             167825               00.0000000000E+001.4989332789E+01+
*       -2.480490811E+02               0
GRID*             167826               00.0000000000E+001.3475811738E+01+
*       -2.436001014E+02               0
GRID*             167827               00.0000000000E+001.4977384225E+01+
*       -2.450415191E+02               0
GRID*             167828               00.0000000000E+001.3455093135E+01+
*       -2.405692685E+02               0
GRID*             167829               00.0000000000E+001.4957768980E+01+
*       -2.420082924E+02               0
GRID*             167830               00.0000000000E+001.3414549236E+01+
*       -2.375008535E+02               0
GRID*             167831               00.0000000000E+001.4920772826E+01+
*       -2.389332722E+02               0
GRID*             167832               00.0000000000E+001.3330418773E+01+
*       -2.343800681E+02               0
GRID*             167833               00.0000000000E+001.4844004077E+01+
*       -2.357936215E+02               0
GRID*             167834               00.0000000000E+001.3142009694E+01+
*       -2.312184497E+02               0
GRID*             167835               00.0000000000E+001.4666135226E+01+
*       -2.325772212E+02               0
GRID*             167836               00.0000000000E+001.2695521722E+01+
*       -2.282950272E+02               0
GRID*             167837               00.0000000000E+001.4205863314E+01+
*       -2.295032860E+02               0
GRID*             167838               00.0000000000E+001.3707674044E+01+
*       -2.267689663E+02               0
GRID*             167839               00.0000000000E+001.5692147900E+01+
*       -2.263133372E+02               0
GRID*             167840               00.0000000000E+001.4911788707E+01+
*       -2.277297840E+02               0
GRID*             167841               00.0000000000E+001.7356854460E+01+
*       -2.257286540E+02               0
GRID*             167842               00.0000000000E+001.6687164225E+01+
*       -2.269480853E+02               0
GRID*             167843               00.0000000000E+001.9196950407E+01+
*       -2.262453624E+02               0
GRID*             167844               00.0000000000E+001.8252509790E+01+
*       -2.269228453E+02               0
GRID*             167845               00.0000000000E+002.1683529543E+01+
*       -2.265590582E+02               0
GRID*             167846               00.0000000000E+002.0340341523E+01+
*       -2.276109086E+02               0
GRID*             167847               00.0000000000E+002.4494455036E+01+
*       -2.267502802E+02               0
GRID*             167848               00.0000000000E+002.3013572194E+01+
*       -2.280078779E+02               0
GRID*             167849               00.0000000000E+002.7421469230E+01+
*       -2.268697804E+02               0
GRID*             167850               00.0000000000E+002.5896690159E+01+
*       -2.282241905E+02               0
GRID*             167851               00.0000000000E+003.0383234409E+01+
*       -2.269481079E+02               0
GRID*             167852               00.0000000000E+002.8846286638E+01+
*       -2.283494614E+02               0
GRID*             167853               00.0000000000E+003.3353055707E+01+
*       -2.270030071E+02               0
GRID*             167854               00.0000000000E+003.1814636105E+01+
*       -2.284294890E+02               0
GRID*             167855               00.0000000000E+003.6323870125E+01+
*       -2.270461198E+02               0
GRID*             167856               00.0000000000E+003.4786346326E+01+
*       -2.284874054E+02               0
GRID*             167857               00.0000000000E+003.9296457138E+01+
*       -2.270861917E+02               0
GRID*             167858               00.0000000000E+003.7758025703E+01+
*       -2.285368579E+02               0
GRID*             167859               00.0000000000E+004.2275020232E+01+
*       -2.271307335E+02               0
GRID*             167860               00.0000000000E+004.0731426407E+01+
*       -2.285876654E+02               0
GRID*             167861               00.0000000000E+004.5265530093E+01+
*       -2.271869356E+02               0
GRID*             167862               00.0000000000E+004.3710800256E+01+
*       -2.286481937E+02               0
GRID*             167863               00.0000000000E+004.8274937850E+01+
*       -2.272623292E+02               0
GRID*             167864               00.0000000000E+004.6701655970E+01+
*       -2.287263929E+02               0
GRID*             167865               00.0000000000E+005.1310126537E+01+
*       -2.273657173E+02               0
GRID*             167866               00.0000000000E+004.9709601958E+01+
*       -2.288303644E+02               0
GRID*             167867               00.0000000000E+005.4375107752E+01+
*       -2.275089471E+02               0
GRID*             167868               00.0000000000E+005.2738110244E+01+
*       -2.289689128E+02               0
GRID*             167869               00.0000000000E+005.7463844728E+01+
*       -2.277096600E+02               0
GRID*             167870               00.0000000000E+005.5784093145E+01+
*       -2.291520219E+02               0
GRID*             167871               00.0000000000E+006.0544779592E+01+
*       -2.279913783E+02               0
GRID*             167872               00.0000000000E+005.8831406545E+01+
*       -2.293892973E+02               0
GRID*             167873               00.0000000000E+006.3544068267E+01+
*       -2.283621693E+02               0
GRID*             167874               00.0000000000E+006.1848325390E+01+
*       -2.296799263E+02               0
GRID*             167875               00.0000000000E+006.6458435354E+01+
*       -2.286964234E+02               0
GRID*             167876               00.0000000000E+006.4811781784E+01+
*       -2.299869745E+02               0
GRID*             167877               00.0000000000E+006.9332863968E+01+
*       -2.289591449E+02               0
GRID*             167878               00.0000000000E+006.7728622425E+01+
*       -2.302626951E+02               0
GRID*             167879               00.0000000000E+007.2197513627E+01+
*       -2.291574041E+02               0
GRID*             167880               00.0000000000E+007.0618015065E+01+
*       -2.304900416E+02               0
GRID*             167881               00.0000000000E+007.5057145492E+01+
*       -2.293105089E+02               0
GRID*             167882               00.0000000000E+007.3489415977E+01+
*       -2.306738167E+02               0
GRID*             167883               00.0000000000E+007.7890515981E+01+
*       -2.294411505E+02               0
GRID*             167884               00.0000000000E+007.6335815381E+01+
*       -2.308283610E+02               0
GRID*             167885               00.0000000000E+008.0652806518E+01+
*       -2.295643898E+02               0
GRID*             167886               00.0000000000E+007.9138075782E+01+
*       -2.309686406E+02               0
GRID*             167887               00.0000000000E+008.3412924737E+01+
*       -2.295746840E+02               0
GRID*             167888               00.0000000000E+008.1887662440E+01+
*       -2.311014016E+02               0
GRID*             167889               00.0000000000E+008.5961022365E+01+
*       -2.300312960E+02               0
GRID*             167890               00.0000000000E+008.4558435302E+01+
*       -2.313013030E+02               0
GRID*             167891               00.0000000000E+008.7154887425E+01+
*       -2.315114454E+02               0
GRID*             167892               00.0000000000E+008.7044691755E+01+
*       -2.345192024E+02               0
GRID*             167893               00.0000000000E+008.5793355962E+01+
*       -2.329242332E+02               0
GRID*             167894               00.0000000000E+008.6952502343E+01+
*       -2.375184546E+02               0
GRID*             167895               00.0000000000E+008.5658898699E+01+
*       -2.359109471E+02               0
GRID*             167896               00.0000000000E+008.6874061114E+01+
*       -2.405135580E+02               0
GRID*             167897               00.0000000000E+008.5546195844E+01+
*       -2.389098089E+02               0
GRID*             167898               00.0000000000E+008.6806730511E+01+
*       -2.435064445E+02               0
GRID*             167899               00.0000000000E+008.5449999747E+01+
*       -2.419086035E+02               0
GRID*             167900               00.0000000000E+008.6748924367E+01+
*       -2.464977646E+02               0
GRID*             167901               00.0000000000E+008.5367362261E+01+
*       -2.449060118E+02               0
GRID*             167902               00.0000000000E+008.6699581225E+01+
*       -2.494876364E+02               0
GRID*             167903               00.0000000000E+008.5296524346E+01+
*       -2.479018805E+02               0
GRID*             167904               00.0000000000E+008.6657887343E+01+
*       -2.524759531E+02               0
GRID*             167905               00.0000000000E+008.5236271204E+01+
*       -2.508960234E+02               0
GRID*             167906               00.0000000000E+008.6623128968E+01+
*       -2.554624920E+02               0
GRID*             167907               00.0000000000E+008.5185622734E+01+
*       -2.538881342E+02               0
GRID*             167908               00.0000000000E+008.6594615722E+01+
*       -2.584469568E+02               0
GRID*             167909               00.0000000000E+008.5143676591E+01+
*       -2.568778101E+02               0
GRID*             167910               00.0000000000E+008.6571655443E+01+
*       -2.614290267E+02               0
GRID*             167911               00.0000000000E+008.5109537929E+01+
*       -2.598645983E+02               0
GRID*             167912               00.0000000000E+008.6553566520E+01+
*       -2.644084383E+02               0
GRID*             167913               00.0000000000E+008.5082310327E+01+
*       -2.628480785E+02               0
GRID*             167914               00.0000000000E+008.6539704987E+01+
*       -2.673850455E+02               0
GRID*             167915               00.0000000000E+008.5061122301E+01+
*       -2.658279489E+02               0
GRID*             167916               00.0000000000E+008.6529483862E+01+
*       -2.703587969E+02               0
GRID*             167917               00.0000000000E+008.5045159269E+01+
*       -2.688040412E+02               0
GRID*             167918               00.0000000000E+008.6522374070E+01+
*       -2.733296188E+02               0
GRID*             167919               00.0000000000E+008.5033677018E+01+
*       -2.717762025E+02               0
GRID*             167920               00.0000000000E+008.5026115607E+01+
*       -2.747452337E+02               0
GRID*             167921               00.0000000000E+008.2034030936E+01+
*       -2.746044861E+02               0
GRID*             167922               00.0000000000E+008.3533489245E+01+
*       -2.731913906E+02               0
GRID*             167923               00.0000000000E+007.9035987597E+01+
*       -2.744591222E+02               0
GRID*             167924               00.0000000000E+008.0539410817E+01+
*       -2.730496161E+02               0
GRID*             167925               00.0000000000E+007.6030717047E+01+
*       -2.743126298E+02               0
GRID*             167926               00.0000000000E+007.7538402049E+01+
*       -2.729055579E+02               0
GRID*             167927               00.0000000000E+007.3017354210E+01+
*       -2.741700008E+02               0
GRID*             167928               00.0000000000E+007.4529276215E+01+
*       -2.727632702E+02               0
GRID*             167929               00.0000000000E+006.9995362459E+01+
*       -2.740365151E+02               0
GRID*             167930               00.0000000000E+007.1511191741E+01+
*       -2.726275148E+02               0
GRID*             167931               00.0000000000E+006.6964508799E+01+
*       -2.739169037E+02               0
GRID*             167932               00.0000000000E+006.8483632641E+01+
*       -2.725029609E+02               0
GRID*             167933               00.0000000000E+006.3924929776E+01+
*       -2.738151009E+02               0
GRID*             167934               00.0000000000E+006.5446464162E+01+
*       -2.723938065E+02               0
GRID*             167935               00.0000000000E+006.0877264041E+01+
*       -2.737343735E+02               0
GRID*             167936               00.0000000000E+006.2400060680E+01+
*       -2.723037329E+02               0
GRID*             167937               00.0000000000E+005.7822774781E+01+
*       -2.736774285E+02               0
GRID*             167938               00.0000000000E+005.9345463458E+01+
*       -2.722359440E+02               0
GRID*             167939               00.0000000000E+005.4763363607E+01+
*       -2.736462682E+02               0
GRID*             167940               00.0000000000E+005.6284483350E+01+
*       -2.721930579E+02               0
GRID*             167941               00.0000000000E+005.1701375134E+01+
*       -2.736418145E+02               0
GRID*             167942               00.0000000000E+005.3219620676E+01+
*       -2.721767436E+02               0
GRID*             167943               00.0000000000E+004.8639152446E+01+
*       -2.736635328E+02               0
GRID*             167944               00.0000000000E+005.0153686714E+01+
*       -2.721872158E+02               0
GRID*             167945               00.0000000000E+004.5578490259E+01+
*       -2.737094110E+02               0
GRID*             167946               00.0000000000E+004.7089177916E+01+
*       -2.722229546E+02               0
GRID*             167947               00.0000000000E+004.2520294632E+01+
*       -2.737764814E+02               0
GRID*             167948               00.0000000000E+004.4027706291E+01+
*       -2.722810394E+02               0
GRID*             167949               00.0000000000E+003.9464612669E+01+
*       -2.738614507E+02               0
GRID*             167950               00.0000000000E+004.0969808725E+01+
*       -2.723579238E+02               0
GRID*             167951               00.0000000000E+003.6410921355E+01+
*       -2.739610904E+02               0
GRID*             167952               00.0000000000E+003.7915161108E+01+
*       -2.724500936E+02               0
GRID*             167953               00.0000000000E+003.3358504801E+01+
*       -2.740723226E+02               0
GRID*             167954               00.0000000000E+003.4862993582E+01+
*       -2.725543457E+02               0
GRID*             167955               00.0000000000E+003.0306814183E+01+
*       -2.741920899E+02               0
GRID*             167956               00.0000000000E+003.1812522984E+01+
*       -2.726677229E+02               0
GRID*             167957               00.0000000000E+002.7255746600E+01+
*       -2.743171627E+02               0
GRID*             167958               00.0000000000E+002.8763302026E+01+
*       -2.727872793E+02               0
GRID*             167959               00.0000000000E+002.4205769564E+01+
*       -2.744440750E+02               0
GRID*             167960               00.0000000000E+002.5715413379E+01+
*       -2.729098952E+02               0
GRID*             167961               00.0000000000E+002.1157815256E+01+
*       -2.745693475E+02               0
GRID*             167962               00.0000000000E+002.2669440245E+01+
*       -2.730323456E+02               0
GRID*             167963               00.0000000000E+001.8112925813E+01+
*       -2.746900280E+02               0
GRID*             167964               00.0000000000E+001.9626195918E+01+
*       -2.731517003E+02               0
GRID*             167965               00.0000000000E+001.6585788556E+01+
*       -2.732667813E+02               0
GRID*             167966               00.0000000000E+001.8097561771E+01+
*       -2.717305348E+02               0
GRID*             167967               00.0000000000E+001.6573025089E+01+
*       -2.703048221E+02               0
GRID*             167968               00.0000000000E+001.6560642766E+01+
*       -2.673412159E+02               0
GRID*             167969               00.0000000000E+001.8082223195E+01+
*       -2.687699813E+02               0
GRID*             167970               00.0000000000E+001.6548593702E+01+
*       -2.643758017E+02               0
GRID*             167971               00.0000000000E+001.8067348102E+01+
*       -2.658072444E+02               0
GRID*             167972               00.0000000000E+001.6536902502E+01+
*       -2.614083387E+02               0
GRID*             167973               00.0000000000E+001.8052898341E+01+
*       -2.628421935E+02               0
GRID*             167974               00.0000000000E+001.6525665214E+01+
*       -2.584383058E+02               0
GRID*             167975               00.0000000000E+001.8038959964E+01+
*       -2.598744595E+02               0
GRID*             167976               00.0000000000E+001.6514997683E+01+
*       -2.554646875E+02               0
GRID*             167977               00.0000000000E+001.8025704662E+01+
*       -2.569032217E+02               0
GRID*             167978               00.0000000000E+001.6504930860E+01+
*       -2.524856885E+02               0
GRID*             167979               00.0000000000E+001.8013305137E+01+
*       -2.539269363E+02               0
GRID*             167980               00.0000000000E+001.6495202533E+01+
*       -2.494983135E+02               0
GRID*             167981               00.0000000000E+001.8001776376E+01+
*       -2.509429450E+02               0
GRID*             167982               00.0000000000E+001.6484789864E+01+
*       -2.464975565E+02               0
GRID*             167983               00.0000000000E+001.7990659607E+01+
*       -2.479467889E+02               0
GRID*             167984               00.0000000000E+001.6471101588E+01+
*       -2.434748554E+02               0
GRID*             167985               00.0000000000E+001.7978507228E+01+
*       -2.449308929E+02               0
GRID*             167986               00.0000000000E+001.6448993174E+01+
*       -2.404154504E+02               0
GRID*             167987               00.0000000000E+001.7962325783E+01+
*       -2.418820134E+02               0
GRID*             167988               00.0000000000E+001.6408484464E+01+
*       -2.372926405E+02               0
GRID*             167989               00.0000000000E+001.7936704812E+01+
*       -2.387748187E+02               0
GRID*             167990               00.0000000000E+001.6325360071E+01+
*       -2.340488935E+02               0
GRID*             167991               00.0000000000E+001.7889840458E+01+
*       -2.355479125E+02               0
GRID*             167992               00.0000000000E+001.6121666702E+01+
*       -2.305023934E+02               0
GRID*             167993               00.0000000000E+001.7780891547E+01+
*       -2.319740657E+02               0
GRID*             167994               00.0000000000E+001.6827592096E+01+
*       -2.287288914E+02               0
GRID*             167995               00.0000000000E+001.8392937661E+01+
*       -2.287036513E+02               0
GRID*             167996               00.0000000000E+002.1366690364E+01+
*       -2.293145639E+02               0
GRID*             167997               00.0000000000E+001.9419286502E+01+
*       -2.304073066E+02               0
GRID*             167998               00.0000000000E+002.4324975041E+01+
*       -2.296047678E+02               0
GRID*             167999               00.0000000000E+002.2678093212E+01+
*       -2.309114538E+02               0
GRID*             168000               00.0000000000E+002.7297433332E+01+
*       -2.297637716E+02               0
GRID*             168001               00.0000000000E+002.5725718215E+01+
*       -2.311443489E+02               0
GRID*             168002               00.0000000000E+003.0274793716E+01+
*       -2.298609661E+02               0
GRID*             168003               00.0000000000E+002.8725940410E+01+
*       -2.312752763E+02               0
GRID*             168004               00.0000000000E+003.3250357751E+01+
*       -2.299276815E+02               0
GRID*             168005               00.0000000000E+003.1710515362E+01+
*       -2.313591586E+02               0
GRID*             168006               00.0000000000E+003.6221909920E+01+
*       -2.299809962E+02               0
GRID*             168007               00.0000000000E+003.4685921345E+01+
*       -2.314212723E+02               0
GRID*             168008               00.0000000000E+003.9190487175E+01+
*       -2.300323727E+02               0
GRID*             168009               00.0000000000E+003.7654371392E+01+
*       -2.314765110E+02               0
GRID*             168010               00.0000000000E+004.2159261544E+01+
*       -2.300911026E+02               0
GRID*             168011               00.0000000000E+004.0618322312E+01+
*       -2.315358099E+02               0
GRID*             168012               00.0000000000E+004.5132882434E+01+
*       -2.301656696E+02               0
GRID*             168013               00.0000000000E+004.3581343721E+01+
*       -2.316085785E+02               0
GRID*             168014               00.0000000000E+004.8116974521E+01+
*       -2.302641548E+02               0
GRID*             168015               00.0000000000E+004.6548200985E+01+
*       -2.317034316E+02               0
GRID*             168016               00.0000000000E+005.1116887259E+01+
*       -2.303940729E+02               0
GRID*             168017               00.0000000000E+004.9524259823E+01+
*       -2.318278633E+02               0
GRID*             168018               00.0000000000E+005.4134730473E+01+
*       -2.305620611E+02               0
GRID*             168019               00.0000000000E+005.2513507488E+01+
*       -2.319872212E+02               0
GRID*             168020               00.0000000000E+005.7164427396E+01+
*       -2.307736697E+02               0
GRID*             168021               00.0000000000E+005.5515064724E+01+
*       -2.321837089E+02               0
GRID*             168022               00.0000000000E+006.0186828489E+01+
*       -2.310312824E+02               0
GRID*             168023               00.0000000000E+005.8519849340E+01+
*       -2.324156548E+02               0
GRID*             168024               00.0000000000E+006.3173312805E+01+
*       -2.313231479E+02               0
GRID*             168025               00.0000000000E+006.1511815904E+01+
*       -2.326745041E+02               0
GRID*             168026               00.0000000000E+006.6116317161E+01+
*       -2.316036638E+02               0
GRID*             168027               00.0000000000E+006.4477848182E+01+
*       -2.329398372E+02               0
GRID*             168028               00.0000000000E+006.9027866694E+01+
*       -2.318475019E+02               0
GRID*             168029               00.0000000000E+006.7415561431E+01+
*       -2.331884707E+02               0
GRID*             168030               00.0000000000E+007.1918577964E+01+
*       -2.320511944E+02               0
GRID*             168031               00.0000000000E+007.0328429593E+01+
*       -2.334086547E+02               0
GRID*             168032               00.0000000000E+007.4787760225E+01+
*       -2.322236177E+02               0
GRID*             168033               00.0000000000E+007.3216922212E+01+
*       -2.336009953E+02               0
GRID*             168034               00.0000000000E+007.7622707639E+01+
*       -2.323788685E+02               0
GRID*             168035               00.0000000000E+007.6074652484E+01+
*       -2.337741252E+02               0
GRID*             168036               00.0000000000E+008.0406310745E+01+
*       -2.325298472E+02               0
GRID*             168037               00.0000000000E+007.8890942602E+01+
*       -2.339400751E+02               0
GRID*             168038               00.0000000000E+008.3139401748E+01+
*       -2.326835316E+02               0
GRID*             168039               00.0000000000E+008.1658050053E+01+
*       -2.341119772E+02               0
GRID*             168040               00.0000000000E+008.4374322408E+01+
*       -2.343064618E+02               0
GRID*             168041               00.0000000000E+008.4227655819E+01+
*       -2.373084787E+02               0
GRID*             168042               00.0000000000E+008.2943079527E+01+
*       -2.357039934E+02               0
GRID*             168043               00.0000000000E+008.4102565646E+01+
*       -2.403100963E+02               0
GRID*             168044               00.0000000000E+008.2784025621E+01+
*       -2.387087661E+02               0
GRID*             168045               00.0000000000E+008.3994611305E+01+
*       -2.433111302E+02               0
GRID*             168046               00.0000000000E+008.2647177205E+01+
*       -2.417126230E+02               0
GRID*             168047               00.0000000000E+008.3901439143E+01+
*       -2.463113454E+02               0
GRID*             168048               00.0000000000E+008.2528688187E+01+
*       -2.447164638E+02               0
GRID*             168049               00.0000000000E+008.3821547606E+01+
*       -2.493103455E+02               0
GRID*             168050               00.0000000000E+008.2426462403E+01+
*       -2.477198104E+02               0
GRID*             168051               00.0000000000E+008.3753801927E+01+
*       -2.523076175E+02               0
GRID*             168052               00.0000000000E+008.2339078329E+01+
*       -2.507219396E+02               0
GRID*             168053               00.0000000000E+008.3697191035E+01+
*       -2.553025502E+02               0
GRID*             168054               00.0000000000E+008.2265370228E+01+
*       -2.537220336E+02               0
GRID*             168055               00.0000000000E+008.3650699104E+01+
*       -2.582944596E+02               0
GRID*             168056               00.0000000000E+008.2204213548E+01+
*       -2.567191998E+02               0
GRID*             168057               00.0000000000E+008.3613265858E+01+
*       -2.612826672E+02               0
GRID*             168058               00.0000000000E+008.2154427032E+01+
*       -2.597125286E+02               0
GRID*             168059               00.0000000000E+008.3583813179E+01+
*       -2.642666183E+02               0
GRID*             168060               00.0000000000E+008.2114768709E+01+
*       -2.627012070E+02               0
GRID*             168061               00.0000000000E+008.3561298979E+01+
*       -2.672459597E+02               0
GRID*             168062               00.0000000000E+008.2083989857E+01+
*       -2.656846291E+02               0
GRID*             168063               00.0000000000E+008.3544760161E+01+
*       -2.702204906E+02               0
GRID*             168064               00.0000000000E+008.2060899872E+01+
*       -2.686624090E+02               0
GRID*             168065               00.0000000000E+008.2044572388E+01+
*       -2.716356787E+02               0
GRID*             168066               00.0000000000E+007.9049006681E+01+
*       -2.714925424E+02               0
GRID*             168067               00.0000000000E+008.0554168252E+01+
*       -2.700786050E+02               0
GRID*             168068               00.0000000000E+007.6045278309E+01+
*       -2.713490406E+02               0
GRID*             168069               00.0000000000E+007.7555882941E+01+
*       -2.699360251E+02               0
GRID*             168070               00.0000000000E+007.3032220145E+01+
*       -2.712096080E+02               0
GRID*             168071               00.0000000000E+007.4548222239E+01+
*       -2.697953784E+02               0
GRID*             168072               00.0000000000E+007.0008981106E+01+
*       -2.710788704E+02               0
GRID*             168073               00.0000000000E+007.1530009510E+01+
*       -2.696609636E+02               0
GRID*             168074               00.0000000000E+006.6975056213E+01+
*       -2.709611732E+02               0
GRID*             168075               00.0000000000E+006.8500404677E+01+
*       -2.695370828E+02               0
GRID*             168076               00.0000000000E+006.3930410628E+01+
*       -2.708604905E+02               0
GRID*             168077               00.0000000000E+006.5459002679E+01+
*       -2.694278572E+02               0
GRID*             168078               00.0000000000E+006.0875688002E+01+
*       -2.707805085E+02               0
GRID*             168079               00.0000000000E+006.2406037950E+01+
*       -2.693372661E+02               0
GRID*             168080               00.0000000000E+005.7812453161E+01+
*       -2.707246235E+02               0
GRID*             168081               00.0000000000E+005.9342677706E+01+
*       -2.692691880E+02               0
GRID*             168082               00.0000000000E+005.4743330770E+01+
*       -2.706956228E+02               0
GRID*             168083               00.0000000000E+005.6271300581E+01+
*       -2.692271885E+02               0
GRID*             168084               00.0000000000E+005.1671800777E+01+
*       -2.706949515E+02               0
GRID*             168085               00.0000000000E+005.3195510871E+01+
*       -2.692138308E+02               0
GRID*             168086               00.0000000000E+004.8601494952E+01+
*       -2.707218503E+02               0
GRID*             168087               00.0000000000E+005.0119609015E+01+
*       -2.692295860E+02               0
GRID*             168088               00.0000000000E+004.5535148305E+01+
*       -2.707731871E+02               0
GRID*             168089               00.0000000000E+004.7047465341E+01+
*       -2.692720828E+02               0
GRID*             168090               00.0000000000E+004.2473960187E+01+
*       -2.708446667E+02               0
GRID*             168091               00.0000000000E+004.3981402200E+01+
*       -2.693368143E+02               0
GRID*             168092               00.0000000000E+003.9417752035E+01+
*       -2.709320559E+02               0
GRID*             168093               00.0000000000E+004.0921903497E+01+
*       -2.694187988E+02               0
GRID*             168094               00.0000000000E+003.6365544011E+01+
*       -2.710317532E+02               0
GRID*             168095               00.0000000000E+003.7868134938E+01+
*       -2.695137154E+02               0
GRID*             168096               00.0000000000E+003.3316156346E+01+
*       -2.711407756E+02               0
GRID*             168097               00.0000000000E+003.4818706776E+01+
*       -2.696181831E+02               0
GRID*             168098               00.0000000000E+003.0268674268E+01+
*       -2.712564380E+02               0
GRID*             168099               00.0000000000E+003.1772307630E+01+
*       -2.697294908E+02               0
GRID*             168100               00.0000000000E+002.7222730103E+01+
*       -2.713760004E+02               0
GRID*             168101               00.0000000000E+002.8728102345E+01+
*       -2.698451591E+02               0
GRID*             168102               00.0000000000E+002.4178559110E+01+
*       -2.714965340E+02               0
GRID*             168103               00.0000000000E+002.5685875834E+01+
*       -2.699626392E+02               0
GRID*             168104               00.0000000000E+002.1136803151E+01+
*       -2.716151504E+02               0
GRID*             168105               00.0000000000E+002.2645922016E+01+
*       -2.700793388E+02               0
GRID*             168106               00.0000000000E+001.9608169004E+01+
*       -2.701939850E+02               0
GRID*             168107               00.0000000000E+002.1116205309E+01+
*       -2.686584724E+02               0
GRID*             168108               00.0000000000E+001.9590259500E+01+
*       -2.672344687E+02               0
GRID*             168109               00.0000000000E+001.9572784606E+01+
*       -2.642723665E+02               0
GRID*             168110               00.0000000000E+002.1095696004E+01+
*       -2.656995908E+02               0
GRID*             168111               00.0000000000E+001.9555795143E+01+
*       -2.613075952E+02               0
GRID*             168112               00.0000000000E+002.1075681408E+01+
*       -2.627377681E+02               0
GRID*             168113               00.0000000000E+001.9539516996E+01+
*       -2.583397154E+02               0
GRID*             168114               00.0000000000E+002.1056352174E+01+
*       -2.597728511E+02               0
GRID*             168115               00.0000000000E+001.9524300043E+01+
*       -2.553676907E+02               0
GRID*             168116               00.0000000000E+002.1038112377E+01+
*       -2.568041844E+02               0
GRID*             168117               00.0000000000E+001.9510520308E+01+
*       -2.523895756E+02               0
GRID*             168118               00.0000000000E+002.1021515214E+01+
*       -2.538303300E+02               0
GRID*             168119               00.0000000000E+001.9498403540E+01+
*       -2.494020717E+02               0
GRID*             168120               00.0000000000E+002.1007147471E+01+
*       -2.508487023E+02               0
GRID*             168121               00.0000000000E+001.9487715697E+01+
*       -2.463997551E+02               0
GRID*             168122               00.0000000000E+002.0995459629E+01+
*       -2.478550379E+02               0
GRID*             168123               00.0000000000E+001.9477477735E+01+
*       -2.433737729E+02               0
GRID*             168124               00.0000000000E+002.0986686205E+01+
*       -2.448426351E+02               0
GRID*             168125               00.0000000000E+001.9466209338E+01+
*       -2.403096835E+02               0
GRID*             168126               00.0000000000E+002.0981361290E+01+
*       -2.418014429E+02               0
GRID*             168127               00.0000000000E+001.9452866790E+01+
*       -2.371823953E+02               0
GRID*             168128               00.0000000000E+002.0982371316E+01+
*       -2.387172601E+02               0
GRID*             168129               00.0000000000E+001.9438197594E+01+
*       -2.339387595E+02               0
GRID*             168130               00.0000000000E+002.1001223926E+01+
*       -2.355732424E+02               0
GRID*             168131               00.0000000000E+002.1076592548E+01+
*       -2.323720004E+02               0
GRID*             168132               00.0000000000E+002.4159282629E+01+
*       -2.325872964E+02               0
GRID*             168133               00.0000000000E+002.2557781965E+01+
*       -2.340478430E+02               0
GRID*             168134               00.0000000000E+002.7179463079E+01+
*       -2.327181911E+02               0
GRID*             168135               00.0000000000E+002.5613027493E+01+
*       -2.341611386E+02               0
GRID*             168136               00.0000000000E+003.0174876299E+01+
*       -2.328036627E+02               0
GRID*             168137               00.0000000000E+002.8628398967E+01+
*       -2.342465776E+02               0
GRID*             168138               00.0000000000E+003.3155815137E+01+
*       -2.328653582E+02               0
GRID*             168139               00.0000000000E+003.1620176074E+01+
*       -2.343098623E+02               0
GRID*             168140               00.0000000000E+003.6125527358E+01+
*       -2.329174048E+02               0
GRID*             168141               00.0000000000E+003.4595421150E+01+
*       -2.343614907E+02               0
GRID*             168142               00.0000000000E+003.9086025871E+01+
*       -2.329706999E+02               0
GRID*             168143               00.0000000000E+003.7557181837E+01+
*       -2.344115937E+02               0
GRID*             168144               00.0000000000E+004.2039819161E+01+
*       -2.330350003E+02               0
GRID*             168145               00.0000000000E+004.0507522720E+01+
*       -2.344698903E+02               0
GRID*             168146               00.0000000000E+004.4990758296E+01+
*       -2.331197842E+02               0
GRID*             168147               00.0000000000E+004.3449233735E+01+
*       -2.345462060E+02               0
GRID*             168148               00.0000000000E+004.7944479417E+01+
*       -2.332339153E+02               0
GRID*             168149               00.0000000000E+004.6387036728E+01+
*       -2.346502679E+02               0
GRID*             168150               00.0000000000E+005.0907633322E+01+
*       -2.333839192E+02               0
GRID*             168151               00.0000000000E+004.9327852916E+01+
*       -2.347899713E+02               0
GRID*             168152               00.0000000000E+005.3885196910E+01+
*       -2.335715092E+02               0
GRID*             168153               00.0000000000E+005.2279322743E+01+
*       -2.349682072E+02               0
GRID*             168154               00.0000000000E+005.6875751317E+01+
*       -2.337924893E+02               0
GRID*             168155               00.0000000000E+005.5245883503E+01+
*       -2.351802896E+02               0
GRID*             168156               00.0000000000E+005.9868118275E+01+
*       -2.340396464E+02               0
GRID*             168157               00.0000000000E+005.8224020252E+01+
*       -2.354164809E+02               0
GRID*             168158               00.0000000000E+006.2846674134E+01+
*       -2.343001989E+02               0
GRID*             168159               00.0000000000E+006.1202976505E+01+
*       -2.356653413E+02               0
GRID*             168160               00.0000000000E+006.5802663220E+01+
*       -2.345532264E+02               0
GRID*             168161               00.0000000000E+006.4171489172E+01+
*       -2.359135881E+02               0
GRID*             168162               00.0000000000E+006.8735485909E+01+
*       -2.347842618E+02               0
GRID*             168163               00.0000000000E+006.7122587698E+01+
*       -2.361490175E+02               0
GRID*             168164               00.0000000000E+007.1645553745E+01+
*       -2.349896440E+02               0
GRID*             168165               00.0000000000E+007.0052610061E+01+
*       -2.363652512E+02               0
GRID*             168166               00.0000000000E+007.4528997930E+01+
*       -2.351743037E+02               0
GRID*             168167               00.0000000000E+007.2957629463E+01+
*       -2.365629524E+02               0
GRID*             168168               00.0000000000E+007.7377311959E+01+
*       -2.353480214E+02               0
GRID*             168169               00.0000000000E+007.5831657404E+01+
*       -2.367481998E+02               0
GRID*             168170               00.0000000000E+008.0181739358E+01+
*       -2.355218477E+02               0
GRID*             168171               00.0000000000E+007.8668108714E+01+
*       -2.369297940E+02               0
GRID*             168172               00.0000000000E+008.1466768832E+01+
*       -2.371138639E+02               0
GRID*             168173               00.0000000000E+008.1303140773E+01+
*       -2.401157481E+02               0
GRID*             168174               00.0000000000E+007.9985883983E+01+
*       -2.385208459E+02               0
GRID*             168175               00.0000000000E+008.1160034252E+01+
*       -2.431201539E+02               0
GRID*             168176               00.0000000000E+007.9815997820E+01+
*       -2.415232790E+02               0
GRID*             168177               00.0000000000E+008.1035409169E+01+
*       -2.461258393E+02               0
GRID*             168178               00.0000000000E+007.9666755234E+01+
*       -2.445295294E+02               0
GRID*             168179               00.0000000000E+008.0927853172E+01+
*       -2.491316200E+02               0
GRID*             168180               00.0000000000E+007.9536799938E+01+
*       -2.475376489E+02               0
GRID*             168181               00.0000000000E+008.0836253198E+01+
*       -2.521363354E+02               0
GRID*             168182               00.0000000000E+007.9425028040E+01+
*       -2.505460158E+02               0
GRID*             168183               00.0000000000E+008.0759544349E+01+
*       -2.551387686E+02               0
GRID*             168184               00.0000000000E+007.9330427319E+01+
*       -2.535530704E+02               0
GRID*             168185               00.0000000000E+008.0696546027E+01+
*       -2.581376552E+02               0
GRID*             168186               00.0000000000E+007.9251876828E+01+
*       -2.565572241E+02               0
GRID*             168187               00.0000000000E+008.0645919150E+01+
*       -2.611317958E+02               0
GRID*             168188               00.0000000000E+007.9188038144E+01+
*       -2.595569224E+02               0
GRID*             168189               00.0000000000E+008.0606227832E+01+
*       -2.641202097E+02               0
GRID*             168190               00.0000000000E+007.9137378273E+01+
*       -2.625507985E+02               0
GRID*             168191               00.0000000000E+008.0576041805E+01+
*       -2.671022169E+02               0
GRID*             168192               00.0000000000E+007.9098279780E+01+
*       -2.655377975E+02               0
GRID*             168193               00.0000000000E+007.9069310185E+01+
*       -2.685184129E+02               0
GRID*             168194               00.0000000000E+007.6068533948E+01+
*       -2.683753015E+02               0
GRID*             168195               00.0000000000E+007.7581961193E+01+
*       -2.669576893E+02               0
GRID*             168196               00.0000000000E+007.3056836407E+01+
*       -2.682360271E+02               0
GRID*             168197               00.0000000000E+007.4577148116E+01+
*       -2.668159502E+02               0
GRID*             168198               00.0000000000E+007.0032983088E+01+
*       -2.681047795E+02               0
GRID*             168199               00.0000000000E+007.1559809986E+01+
*       -2.666798430E+02               0
GRID*             168200               00.0000000000E+006.6996086746E+01+
*       -2.679856790E+02               0
GRID*             168201               00.0000000000E+006.8528665157E+01+
*       -2.665533758E+02               0
GRID*             168202               00.0000000000E+006.3945775385E+01+
*       -2.678828306E+02               0
GRID*             168203               00.0000000000E+006.5482859451E+01+
*       -2.664406525E+02               0
GRID*             168204               00.0000000000E+006.0882522953E+01+
*       -2.678005178E+02               0
GRID*             168205               00.0000000000E+006.2422260388E+01+
*       -2.663460823E+02               0
GRID*             168206               00.0000000000E+005.7808121716E+01+
*       -2.677432637E+02               0
GRID*             168207               00.0000000000E+005.9347966964E+01+
*       -2.662745935E+02               0
GRID*             168208               00.0000000000E+005.4726090123E+01+
*       -2.677153600E+02               0
GRID*             168209               00.0000000000E+005.6262911259E+01+
*       -2.662314352E+02               0
GRID*             168210               00.0000000000E+005.1641647432E+01+
*       -2.677194913E+02               0
GRID*             168211               00.0000000000E+005.3172226684E+01+
*       -2.662210206E+02               0
GRID*             168212               00.0000000000E+004.8560677388E+01+
*       -2.677547106E+02               0
GRID*             168213               00.0000000000E+005.0082715805E+01+
*       -2.662446160E+02               0
GRID*             168214               00.0000000000E+004.5487471096E+01+
*       -2.678156070E+02               0
GRID*             168215               00.0000000000E+004.7000683144E+01+
*       -2.662982348E+02               0
GRID*             168216               00.0000000000E+004.2423406833E+01+
*       -2.678954753E+02               0
GRID*             168217               00.0000000000E+004.3929475729E+01+
*       -2.663742679E+02               0
GRID*             168218               00.0000000000E+003.9367585657E+01+
*       -2.679886464E+02               0
GRID*             168219               00.0000000000E+004.0869088993E+01+
*       -2.664653228E+02               0
GRID*             168220               00.0000000000E+003.6318077218E+01+
*       -2.680910839E+02               0
GRID*             168221               00.0000000000E+003.7817527937E+01+
*       -2.665660148E+02               0
GRID*             168222               00.0000000000E+003.3272900816E+01+
*       -2.682000141E+02               0
GRID*             168223               00.0000000000E+003.4772271259E+01+
*       -2.666729149E+02               0
GRID*             168224               00.0000000000E+003.0230588558E+01+
*       -2.683132730E+02               0
GRID*             168225               00.0000000000E+003.1731181745E+01+
*       -2.667837963E+02               0
GRID*             168226               00.0000000000E+002.7190410638E+01+
*       -2.684287627E+02               0
GRID*             168227               00.0000000000E+002.8692896851E+01+
*       -2.668968765E+02               0
GRID*             168228               00.0000000000E+002.4152324386E+01+
*       -2.685442428E+02               0
GRID*             168229               00.0000000000E+002.5656859190E+01+
*       -2.670103662E+02               0
GRID*             168230               00.0000000000E+002.2622607679E+01+
*       -2.671233763E+02               0
GRID*             168231               00.0000000000E+002.4126261193E+01+
*       -2.655885918E+02               0
GRID*             168232               00.0000000000E+002.2599349518E+01+
*       -2.641648062E+02               0
GRID*             168233               00.0000000000E+002.2576567904E+01+
*       -2.612032109E+02               0
GRID*             168234               00.0000000000E+002.4100236014E+01+
*       -2.626302490E+02               0
GRID*             168235               00.0000000000E+002.2554682839E+01+
*       -2.582384672E+02               0
GRID*             168236               00.0000000000E+002.4074898568E+01+
*       -2.596688269E+02               0
GRID*             168237               00.0000000000E+002.2534401643E+01+
*       -2.552698374E+02               0
GRID*             168238               00.0000000000E+002.4050972105E+01+
*       -2.567041202E+02               0
GRID*             168239               00.0000000000E+002.2516654844E+01+
*       -2.522956565E+02               0
GRID*             168240               00.0000000000E+002.4029541273E+01+
*       -2.537351640E+02               0
GRID*             168241               00.0000000000E+002.2502472351E+01+
*       -2.493129644E+02               0
GRID*             168242               00.0000000000E+002.4011979724E+01+
*       -2.507599187E+02               0
GRID*             168243               00.0000000000E+002.2492836867E+01+
*       -2.463170681E+02               0
GRID*             168244               00.0000000000E+002.3999849588E+01+
*       -2.477749946E+02               0
GRID*             168245               00.0000000000E+002.2488817226E+01+
*       -2.433011651E+02               0
GRID*             168246               00.0000000000E+002.3994967888E+01+
*       -2.447755981E+02               0
GRID*             168247               00.0000000000E+002.2492646454E+01+
*       -2.402564206E+02               0
GRID*             168248               00.0000000000E+002.4000102390E+01+
*       -2.417561428E+02               0
GRID*             168249               00.0000000000E+002.2510580697E+01+
*       -2.371732827E+02               0
GRID*             168250               00.0000000000E+002.4020855835E+01+
*       -2.387124432E+02               0
GRID*             168251               00.0000000000E+002.4067138736E+01+
*       -2.356478833E+02               0
GRID*             168252               00.0000000000E+002.7093684015E+01+
*       -2.357158516E+02               0
GRID*             168253               00.0000000000E+002.5547795258E+01+
*       -2.372025963E+02               0
GRID*             168254               00.0000000000E+003.0094313545E+01+
*       -2.357690209E+02               0
GRID*             168255               00.0000000000E+002.8559598593E+01+
*       -2.372382949E+02               0
GRID*             168256               00.0000000000E+003.3075677291E+01+
*       -2.358119440E+02               0
GRID*             168257               00.0000000000E+003.1549814762E+01+
*       -2.372711026E+02               0
GRID*             168258               00.0000000000E+003.6040470357E+01+
*       -2.358519534E+02               0
GRID*             168259               00.0000000000E+003.4520726498E+01+
*       -2.373024067E+02               0
GRID*             168260               00.0000000000E+003.8989742590E+01+
*       -2.358974121E+02               0
GRID*             168261               00.0000000000E+003.7473031110E+01+
*       -2.373377718E+02               0
GRID*             168262               00.0000000000E+004.1924579721E+01+
*       -2.359578694E+02               0
GRID*             168263               00.0000000000E+004.0406799592E+01+
*       -2.373853912E+02               0
GRID*             168264               00.0000000000E+004.4847845647E+01+
*       -2.360442851E+02               0
GRID*             168265               00.0000000000E+004.3323191633E+01+
*       -2.374559484E+02               0
GRID*             168266               00.0000000000E+004.7765639323E+01+
*       -2.361678460E+02               0
GRID*             168267               00.0000000000E+004.6226448242E+01+
*       -2.375618631E+02               0
GRID*             168268               00.0000000000E+005.0687903165E+01+
*       -2.363363519E+02               0
GRID*             168269               00.0000000000E+004.9125689572E+01+
*       -2.377142266E+02               0
GRID*             168270               00.0000000000E+005.3626817192E+01+
*       -2.365478622E+02               0
GRID*             168271               00.0000000000E+005.2035397613E+01+
*       -2.379160068E+02               0
GRID*             168272               00.0000000000E+005.6589078182E+01+
*       -2.367859003E+02               0
GRID*             168273               00.0000000000E+005.4970011870E+01+
*       -2.381534729E+02               0
GRID*             168274               00.0000000000E+005.9566144269E+01+
*       -2.370362858E+02               0
GRID*             168275               00.0000000000E+005.7931202199E+01+
*       -2.384057052E+02               0
GRID*             168276               00.0000000000E+006.2543710251E+01+
*       -2.372875445E+02               0
GRID*             168277               00.0000000000E+006.0906878016E+01+
*       -2.386584890E+02               0
GRID*             168278               00.0000000000E+006.5510371265E+01+
*       -2.375289114E+02               0
GRID*             168279               00.0000000000E+006.3882592344E+01+
*       -2.389028678E+02               0
GRID*             168280               00.0000000000E+006.8459575492E+01+
*       -2.377534152E+02               0
GRID*             168281               00.0000000000E+006.6847359059E+01+
*       -2.391333090E+02               0
GRID*             168282               00.0000000000E+007.1386826767E+01+
*       -2.379597850E+02               0
GRID*             168283               00.0000000000E+006.9793792198E+01+
*       -2.393479490E+02               0
GRID*             168284               00.0000000000E+007.4286938538E+01+
*       -2.381519312E+02               0
GRID*             168285               00.0000000000E+007.2716135843E+01+
*       -2.395487639E+02               0
GRID*             168286               00.0000000000E+007.7153863224E+01+
*       -2.383369790E+02               0
GRID*             168287               00.0000000000E+007.5609144358E+01+
*       -2.397407104E+02               0
GRID*             168288               00.0000000000E+007.8471638493E+01+
*       -2.399280309E+02               0
GRID*             168289               00.0000000000E+007.8298899121E+01+
*       -2.429321318E+02               0
GRID*             168290               00.0000000000E+007.6954539794E+01+
*       -2.413368837E+02               0
GRID*             168291               00.0000000000E+007.8146802309E+01+
*       -2.459407302E+02               0
GRID*             168292               00.0000000000E+007.6778946195E+01+
*       -2.443433326E+02               0
GRID*             168293               00.0000000000E+007.8014532211E+01+
*       -2.489516406E+02               0
GRID*             168294               00.0000000000E+007.6624534582E+01+
*       -2.473547219E+02               0
GRID*             168295               00.0000000000E+007.7901386974E+01+
*       -2.519629032E+02               0
GRID*             168296               00.0000000000E+007.6490891145E+01+
*       -2.503685280E+02               0
GRID*             168297               00.0000000000E+007.7806541745E+01+
*       -2.549725140E+02               0
GRID*             168298               00.0000000000E+007.6377501400E+01+
*       -2.533823469E+02               0
GRID*             168299               00.0000000000E+007.7728825309E+01+
*       -2.579784271E+02               0
GRID*             168300               00.0000000000E+007.6283490227E+01+
*       -2.563937171E+02               0
GRID*             168301               00.0000000000E+007.7666680688E+01+
*       -2.609787354E+02               0
GRID*             168302               00.0000000000E+007.6207467853E+01+
*       -2.594002401E+02               0
GRID*             168303               00.0000000000E+007.7618303355E+01+
*       -2.639718752E+02               0
GRID*             168304               00.0000000000E+007.6147605770E+01+
*       -2.623998121E+02               0
GRID*             168305               00.0000000000E+007.6101984768E+01+
*       -2.653917670E+02               0
GRID*             168306               00.0000000000E+007.3093082633E+01+
*       -2.652498574E+02               0
GRID*             168307               00.0000000000E+007.4617919285E+01+
*       -2.638256742E+02               0
GRID*             168308               00.0000000000E+007.0069651034E+01+
*       -2.651149996E+02               0
GRID*             168309               00.0000000000E+007.1602923681E+01+
*       -2.636850139E+02               0
GRID*             168310               00.0000000000E+006.7030259116E+01+
*       -2.649910591E+02               0
GRID*             168311               00.0000000000E+006.8571244993E+01+
*       -2.635526829E+02               0
GRID*             168312               00.0000000000E+006.3973938510E+01+
*       -2.648822629E+02               0
GRID*             168313               00.0000000000E+006.5521338175E+01+
*       -2.634326696E+02               0
GRID*             168314               00.0000000000E+006.0900637068E+01+
*       -2.647936690E+02               0
GRID*             168315               00.0000000000E+006.2452315190E+01+
*       -2.633298497E+02               0
GRID*             168316               00.0000000000E+005.7811980554E+01+
*       -2.647315315E+02               0
GRID*             168317               00.0000000000E+005.9364650657E+01+
*       -2.632506070E+02               0
GRID*             168318               00.0000000000E+005.4712279669E+01+
*       -2.647028804E+02               0
GRID*             168319               00.0000000000E+005.6261348964E+01+
*       -2.632029766E+02               0
GRID*             168320               00.0000000000E+005.1609387642E+01+
*       -2.647132829E+02               0
GRID*             168321               00.0000000000E+005.3149440627E+01+
*       -2.631951427E+02               0
GRID*             168322               00.0000000000E+004.8513582629E+01+
*       -2.647621512E+02               0
GRID*             168323               00.0000000000E+005.0040254467E+01+
*       -2.632308181E+02               0
GRID*             168324               00.0000000000E+004.5432015895E+01+
*       -2.648388031E+02               0
GRID*             168325               00.0000000000E+004.6944915381E+01+
*       -2.633027195E+02               0
GRID*             168326               00.0000000000E+004.2365723374E+01+
*       -2.649321309E+02               0
GRID*             168327               00.0000000000E+004.3868263540E+01+
*       -2.633966661E+02               0
GRID*             168328               00.0000000000E+003.9311992685E+01+
*       -2.650346042E+02               0
GRID*             168329               00.0000000000E+004.0808627067E+01+
*       -2.635014123E+02               0
GRID*             168330               00.0000000000E+003.6267095893E+01+
*       -2.651420576E+02               0
GRID*             168331               00.0000000000E+003.7761560641E+01+
*       -2.636106469E+02               0
GRID*             168332               00.0000000000E+003.3227797275E+01+
*       -2.652523674E+02               0
GRID*             168333               00.0000000000E+003.4722621909E+01+
*       -2.637215100E+02               0
GRID*             168334               00.0000000000E+003.0191897540E+01+
*       -2.653642547E+02               0
GRID*             168335               00.0000000000E+003.1688513071E+01+
*       -2.638328258E+02               0
GRID*             168336               00.0000000000E+002.7158271420E+01+
*       -2.654765247E+02               0
GRID*             168337               00.0000000000E+002.8657272109E+01+
*       -2.639439029E+02               0
GRID*             168338               00.0000000000E+002.5627673424E+01+
*       -2.640547502E+02               0
GRID*             168339               00.0000000000E+002.7125916384E+01+
*       -2.625210257E+02               0
GRID*             168340               00.0000000000E+002.5598478974E+01+
*       -2.610965244E+02               0
GRID*             168341               00.0000000000E+002.5570121847E+01+
*       -2.581356710E+02               0
GRID*             168342               00.0000000000E+002.7093702253E+01+
*       -2.595633686E+02               0
GRID*             168343               00.0000000000E+002.5543762355E+01+
*       -2.551720739E+02               0
GRID*             168344               00.0000000000E+002.7062912097E+01+
*       -2.566036248E+02               0
GRID*             168345               00.0000000000E+002.5521059667E+01+
*       -2.522047029E+02               0
GRID*             168346               00.0000000000E+002.7035280749E+01+
*       -2.536416128E+02               0
GRID*             168347               00.0000000000E+002.5504059498E+01+
*       -2.492312957E+02               0
GRID*             168348               00.0000000000E+002.7013139441E+01+
*       -2.506760799E+02               0
GRID*             168349               00.0000000000E+002.5495025517E+01+
*       -2.462482526E+02               0
GRID*             168350               00.0000000000E+002.6999235426E+01+
*       -2.477045537E+02               0
GRID*             168351               00.0000000000E+002.5496508516E+01+
*       -2.432510650E+02               0
GRID*             168352               00.0000000000E+002.6996566144E+01+
*       -2.447237194E+02               0
GRID*             168353               00.0000000000E+002.5512217902E+01+
*       -2.402357773E+02               0
GRID*             168354               00.0000000000E+002.7008624027E+01+
*       -2.417306994E+02               0
GRID*             168355               00.0000000000E+002.7039157325E+01+
*       -2.387259304E+02               0
GRID*             168356               00.0000000000E+003.0036642857E+01+
*       -2.387431001E+02               0
GRID*             168357               00.0000000000E+002.8516201589E+01+
*       -2.402307356E+02               0
GRID*             168358               00.0000000000E+003.3014565576E+01+
*       -2.387603633E+02               0
GRID*             168359               00.0000000000E+003.1501393671E+01+
*       -2.402323608E+02               0
GRID*             168360               00.0000000000E+003.5972615033E+01+
*       -2.387802333E+02               0
GRID*             168361               00.0000000000E+003.4466454111E+01+
*       -2.402381899E+02               0
GRID*             168362               00.0000000000E+003.8909331559E+01+
*       -2.388086795E+02               0
GRID*             168363               00.0000000000E+003.7408915482E+01+
*       -2.402511409E+02               0
GRID*             168364               00.0000000000E+004.1823251960E+01+
*       -2.388552020E+02               0
GRID*             168365               00.0000000000E+004.0325783927E+01+
*       -2.402784904E+02               0
GRID*             168366               00.0000000000E+004.4714810066E+01+
*       -2.389332126E+02               0
GRID*             168367               00.0000000000E+004.3214870392E+01+
*       -2.403324662E+02               0
GRID*             168368               00.0000000000E+004.7588889307E+01+
*       -2.390591123E+02               0
GRID*             168369               00.0000000000E+004.6077251131E+01+
*       -2.404304618E+02               0
GRID*             168370               00.0000000000E+005.0459127036E+01+
*       -2.392478446E+02               0
GRID*             168371               00.0000000000E+004.8922326772E+01+
*       -2.405927303E+02               0
GRID*             168372               00.0000000000E+005.3352130242E+01+
*       -2.394991341E+02               0
GRID*             168373               00.0000000000E+005.1775859664E+01+
*       -2.408309718E+02               0
GRID*             168374               00.0000000000E+005.6293174673E+01+
*       -2.397682827E+02               0
GRID*             168375               00.0000000000E+005.4675293044E+01+
*       -2.411139438E+02               0
GRID*             168376               00.0000000000E+005.9267531851E+01+
*       -2.400335216E+02               0
GRID*             168377               00.0000000000E+005.7629504325E+01+
*       -2.413960991E+02               0
GRID*             168378               00.0000000000E+006.2253500810E+01+
*       -2.402866677E+02               0
GRID*             168379               00.0000000000E+006.0614154645E+01+
*       -2.416617003E+02               0
GRID*             168380               00.0000000000E+006.5234720911E+01+
*       -2.405243227E+02               0
GRID*             168381               00.0000000000E+006.3605629377E+01+
*       -2.419081226E+02               0
GRID*             168382               00.0000000000E+006.8201082533E+01+
*       -2.407455506E+02               0
GRID*             168383               00.0000000000E+006.6588444385E+01+
*       -2.421365642E+02               0
GRID*             168384               00.0000000000E+007.1146096610E+01+
*       -2.409519733E+02               0
GRID*             168385               00.0000000000E+006.9553386945E+01+
*       -2.423495748E+02               0
GRID*             168386               00.0000000000E+007.4064653192E+01+
*       -2.411476303E+02               0
GRID*             168387               00.0000000000E+007.2494613959E+01+
*       -2.425508396E+02               0
GRID*             168388               00.0000000000E+007.5410048628E+01+
*       -2.427438036E+02               0
GRID*             168389               00.0000000000E+007.5233666930E+01+
*       -2.457542639E+02               0
GRID*             168390               00.0000000000E+007.3864769363E+01+
*       -2.441547348E+02               0
GRID*             168391               00.0000000000E+007.5079039193E+01+
*       -2.487698166E+02               0
GRID*             168392               00.0000000000E+007.3688171542E+01+
*       -2.471693586E+02               0
GRID*             168393               00.0000000000E+007.4946266004E+01+
*       -2.517877503E+02               0
GRID*             168394               00.0000000000E+007.3534414052E+01+
*       -2.501890389E+02               0
GRID*             168395               00.0000000000E+007.4835112537E+01+
*       -2.548051433E+02               0
GRID*             168396               00.0000000000E+007.3403877141E+01+
*       -2.532105467E+02               0
GRID*             168397               00.0000000000E+007.4744592087E+01+
*       -2.578189437E+02               0
GRID*             168398               00.0000000000E+007.3296214397E+01+
*       -2.562303698E+02               0
GRID*             168399               00.0000000000E+007.4672919235E+01+
*       -2.608263125E+02               0
GRID*             168400               00.0000000000E+007.3210043470E+01+
*       -2.592450161E+02               0
GRID*             168401               00.0000000000E+007.3143232749E+01+
*       -2.622521746E+02               0
GRID*             168402               00.0000000000E+007.0121880583E+01+
*       -2.621107770E+02               0
GRID*             168403               00.0000000000E+007.1662189652E+01+
*       -2.606779377E+02               0
GRID*             168404               00.0000000000E+006.7081213418E+01+
*       -2.619784642E+02               0
GRID*             168405               00.0000000000E+006.8631849008E+01+
*       -2.605365583E+02               0
GRID*             168406               00.0000000000E+006.4019339407E+01+
*       -2.618593842E+02               0
GRID*             168407               00.0000000000E+006.5579214650E+01+
*       -2.604051788E+02               0
GRID*             168408               00.0000000000E+006.0934996728E+01+
*       -2.617593227E+02               0
GRID*             168409               00.0000000000E+006.2502020946E+01+
*       -2.602888572E+02               0
GRID*             168410               00.0000000000E+005.7828517706E+01+
*       -2.616867592E+02               0
GRID*             168411               00.0000000000E+005.9398863777E+01+
*       -2.601954749E+02               0
GRID*             168412               00.0000000000E+005.4703964350E+01+
*       -2.616533133E+02               0
GRID*             168413               00.0000000000E+005.6271133092E+01+
*       -2.601370958E+02               0
GRID*             168414               00.0000000000E+005.1572793713E+01+
*       -2.616714100E+02               0
GRID*             168415               00.0000000000E+005.3127317436E+01+
*       -2.601295806E+02               0
GRID*             168416               00.0000000000E+004.8455035469E+01+
*       -2.617442237E+02               0
GRID*             168417               00.0000000000E+004.9987574715E+01+
*       -2.601848156E+02               0
GRID*             168418               00.0000000000E+004.5363634084E+01+
*       -2.618466186E+02               0
GRID*             168419               00.0000000000E+004.6873754173E+01+
*       -2.602881229E+02               0
GRID*             168420               00.0000000000E+004.2297196038E+01+
*       -2.619597617E+02               0
GRID*             168421               00.0000000000E+004.3792566581E+01+
*       -2.604097142E+02               0
GRID*             168422               00.0000000000E+003.9248764818E+01+
*       -2.620747511E+02               0
GRID*             168423               00.0000000000E+004.0737333789E+01+
*       -2.605331005E+02               0
GRID*             168424               00.0000000000E+003.6211470457E+01+
*       -2.621885469E+02               0
GRID*             168425               00.0000000000E+003.7698674635E+01+
*       -2.606526511E+02               0
GRID*             168426               00.0000000000E+003.3180338744E+01+
*       -2.623006506E+02               0
GRID*             168427               00.0000000000E+003.4669187293E+01+
*       -2.607676875E+02               0
GRID*             168428               00.0000000000E+003.0152382955E+01+
*       -2.624112581E+02               0
GRID*             168429               00.0000000000E+003.1644208629E+01+
*       -2.608790829E+02               0
GRID*             168430               00.0000000000E+002.8621027230E+01+
*       -2.609883809E+02               0
GRID*             168431               00.0000000000E+003.0112261010E+01+
*       -2.594566273E+02               0
GRID*             168432               00.0000000000E+002.8584936032E+01+
*       -2.580316150E+02               0
GRID*             168433               00.0000000000E+002.8550797560E+01+
*       -2.550741501E+02               0
GRID*             168434               00.0000000000E+003.0072821495E+01+
*       -2.565021403E+02               0
GRID*             168435               00.0000000000E+002.8521171600E+01+
*       -2.521158814E+02               0
GRID*             168436               00.0000000000E+003.0036688411E+01+
*       -2.535484186E+02               0
GRID*             168437               00.0000000000E+002.8499380451E+01+
*       -2.491553024E+02               0
GRID*             168438               00.0000000000E+003.0007412610E+01+
*       -2.505951038E+02               0
GRID*             168439               00.0000000000E+002.8489070678E+01+
*       -2.461895234E+02               0
GRID*             168440               00.0000000000E+002.9989215703E+01+
*       -2.476402721E+02               0
GRID*             168441               00.0000000000E+002.8493698335E+01+
*       -2.432151762E+02               0
GRID*             168442               00.0000000000E+002.9986202870E+01+
*       -2.446809802E+02               0
GRID*             168443               00.0000000000E+003.0001275897E+01+
*       -2.417152124E+02               0
GRID*             168444               00.0000000000E+003.2975222030E+01+
*       -2.417049029E+02               0
GRID*             168445               00.0000000000E+003.1475104256E+01+
*       -2.431877545E+02               0
GRID*             168446               00.0000000000E+003.5927517025E+01+
*       -2.416993379E+02               0
GRID*             168447               00.0000000000E+003.4436284944E+01+
*       -2.431660510E+02               0
GRID*             168448               00.0000000000E+003.8853779296E+01+
*       -2.417026824E+02               0
GRID*             168449               00.0000000000E+003.7372380839E+01+
*       -2.431508794E+02               0
GRID*             168450               00.0000000000E+004.1748768367E+01+
*       -2.417241304E+02               0
GRID*             168451               00.0000000000E+004.0276763736E+01+
*       -2.431483224E+02               0
GRID*             168452               00.0000000000E+004.4607224512E+01+
*       -2.417795957E+02               0
GRID*             168453               00.0000000000E+004.3141122487E+01+
*       -2.431712598E+02               0
GRID*             168454               00.0000000000E+004.7426795275E+01+
*       -2.418939737E+02               0
GRID*             168455               00.0000000000E+004.5956768655E+01+
*       -2.432431076E+02               0
GRID*             168456               00.0000000000E+005.0219401966E+01+
*       -2.421023658E+02               0
GRID*             168457               00.0000000000E+004.8723870469E+01+
*       -2.434036092E+02               0
GRID*             168458               00.0000000000E+005.3039393533E+01+
*       -2.424360138E+02               0
GRID*             168459               00.0000000000E+005.1482935835E+01+
*       -2.437074078E+02               0
GRID*             168460               00.0000000000E+005.5971417355E+01+
*       -2.427573690E+02               0
GRID*             168461               00.0000000000E+005.4335517844E+01+
*       -2.440794389E+02               0
GRID*             168462               00.0000000000E+005.8962434605E+01+
*       -2.430450397E+02               0
GRID*             168463               00.0000000000E+005.7304347634E+01+
*       -2.444063096E+02               0
GRID*             168464               00.0000000000E+006.1970817619E+01+
*       -2.433031408E+02               0
GRID*             168465               00.0000000000E+006.0319097579E+01+
*       -2.446864802E+02               0
GRID*             168466               00.0000000000E+006.4974087584E+01+
*       -2.435383123E+02               0
GRID*             168467               00.0000000000E+006.3339275826E+01+
*       -2.449333306E+02               0
GRID*             168468               00.0000000000E+006.7960966519E+01+
*       -2.437557496E+02               0
GRID*             168469               00.0000000000E+006.6346609718E+01+
*       -2.451574977E+02               0
GRID*             168470               00.0000000000E+007.0925417700E+01+
*       -2.439598946E+02               0
GRID*             168471               00.0000000000E+006.9332997274E+01+
*       -2.453660694E+02               0
GRID*             168472               00.0000000000E+007.2295573104E+01+
*       -2.455637898E+02               0
GRID*             168473               00.0000000000E+007.2119818255E+01+
*       -2.485847521E+02               0
GRID*             168474               00.0000000000E+007.0727219817E+01+
*       -2.469791833E+02               0
GRID*             168475               00.0000000000E+007.1968467733E+01+
*       -2.516107120E+02               0
GRID*             168476               00.0000000000E+007.0553871936E+01+
*       -2.500064252E+02               0
GRID*             168477               00.0000000000E+007.1842399721E+01+
*       -2.546376840E+02               0
GRID*             168478               00.0000000000E+007.0406990314E+01+
*       -2.530378492E+02               0
GRID*             168479               00.0000000000E+007.1741001561E+01+
*       -2.576612745E+02               0
GRID*             168480               00.0000000000E+007.0287186885E+01+
*       -2.560685887E+02               0
GRID*             168481               00.0000000000E+007.0193147743E+01+
*       -2.590941961E+02               0
GRID*             168482               00.0000000000E+006.7153687892E+01+
*       -2.589501546E+02               0
GRID*             168483               00.0000000000E+006.8714986628E+01+
*       -2.575077924E+02               0
GRID*             168484               00.0000000000E+006.4088391214E+01+
*       -2.588161070E+02               0
GRID*             168485               00.0000000000E+006.5662864456E+01+
*       -2.573610827E+02               0
GRID*             168486               00.0000000000E+006.0993756150E+01+
*       -2.586978452E+02               0
GRID*             168487               00.0000000000E+006.2580126418E+01+
*       -2.572250949E+02               0
GRID*             168488               00.0000000000E+005.7866477807E+01+
*       -2.586055855E+02               0
GRID*             168489               00.0000000000E+005.9461370180E+01+
*       -2.571079557E+02               0
GRID*             168490               00.0000000000E+005.4706564569E+01+
*       -2.585572314E+02               0
GRID*             168491               00.0000000000E+005.6301909284E+01+
*       -2.570257210E+02               0
GRID*             168492               00.0000000000E+005.1527748456E+01+
*       -2.585809986E+02               0
GRID*             168493               00.0000000000E+005.3106995589E+01+
*       -2.570086495E+02               0
GRID*             168494               00.0000000000E+004.8375082210E+01+
*       -2.587019096E+02               0
GRID*             168495               00.0000000000E+004.9915255950E+01+
*       -2.570980926E+02               0
GRID*             168496               00.0000000000E+004.5274204397E+01+
*       -2.588468498E+02               0
GRID*             168497               00.0000000000E+004.6775532434E+01+
*       -2.572606365E+02               0
GRID*             168498               00.0000000000E+004.2213259564E+01+
*       -2.589868389E+02               0
GRID*             168499               00.0000000000E+004.3694897380E+01+
*       -2.574239744E+02               0
GRID*             168500               00.0000000000E+003.9176004646E+01+
*       -2.591159344E+02               0
GRID*             168501               00.0000000000E+004.0651930421E+01+
*       -2.575696728E+02               0
GRID*             168502               00.0000000000E+003.6150784023E+01+
*       -2.592354233E+02               0
GRID*             168503               00.0000000000E+003.7628114034E+01+
*       -2.576987066E+02               0
GRID*             168504               00.0000000000E+003.3130759519E+01+
*       -2.593480502E+02               0
GRID*             168505               00.0000000000E+003.4612356249E+01+
*       -2.578157860E+02               0
GRID*             168506               00.0000000000E+003.1598811900E+01+
*       -2.579255946E+02               0
GRID*             168507               00.0000000000E+003.3080298833E+01+
*       -2.563979868E+02               0
GRID*             168508               00.0000000000E+003.1554308428E+01+
*       -2.549745325E+02               0
GRID*             168509               00.0000000000E+003.1514507242E+01+
*       -2.520269828E+02               0
GRID*             168510               00.0000000000E+003.3032127259E+01+
*       -2.534530966E+02               0
GRID*             168511               00.0000000000E+003.1484551360E+01+
*       -2.490821145E+02               0
GRID*             168512               00.0000000000E+003.2991645992E+01+
*       -2.505139935E+02               0
GRID*             168513               00.0000000000E+003.1470104165E+01+
*       -2.461368881E+02               0
GRID*             168514               00.0000000000E+003.2965439821E+01+
*       -2.475787305E+02               0
GRID*             168515               00.0000000000E+003.2959005551E+01+
*       -2.446436625E+02               0
GRID*             168516               00.0000000000E+003.5910017081E+01+
*       -2.446100600E+02               0
GRID*             168517               00.0000000000E+003.4432737688E+01+
*       -2.460876715E+02               0
GRID*             168518               00.0000000000E+003.8832829024E+01+
*       -2.445819090E+02               0
GRID*             168519               00.0000000000E+003.7370465265E+01+
*       -2.460410897E+02               0
GRID*             168520               00.0000000000E+004.1717796557E+01+
*       -2.445659584E+02               0
GRID*             168521               00.0000000000E+004.0273861846E+01+
*       -2.459995450E+02               0
GRID*             168522               00.0000000000E+004.4549574139E+01+
*       -2.445769252E+02               0
GRID*             168523               00.0000000000E+004.3126248209E+01+
*       -2.459716238E+02               0
GRID*             168524               00.0000000000E+004.7304790395E+01+
*       -2.446460332E+02               0
GRID*             168525               00.0000000000E+004.5897595878E+01+
*       -2.459798508E+02               0
GRID*             168526               00.0000000000E+004.9965392829E+01+
*       -2.448441763E+02               0
GRID*             168527               00.0000000000E+004.8546312755E+01+
*       -2.460866002E+02               0
GRID*             168528               00.0000000000E+005.2622233827E+01+
*       -2.453916879E+02               0
GRID*             168529               00.0000000000E+005.1104690822E+01+
*       -2.465284564E+02               0
GRID*             168530               00.0000000000E+005.5598009138E+01+
*       -2.457855832E+02               0
GRID*             168531               00.0000000000E+005.3884725121E+01+
*       -2.470978323E+02               0
GRID*             168532               00.0000000000E+005.8645879279E+01+
*       -2.460896785E+02               0
GRID*             168533               00.0000000000E+005.6939540782E+01+
*       -2.474689522E+02               0
GRID*             168534               00.0000000000E+006.1696859788E+01+
*       -2.463448082E+02               0
GRID*             168535               00.0000000000E+006.0023641488E+01+
*       -2.477480065E+02               0
GRID*             168536               00.0000000000E+006.4730924560E+01+
*       -2.465718063E+02               0
GRID*             168537               00.0000000000E+006.3088508522E+01+
*       -2.479832839E+02               0
GRID*             168538               00.0000000000E+006.7741673639E+01+
*       -2.467812452E+02               0
GRID*             168539               00.0000000000E+006.6125988481E+01+
*       -2.481955537E+02               0
GRID*             168540               00.0000000000E+006.9135896182E+01+
*       -2.483943590E+02               0
GRID*             168541               00.0000000000E+006.8965586744E+01+
*       -2.514310647E+02               0
GRID*             168542               00.0000000000E+006.7547610989E+01+
*       -2.498189986E+02               0
GRID*             168543               00.0000000000E+006.8825289527E+01+
*       -2.544708954E+02               0
GRID*             168544               00.0000000000E+006.7383885956E+01+
*       -2.528641109E+02               0
GRID*             168545               00.0000000000E+006.7253089269E+01+
*       -2.559100991E+02               0
GRID*             168546               00.0000000000E+006.4189253500E+01+
*       -2.557567755E+02               0
GRID*             168547               00.0000000000E+006.5779478313E+01+
*       -2.543057919E+02               0
GRID*             168548               00.0000000000E+006.1089123483E+01+
*       -2.556124359E+02               0
GRID*             168549               00.0000000000E+006.2698250565E+01+
*       -2.541441166E+02               0
GRID*             168550               00.0000000000E+005.7942447335E+01+
*       -2.554857192E+02               0
GRID*             168551               00.0000000000E+005.9570200639E+01+
*       -2.539901994E+02               0
GRID*             168552               00.0000000000E+005.4734957531E+01+
*       -2.553973967E+02               0
GRID*             168553               00.0000000000E+005.6375495582E+01+
*       -2.538573949E+02               0
GRID*             168554               00.0000000000E+005.1464555469E+01+
*       -2.554024997E+02               0
GRID*             168555               00.0000000000E+005.3092517411E+01+
*       -2.537912469E+02               0
GRID*             168556               00.0000000000E+004.8251926240E+01+
*       -2.556429933E+02               0
GRID*             168557               00.0000000000E+004.9801225758E+01+
*       -2.539474004E+02               0
GRID*             168558               00.0000000000E+004.5151038391E+01+
*       -2.558565711E+02               0
GRID*             168559               00.0000000000E+004.6627432196E+01+
*       -2.542389279E+02               0
GRID*             168560               00.0000000000E+004.2109293999E+01+
*       -2.560271292E+02               0
GRID*             168561               00.0000000000E+004.3565435010E+01+
*       -2.544597259E+02               0
GRID*             168562               00.0000000000E+003.9093213520E+01+
*       -2.561672584E+02               0
GRID*             168563               00.0000000000E+004.0550577099E+01+
*       -2.546247148E+02               0
GRID*             168564               00.0000000000E+003.6086095021E+01+
*       -2.562882256E+02               0
GRID*             168565               00.0000000000E+003.7551194507E+01+
*       -2.547567773E+02               0
GRID*             168566               00.0000000000E+003.4554037604E+01+
*       -2.548704264E+02               0
GRID*             168567               00.0000000000E+003.6020865895E+01+
*       -2.533519956E+02               0
GRID*             168568               00.0000000000E+003.4498955550E+01+
*       -2.519346658E+02               0
GRID*             168569               00.0000000000E+003.4455378377E+01+
*       -2.490085517E+02               0
GRID*             168570               00.0000000000E+003.5962687934E+01+
*       -2.504292240E+02               0
GRID*             168571               00.0000000000E+003.5922676243E+01+
*       -2.475174926E+02               0
GRID*             168572               00.0000000000E+003.8854123233E+01+
*       -2.474548623E+02               0
GRID*             168573               00.0000000000E+003.7406334211E+01+
*       -2.489312653E+02               0
GRID*             168574               00.0000000000E+004.1748419192E+01+
*       -2.473908742E+02               0
GRID*             168575               00.0000000000E+004.0328680580E+01+
*       -2.488461915E+02               0
GRID*             168576               00.0000000000E+004.4580610487E+01+
*       -2.473283435E+02               0
GRID*             168577               00.0000000000E+004.3202781470E+01+
*       -2.487475939E+02               0
GRID*             168578               00.0000000000E+004.7287015014E+01+
*       -2.472796208E+02               0
GRID*             168579               00.0000000000E+004.5970029623E+01+
*       -2.486281134E+02               0
GRID*             168580               00.0000000000E+004.9704629388E+01+
*       -2.472930232E+02               0
GRID*             168581               00.0000000000E+004.8445331647E+01+
*       -2.484860438E+02               0
GRID*             168582               00.0000000000E+005.1827688788E+01+
*       -2.485340381E+02               0
GRID*             168583               00.0000000000E+005.0427627355E+01+
*       -2.492986049E+02               0
GRID*             168584               00.0000000000E+005.5153969422E+01+
*       -2.489145823E+02               0
GRID*             168585               00.0000000000E+005.3096933089E+01+
*       -2.503507882E+02               0
GRID*             168586               00.0000000000E+005.8332035373E+01+
*       -2.491881375E+02               0
GRID*             168587               00.0000000000E+005.6546464013E+01+
*       -2.506337676E+02               0
GRID*             168588               00.0000000000E+006.1443927559E+01+
*       -2.494171055E+02               0
GRID*             168589               00.0000000000E+005.9752321444E+01+
*       -2.508572365E+02               0
GRID*             168590               00.0000000000E+006.4512870686E+01+
*       -2.496241906E+02               0
GRID*             168591               00.0000000000E+006.2868289723E+01+
*       -2.510580123E+02               0
GRID*             168592               00.0000000000E+006.5934493195E+01+
*       -2.512476356E+02               0
GRID*             168593               00.0000000000E+006.4330085552E+01+
*       -2.526893166E+02               0
GRID*             168594               00.0000000000E+006.1236454737E+01+
*       -2.525128123E+02               0
GRID*             168595               00.0000000000E+005.8086067345E+01+
*       -2.523346236E+02               0
GRID*             168596               00.0000000000E+005.4835892250E+01+
*       -2.521565389E+02               0
GRID*             168597               00.0000000000E+005.1353558250E+01+
*       -2.519854962E+02               0
GRID*             168598               00.0000000000E+004.8034574830E+01+
*       -2.526134029E+02               0
GRID*             168599               00.0000000000E+004.9586907322E+01+
*       -2.506514987E+02               0
GRID*             168600               00.0000000000E+004.4977958265E+01+
*       -2.529129323E+02               0
GRID*             168601               00.0000000000E+004.6385100898E+01+
*       -2.512874073E+02               0
GRID*             168602               00.0000000000E+004.1984264568E+01+
*       -2.531007035E+02               0
GRID*             168603               00.0000000000E+004.3396787822E+01+
*       -2.515539099E+02               0
GRID*             168604               00.0000000000E+003.9003706017E+01+
*       -2.532389263E+02               0
GRID*             168605               00.0000000000E+004.0437393486E+01+
*       -2.517149150E+02               0
GRID*             168606               00.0000000000E+003.7473377404E+01+
*       -2.518341446E+02               0
GRID*             168607               00.0000000000E+003.8917023681E+01+
*       -2.503361859E+02               0
GRID*             168608               00.0000000000E+004.1849050385E+01+
*       -2.502249206E+02               0
GRID*             168609               00.0000000000E+004.4750518907E+01+
*       -2.500765832E+02               0
GRID*             168610               00.0000000000E+004.7604611614E+01+
*       -2.498389375E+02               0
GRID*             168611               00.0000000000E+008.6983910801E+01+
*       -3.226844094E+02               0
GRID*             168612               00.0000000000E+008.7618217382E+01+
*       -3.229730479E+02               0
GRID*             168613               00.0000000000E+008.8220317124E+01+
*       -3.217863570E+02               0
GRID*             168614               00.0000000000E+008.8116166332E+01+
*       -3.163049322E+02               0
GRID*             168615               00.0000000000E+008.7024763295E+01+
*       -3.169674358E+02               0
GRID*             168616               00.0000000000E+008.7688537284E+01+
*       -3.177278165E+02               0
GRID*             168617               00.0000000000E+008.8461627697E+01+
*       -3.184449661E+02               0
GRID*             168618               00.0000000000E+008.7063775515E+01+
*       -3.185103807E+02               0
GRID*             168619               00.0000000000E+008.7664636591E+01+
*       -3.193893342E+02               0
GRID*             168620               00.0000000000E+008.7000862602E+01+
*       -3.201289535E+02               0
GRID*             168621               00.0000000000E+008.8237268925E+01+
*       -3.207309011E+02               0
GRID*             168622               00.0000000000E+005.3182982826E+01+
*       -2.164495549E+02               0
GRID*             168623               00.0000000000E+005.1622710950E+01+
*       -2.180656460E+02               0
GRID*             168624               00.0000000000E+005.3221529682E+01+
*       -2.196216193E+02               0
GRID*             168625               00.0000000000E+005.4781801558E+01+
*       -2.180055281E+02               0
GRID*             168626               00.0000000000E+005.8082261486E+01+
*       -2.179155421E+02               0
GRID*             168627               00.0000000000E+005.6360556519E+01+
*       -2.163138227E+02               0
GRID*             168628               00.0000000000E+005.6503506525E+01+
*       -2.196072475E+02               0
GRID*             168629               00.0000000000E+006.1702093512E+01+
*       -2.177461365E+02               0
GRID*             168630               00.0000000000E+005.9616046237E+01+
*       -2.160676564E+02               0
GRID*             168631               00.0000000000E+006.0168308761E+01+
*       -2.195940222E+02               0
GRID*             168632               00.0000000000E+006.4604493514E+01+
*       -2.164791689E+02               0
GRID*             168633               00.0000000000E+006.2750930004E+01+
*       -2.155342942E+02               0
GRID*             168634               00.0000000000E+006.3555657022E+01+
*       -2.186910111E+02               0
GRID*             168635               00.0000000000E+006.7209909795E+01+
*       -2.159758812E+02               0
GRID*             168636               00.0000000000E+006.5615280006E+01+
*       -2.149246800E+02               0
GRID*             168637               00.0000000000E+006.6199123303E+01+
*       -2.175303700E+02               0
GRID*             168638               00.0000000000E+006.9835190096E+01+
*       -2.157124670E+02               0
GRID*             168639               00.0000000000E+006.8340660676E+01+
*       -2.145416385E+02               0
GRID*             168640               00.0000000000E+006.8704439214E+01+
*       -2.171467097E+02               0
GRID*             168641               00.0000000000E+007.2518233508E+01+
*       -2.155531197E+02               0
GRID*             168642               00.0000000000E+007.1049633541E+01+
*       -2.143090443E+02               0
GRID*             168643               00.0000000000E+007.1303790062E+01+
*       -2.169565425E+02               0
GRID*             168644               00.0000000000E+007.5230167867E+01+
*       -2.154389428E+02               0
GRID*             168645               00.0000000000E+007.3766153665E+01+
*       -2.141643350E+02               0
GRID*             168646               00.0000000000E+007.3982247709E+01+
*       -2.168277276E+02               0
GRID*             168647               00.0000000000E+007.7910586716E+01+
*       -2.153468493E+02               0
GRID*             168648               00.0000000000E+007.6465346328E+01+
*       -2.140793898E+02               0
GRID*             168649               00.0000000000E+007.6675408254E+01+
*       -2.167064023E+02               0
GRID*             168650               00.0000000000E+008.0449340209E+01+
*       -2.152957302E+02               0
GRID*             168651               00.0000000000E+007.9089565424E+01+
*       -2.140668657E+02               0
GRID*             168652               00.0000000000E+007.9270361500E+01+
*       -2.165757138E+02               0
GRID*             168653               00.0000000000E+008.1546992023E+01+
*       -2.142142273E+02               0
GRID*             168654               00.0000000000E+008.1672586526E+01+
*       -2.165512875E+02               0
GRID*             168655               00.0000000000E+008.1913380228E+01+
*       -2.185753673E+02               0
GRID*             168656               00.0000000000E+008.0682391499E+01+
*       -2.175909848E+02               0
GRID*             168657               00.0000000000E+008.2281553672E+01+
*       -2.203481864E+02               0
GRID*             168658               00.0000000000E+008.1100811457E+01+
*       -2.196049812E+02               0
GRID*             168659               00.0000000000E+008.2777987931E+01+
*       -2.217352989E+02               0
GRID*             168660               00.0000000000E+008.1748280490E+01+
*       -2.211628109E+02               0
GRID*             168661               00.0000000000E+008.2317150662E+01+
*       -2.232401119E+02               0
GRID*             168662               00.0000000000E+008.1758100986E+01+
*       -2.224890316E+02               0
GRID*             168663               00.0000000000E+008.1152330410E+01+
*       -2.242974676E+02               0
GRID*             168664               00.0000000000E+007.8713320897E+01+
*       -2.235660435E+02               0
GRID*             168665               00.0000000000E+008.0219603280E+01+
*       -2.226109084E+02               0
GRID*             168666               00.0000000000E+007.5582014863E+01+
*       -2.235893632E+02               0
GRID*             168667               00.0000000000E+007.7375434895E+01+
*       -2.221010345E+02               0
GRID*             168668               00.0000000000E+007.2688352772E+01+
*       -2.235455294E+02               0
GRID*             168669               00.0000000000E+007.4234781756E+01+
*       -2.221724531E+02               0
GRID*             168670               00.0000000000E+006.9918821718E+01+
*       -2.234236545E+02               0
GRID*             168671               00.0000000000E+007.1409844517E+01+
*       -2.221349024E+02               0
GRID*             168672               00.0000000000E+006.7248475830E+01+
*       -2.231785812E+02               0
GRID*             168673               00.0000000000E+006.8751428607E+01+
*       -2.219879982E+02               0
GRID*             168674               00.0000000000E+006.4617108153E+01+
*       -2.226848741E+02               0
GRID*             168675               00.0000000000E+006.6219346118E+01+
*       -2.216249866E+02               0
GRID*             168676               00.0000000000E+006.1694937377E+01+
*       -2.214283999E+02               0
GRID*             168677               00.0000000000E+006.3561436166E+01+
*       -2.204776284E+02               0
GRID*             168678               00.0000000000E+005.8063286178E+01+
*       -2.212832553E+02               0
GRID*             168679               00.0000000000E+005.4754874987E+01+
*       -2.212198879E+02               0
GRID*             168680               00.0000000000E+005.1588361491E+01+
*       -2.211905878E+02               0
GRID*             168681               00.0000000000E+007.8187246279E+01+
*       -2.179203226E+02               0
GRID*             168682               00.0000000000E+007.9599276278E+01+
*       -2.189355936E+02               0
GRID*             168683               00.0000000000E+008.0209782785E+01+
*       -2.212846876E+02               0
GRID*             168684               00.0000000000E+007.8708247606E+01+
*       -2.206153001E+02               0
GRID*             168685               00.0000000000E+006.5478373908E+01+
*       -2.186854834E+02               0
GRID*             168686               00.0000000000E+006.5484153052E+01+
*       -2.204721007E+02               0
GRID*             168687               00.0000000000E+006.6888498826E+01+
*       -2.195726079E+02               0
GRID*             168688               00.0000000000E+006.7609248221E+01+
*       -2.184174945E+02               0
GRID*             168689               00.0000000000E+006.7623691891E+01+
*       -2.207254938E+02               0
GRID*             168690               00.0000000000E+007.0095995830E+01+
*       -2.208224851E+02               0
GRID*             168691               00.0000000000E+006.8968259114E+01+
*       -2.195599808E+02               0
GRID*             168692               00.0000000000E+007.0063450108E+01+
*       -2.182891960E+02               0
GRID*             168693               00.0000000000E+007.1461932363E+01+
*       -2.195300059E+02               0
GRID*             168694               00.0000000000E+007.2702272318E+01+
*       -2.181973524E+02               0
GRID*             168695               00.0000000000E+007.4156779775E+01+
*       -2.194608754E+02               0
GRID*             168696               00.0000000000E+007.5436755167E+01+
*       -2.180912506E+02               0
GRID*             168697               00.0000000000E+007.6948593192E+01+
*       -2.193051709E+02               0
GRID*             168698               00.0000000000E+007.5615780481E+01+
*       -2.207909053E+02               0
GRID*             168699               00.0000000000E+007.2775781050E+01+
*       -2.208424232E+02               0
GRID*             168700               00.0000000000E+003.0625313511E+01+
*       -2.211801438E+02               0
GRID*             168701               00.0000000000E+002.9213762602E+01+
*       -2.197420437E+02               0
GRID*             168702               00.0000000000E+002.7656499676E+01+
*       -2.211703594E+02               0
GRID*             168703               00.0000000000E+002.6195930275E+01+
*       -2.197465812E+02               0
GRID*             168704               00.0000000000E+002.4630211617E+01+
*       -2.211701510E+02               0
GRID*             168705               00.0000000000E+002.2913255697E+01+
*       -2.197784152E+02               0
GRID*             168706               00.0000000000E+002.1410849510E+01+
*       -2.212343096E+02               0
GRID*             168707               00.0000000000E+001.8929441594E+01+
*       -2.221048175E+02               0
GRID*             168708               00.0000000000E+001.7780701289E+01+
*       -2.213131555E+02               0
GRID*             168709               00.0000000000E+001.7324644628E+01+
*       -2.199181058E+02               0
GRID*             168710               00.0000000000E+001.8349443584E+01+
*       -2.205431929E+02               0
GRID*             168711               00.0000000000E+003.0784286342E+01+
*       -2.183023183E+02               0
GRID*             168712               00.0000000000E+002.9419917227E+01+
*       -2.168723096E+02               0
GRID*             168713               00.0000000000E+002.7849393487E+01+
*       -2.183120350E+02               0
GRID*             168714               00.0000000000E+002.6511985737E+01+
*       -2.168786306E+02               0
GRID*             168715               00.0000000000E+002.4858522524E+01+
*       -2.183131768E+02               0
GRID*             168716               00.0000000000E+002.3599313754E+01+
*       -2.168446863E+02               0
GRID*             168717               00.0000000000E+002.1654046927E+01+
*       -2.183099247E+02               0
GRID*             168718               00.0000000000E+001.8416154146E+01+
*       -2.192395389E+02               0
GRID*             168719               00.0000000000E+001.7880286022E+01+
*       -2.184677690E+02               0
GRID*             168720               00.0000000000E+001.8427874022E+01+
*       -2.164602235E+02               0
GRID*             168721               00.0000000000E+001.9213012011E+01+
*       -2.175245505E+02               0
GRID*             168722               00.0000000000E+003.2170959522E+01+
*       -2.197375102E+02               0
GRID*             168723               00.0000000000E+003.3711112204E+01+
*       -2.182836782E+02               0
GRID*             168724               00.0000000000E+003.2324439024E+01+
*       -2.168484862E+02               0
GRID*             168725               00.0000000000E+003.5117096464E+01+
*       -2.197276078E+02               0
GRID*             168726               00.0000000000E+003.6639239478E+01+
*       -2.182586994E+02               0
GRID*             168727               00.0000000000E+003.5233255218E+01+
*       -2.168147697E+02               0
GRID*             168728               00.0000000000E+003.8064965141E+01+
*       -2.197131907E+02               0
GRID*             168729               00.0000000000E+003.9578235730E+01+
*       -2.182284346E+02               0
GRID*             168730               00.0000000000E+003.8152510067E+01+
*       -2.167739433E+02               0
GRID*             168731               00.0000000000E+004.1025285065E+01+
*       -2.196954373E+02               0
GRID*             168732               00.0000000000E+004.2536214364E+01+
*       -2.181938376E+02               0
GRID*             168733               00.0000000000E+004.1089165029E+01+
*       -2.167268349E+02               0
GRID*             168734               00.0000000000E+004.4007278617E+01+
*       -2.196759827E+02               0
GRID*             168735               00.0000000000E+004.5521705352E+01+
*       -2.181555863E+02               0
GRID*             168736               00.0000000000E+004.4050641099E+01+
*       -2.166734413E+02               0
GRID*             168737               00.0000000000E+004.7021601150E+01+
*       -2.196564245E+02               0
GRID*             168738               00.0000000000E+004.8545324981E+01+
*       -2.181135387E+02               0
GRID*             168739               00.0000000000E+004.7045429183E+01+
*       -2.166127005E+02               0
GRID*             168740               00.0000000000E+005.0083599635E+01+
*       -2.196380416E+02               0
GRID*             168741               00.0000000000E+005.0084436296E+01+
*       -2.165411431E+02               0
GRID*             168742               00.0000000000E+004.8502599347E+01+
*       -2.211781688E+02               0
GRID*             168743               00.0000000000E+004.5468603578E+01+
*       -2.211752457E+02               0
GRID*             168744               00.0000000000E+004.2469864943E+01+
*       -2.211775819E+02               0
GRID*             168745               00.0000000000E+003.9495069668E+01+
*       -2.211819099E+02               0
GRID*             168746               00.0000000000E+003.6535192631E+01+
*       -2.211853115E+02               0
GRID*             168747               00.0000000000E+003.3581827098E+01+
*       -2.211852393E+02               0
GRID*             168748               00.0000000000E+007.1346785734E+01+
*       -1.255346669E+02               0
GRID*             168749               00.0000000000E+006.9821921243E+01+
*       -1.269103327E+02               0
GRID*             168750               00.0000000000E+007.1092141420E+01+
*       -1.283529040E+02               0
GRID*             168751               00.0000000000E+007.2617005911E+01+
*       -1.269772381E+02               0
GRID*             168752               00.0000000000E+006.8592443016E+01+
*       -1.254216547E+02               0
GRID*             168753               00.0000000000E+006.7043871884E+01+
*       -1.267350837E+02               0
GRID*             168754               00.0000000000E+006.8273350110E+01+
*       -1.282237618E+02               0
GRID*             168755               00.0000000000E+006.5841924757E+01+
*       -1.251423371E+02               0
GRID*             168756               00.0000000000E+006.4223481831E+01+
*       -1.264090126E+02               0
GRID*             168757               00.0000000000E+006.5425428958E+01+
*       -1.280017593E+02               0
GRID*             168758               00.0000000000E+006.2958997070E+01+
*       -1.246392286E+02               0
GRID*             168759               00.0000000000E+006.1229429910E+01+
*       -1.259316055E+02               0
GRID*             168760               00.0000000000E+006.2493914671E+01+
*       -1.277013895E+02               0
GRID*             168761               00.0000000000E+005.9814536864E+01+
*       -1.242219387E+02               0
GRID*             168762               00.0000000000E+005.8032710382E+01+
*       -1.257213630E+02               0
GRID*             168763               00.0000000000E+005.9447603428E+01+
*       -1.274310298E+02               0
GRID*             168764               00.0000000000E+005.6559779356E+01+
*       -1.240793246E+02               0
GRID*             168765               00.0000000000E+005.4866669066E+01+
*       -1.256181494E+02               0
GRID*             168766               00.0000000000E+005.6339600092E+01+
*       -1.272601878E+02               0
GRID*             168767               00.0000000000E+007.9695659585E+01+
*       -1.255490586E+02               0
GRID*             168768               00.0000000000E+007.8274139760E+01+
*       -1.269408168E+02               0
GRID*             168769               00.0000000000E+007.9481378838E+01+
*       -1.284133822E+02               0
GRID*             168770               00.0000000000E+008.0902898663E+01+
*       -1.270216239E+02               0
GRID*             168771               00.0000000000E+007.6998640753E+01+
*       -1.254942814E+02               0
GRID*             168772               00.0000000000E+007.5443127958E+01+
*       -1.269729931E+02               0
GRID*             168773               00.0000000000E+007.6718626965E+01+
*       -1.284195285E+02               0
GRID*             168774               00.0000000000E+007.4151265477E+01+
*       -1.255413548E+02               0
GRID*             168775               00.0000000000E+007.3908868392E+01+
*       -1.284088764E+02               0
GRID*             168776               00.0000000000E+008.8080241021E+01+
*       -1.276979371E+02               0
GRID*             168777               00.0000000000E+008.7724839886E+01+
*       -1.260559524E+02               0
GRID*             168778               00.0000000000E+008.6917270072E+01+
*       -1.269099017E+02               0
GRID*             168779               00.0000000000E+008.6147708491E+01+
*       -1.278316056E+02               0
GRID*             168780               00.0000000000E+008.7310679440E+01+
*       -1.286196410E+02               0
GRID*             168781               00.0000000000E+008.6271905662E+01+
*       -1.259549825E+02               0
GRID*             168782               00.0000000000E+008.2038339167E+01+
*       -1.255625202E+02               0
GRID*             168783               00.0000000000E+008.2226366738E+01+
*       -1.283059412E+02               0
GRID*             168784               00.0000000000E+008.3361807242E+01+
*       -1.268468374E+02               0
GRID*             168785               00.0000000000E+008.5489370538E+01+
*       -1.268409084E+02               0
GRID*             168786               00.0000000000E+008.4774739688E+01+
*       -1.259407676E+02               0
GRID*             168787               00.0000000000E+008.4187562801E+01+
*       -1.275054401E+02               0
GRID*             168788               00.0000000000E+008.4845900754E+01+
*       -1.284961373E+02               0
GRID*             168789               00.0000000000E+005.3382385314E+01+
*       -1.240222718E+02               0
GRID*             168790               00.0000000000E+005.1754892223E+01+
*       -1.255550549E+02               0
GRID*             168791               00.0000000000E+005.3239175976E+01+
*       -1.271509324E+02               0
GRID*             168792               00.0000000000E+005.0276207537E+01+
*       -1.239878326E+02               0
GRID*             168793               00.0000000000E+004.8687621666E+01+
*       -1.255031025E+02               0
GRID*             168794               00.0000000000E+005.0166306353E+01+
*       -1.270703248E+02               0
GRID*             168795               00.0000000000E+004.7219463510E+01+
*       -1.239529384E+02               0
GRID*             168796               00.0000000000E+004.5652573826E+01+
*       -1.254481358E+02               0
GRID*             168797               00.0000000000E+004.7120731983E+01+
*       -1.269982999E+02               0
GRID*             168798               00.0000000000E+004.4195589328E+01+
*       -1.239075913E+02               0
GRID*             168799               00.0000000000E+004.2639679718E+01+
*       -1.253824585E+02               0
GRID*             168800               00.0000000000E+004.4096664217E+01+
*       -1.269230030E+02               0
GRID*             168801               00.0000000000E+004.1192936266E+01+
*       -1.238465193E+02               0
GRID*             168802               00.0000000000E+003.9640833042E+01+
*       -1.253008775E+02               0
GRID*             168803               00.0000000000E+004.1087576495E+01+
*       -1.268368167E+02               0
GRID*             168804               00.0000000000E+003.8202638332E+01+
*       -1.237660581E+02               0
GRID*             168805               00.0000000000E+003.6649254943E+01+
*       -1.251991751E+02               0
GRID*             168806               00.0000000000E+003.8087449653E+01+
*       -1.267339946E+02               0
GRID*             168807               00.0000000000E+003.5217252924E+01+
*       -1.236632154E+02               0
GRID*             168808               00.0000000000E+003.3659340391E+01+
*       -1.250733966E+02               0
GRID*             168809               00.0000000000E+003.5091342410E+01+
*       -1.266093563E+02               0
GRID*             168810               00.0000000000E+003.2230194306E+01+
*       -1.235356482E+02               0
GRID*             168811               00.0000000000E+003.0667480837E+01+
*       -1.249197697E+02               0
GRID*             168812               00.0000000000E+003.2096626922E+01+
*       -1.264575181E+02               0
GRID*             168813               00.0000000000E+002.9236382878E+01+
*       -1.233832061E+02               0
GRID*             168814               00.0000000000E+002.7675407665E+01+
*       -1.247361198E+02               0
GRID*             168815               00.0000000000E+002.9106505624E+01+
*       -1.262726833E+02               0
GRID*             168816               00.0000000000E+002.6232133074E+01+
*       -1.232144965E+02               0
GRID*             168817               00.0000000000E+002.4696005843E+01+
*       -1.245284613E+02               0
GRID*             168818               00.0000000000E+002.6139280435E+01+
*       -1.260500846E+02               0
GRID*             168819               00.0000000000E+002.3236667764E+01+
*       -1.230713732E+02               0
GRID*             168820               00.0000000000E+002.1794984623E+01+
*       -1.243358201E+02               0
GRID*             168821               00.0000000000E+002.3254322702E+01+
*       -1.257929082E+02               0
GRID*             168822               00.0000000000E+002.0469094777E+01+
*       -1.231244459E+02               0
GRID*             168823               00.0000000000E+001.9274272498E+01+
*       -1.243205868E+02               0
GRID*             168824               00.0000000000E+002.0600162344E+01+
*       -1.255319609E+02               0
GRID*             168825               00.0000000000E+001.8134485615E+01+
*       -1.232347272E+02               0
GRID*             168826               00.0000000000E+001.8334869295E+01+
*       -1.252793938E+02               0
GRID*             168827               00.0000000000E+008.5994290326E+01+
*       -1.302400356E+02               0
GRID*             168828               00.0000000000E+008.7183589121E+01+
*       -1.317459373E+02               0
GRID*             168829               00.0000000000E+008.7078330595E+01+
*       -1.348301475E+02               0
GRID*             168830               00.0000000000E+008.5835598641E+01+
*       -1.332191751E+02               0
GRID*             168831               00.0000000000E+008.6991794140E+01+
*       -1.378969552E+02               0
GRID*             168832               00.0000000000E+008.5708183785E+01+
*       -1.362824133E+02               0
GRID*             168833               00.0000000000E+008.6918770815E+01+
*       -1.409553503E+02               0
GRID*             168834               00.0000000000E+008.5603100133E+01+
*       -1.393484567E+02               0
GRID*             168835               00.0000000000E+008.6856018733E+01+
*       -1.440095522E+02               0
GRID*             168836               00.0000000000E+008.5513829345E+01+
*       -1.424101417E+02               0
GRID*             168837               00.0000000000E+008.6801539157E+01+
*       -1.470615078E+02               0
GRID*             168838               00.0000000000E+008.5436706200E+01+
*       -1.454686715E+02               0
GRID*             168839               00.0000000000E+008.6753974767E+01+
*       -1.501122458E+02               0
GRID*             168840               00.0000000000E+008.5369479209E+01+
*       -1.485253782E+02               0
GRID*             168841               00.0000000000E+008.6712325209E+01+
*       -1.531624622E+02               0
GRID*             168842               00.0000000000E+008.5310592040E+01+
*       -1.515812157E+02               0
GRID*             168843               00.0000000000E+008.6675844623E+01+
*       -1.562127507E+02               0
GRID*             168844               00.0000000000E+008.5258901108E+01+
*       -1.546369638E+02               0
GRID*             168845               00.0000000000E+008.6644029833E+01+
*       -1.592636749E+02               0
GRID*             168846               00.0000000000E+008.5213595678E+01+
*       -1.576933546E+02               0
GRID*             168847               00.0000000000E+008.6616648703E+01+
*       -1.623157607E+02               0
GRID*             168848               00.0000000000E+008.5174209459E+01+
*       -1.607510956E+02               0
GRID*             168849               00.0000000000E+008.6593775900E+01+
*       -1.653694423E+02               0
GRID*             168850               00.0000000000E+008.5140665988E+01+
*       -1.638108203E+02               0
GRID*             168851               00.0000000000E+008.6575807395E+01+
*       -1.684249775E+02               0
GRID*             168852               00.0000000000E+008.5113316290E+01+
*       -1.668729903E+02               0
GRID*             168853               00.0000000000E+008.6563423833E+01+
*       -1.714823552E+02               0
GRID*             168854               00.0000000000E+008.5092927800E+01+
*       -1.699377680E+02               0
GRID*             168855               00.0000000000E+008.6557476492E+01+
*       -1.745412288E+02               0
GRID*             168856               00.0000000000E+008.5080582708E+01+
*       -1.730048989E+02               0
GRID*             168857               00.0000000000E+008.6558791736E+01+
*       -1.776009255E+02               0
GRID*             168858               00.0000000000E+008.5077459264E+01+
*       -1.760736627E+02               0
GRID*             168859               00.0000000000E+008.6567949009E+01+
*       -1.806605670E+02               0
GRID*             168860               00.0000000000E+008.5084528527E+01+
*       -1.791429560E+02               0
GRID*             168861               00.0000000000E+008.6585158466E+01+
*       -1.837192882E+02               0
GRID*             168862               00.0000000000E+008.5102300697E+01+
*       -1.822115306E+02               0
GRID*             168863               00.0000000000E+008.6610340053E+01+
*       -1.867764602E+02               0
GRID*             168864               00.0000000000E+008.5130795159E+01+
*       -1.852783077E+02               0
GRID*             168865               00.0000000000E+008.6643283077E+01+
*       -1.898318107E+02               0
GRID*             168866               00.0000000000E+008.5169721678E+01+
*       -1.883426174E+02               0
GRID*             168867               00.0000000000E+008.6683696524E+01+
*       -1.928854435E+02               0
GRID*             168868               00.0000000000E+008.5218656208E+01+
*       -1.914042800E+02               0
GRID*             168869               00.0000000000E+008.6731266487E+01+
*       -1.959377898E+02               0
GRID*             168870               00.0000000000E+008.5277161811E+01+
*       -1.944635407E+02               0
GRID*             168871               00.0000000000E+008.6786123749E+01+
*       -1.989895458E+02               0
GRID*             168872               00.0000000000E+008.5345153668E+01+
*       -1.975209002E+02               0
GRID*             168873               00.0000000000E+008.6849764603E+01+
*       -2.020419782E+02               0
GRID*             168874               00.0000000000E+008.5423756757E+01+
*       -2.005769374E+02               0
GRID*             168875               00.0000000000E+008.6926093608E+01+
*       -2.050981898E+02               0
GRID*             168876               00.0000000000E+008.5516612739E+01+
*       -2.036315117E+02               0
GRID*             168877               00.0000000000E+008.7022638580E+01+
*       -2.081653224E+02               0
GRID*             168878               00.0000000000E+008.5631955596E+01+
*       -2.066750777E+02               0
GRID*             168879               00.0000000000E+008.7147561621E+01+
*       -2.112693531E+02               0
GRID*             168880               00.0000000000E+008.5783027401E+01+
*       -2.096280665E+02               0
GRID*             168881               00.0000000000E+008.3143681962E+01+
*       -2.099956640E+02               0
GRID*             168882               00.0000000000E+008.4575961247E+01+
*       -2.113476026E+02               0
GRID*             168883               00.0000000000E+008.4350748116E+01+
*       -2.082761279E+02               0
GRID*             168884               00.0000000000E+008.0313527205E+01+
*       -2.098599197E+02               0
GRID*             168885               00.0000000000E+008.1839363665E+01+
*       -2.114908596E+02               0
GRID*             168886               00.0000000000E+008.1617845503E+01+
*       -2.083647241E+02               0
GRID*             168887               00.0000000000E+007.7553201155E+01+
*       -2.098440846E+02               0
GRID*             168888               00.0000000000E+007.9022217910E+01+
*       -2.113214540E+02               0
GRID*             168889               00.0000000000E+007.8844510451E+01+
*       -2.083825503E+02               0
GRID*             168890               00.0000000000E+007.4791085687E+01+
*       -2.099037607E+02               0
GRID*             168891               00.0000000000E+007.6276015909E+01+
*       -2.113145205E+02               0
GRID*             168892               00.0000000000E+007.6068270933E+01+
*       -2.084333248E+02               0
GRID*             168893               00.0000000000E+007.2015273096E+01+
*       -2.100246114E+02               0
GRID*             168894               00.0000000000E+007.3524674760E+01+
*       -2.113945066E+02               0
GRID*             168895               00.0000000000E+007.3281684023E+01+
*       -2.085338655E+02               0
GRID*             168896               00.0000000000E+006.9225209882E+01+
*       -2.102082102E+02               0
GRID*             168897               00.0000000000E+007.0760679612E+01+
*       -2.115445460E+02               0
GRID*             168898               00.0000000000E+007.0479803366E+01+
*       -2.086882757E+02               0
GRID*             168899               00.0000000000E+006.6412236180E+01+
*       -2.104637113E+02               0
GRID*             168900               00.0000000000E+006.7980861405E+01+
*       -2.117720063E+02               0
GRID*             168901               00.0000000000E+006.7656584656E+01+
*       -2.088999152E+02               0
GRID*             168902               00.0000000000E+006.3549225425E+01+
*       -2.107949643E+02               0
GRID*             168903               00.0000000000E+006.5162584875E+01+
*       -2.120911969E+02               0
GRID*             168904               00.0000000000E+006.4798876730E+01+
*       -2.091674788E+02               0
GRID*             168905               00.0000000000E+006.0595625397E+01+
*       -2.111690401E+02               0
GRID*             168906               00.0000000000E+006.2256458556E+01+
*       -2.124912818E+02               0
GRID*             168907               00.0000000000E+006.1888392267E+01+
*       -2.094727226E+02               0
GRID*             168908               00.0000000000E+005.7555881196E+01+
*       -2.114649571E+02               0
GRID*             168909               00.0000000000E+005.9231962932E+01+
*       -2.128639927E+02               0
GRID*             168910               00.0000000000E+005.8919543662E+01+
*       -2.097700044E+02               0
GRID*             168911               00.0000000000E+005.4503073539E+01+
*       -2.116886407E+02               0
GRID*             168912               00.0000000000E+005.6143316027E+01+
*       -2.131298088E+02               0
GRID*             168913               00.0000000000E+005.5915638708E+01+
*       -2.100237890E+02               0
GRID*             168914               00.0000000000E+005.1472764867E+01+
*       -2.118633652E+02               0
GRID*             168915               00.0000000000E+005.3065638656E+01+
*       -2.133187273E+02               0
GRID*             168916               00.0000000000E+005.2910199750E+01+
*       -2.102332786E+02               0
GRID*             168917               00.0000000000E+004.8476403349E+01+
*       -2.120069113E+02               0
GRID*             168918               00.0000000000E+005.0024960097E+01+
*       -2.134617974E+02               0
GRID*             168919               00.0000000000E+004.9924208119E+01+
*       -2.104084791E+02               0
GRID*             168920               00.0000000000E+004.5515632129E+01+
*       -2.121299207E+02               0
GRID*             168921               00.0000000000E+004.7024827226E+01+
*       -2.135778419E+02               0
GRID*             168922               00.0000000000E+004.6967208252E+01+
*       -2.105589902E+02               0
GRID*             168923               00.0000000000E+004.2588633397E+01+
*       -2.122379506E+02               0
GRID*             168924               00.0000000000E+004.4061953579E+01+
*       -2.136767260E+02               0
GRID*             168925               00.0000000000E+004.4042311947E+01+
*       -2.106911453E+02               0
GRID*             168926               00.0000000000E+003.9692328216E+01+
*       -2.123334808E+02               0
GRID*             168927               00.0000000000E+004.1131518434E+01+
*       -2.137632060E+02               0
GRID*             168928               00.0000000000E+004.1149443179E+01+
*       -2.108082254E+02               0
GRID*             168929               00.0000000000E+003.6823209303E+01+
*       -2.124173969E+02               0
GRID*             168930               00.0000000000E+003.8228562490E+01+
*       -2.138393986E+02               0
GRID*             168931               00.0000000000E+003.8286975030E+01+
*       -2.109114792E+02               0
GRID*             168932               00.0000000000E+003.3978323370E+01+
*       -2.124896306E+02               0
GRID*             168933               00.0000000000E+003.5348587812E+01+
*       -2.139060459E+02               0
GRID*             168934               00.0000000000E+003.5452944861E+01+
*       -2.110009816E+02               0
GRID*             168935               00.0000000000E+003.1157338676E+01+
*       -2.125486029E+02               0
GRID*             168936               00.0000000000E+003.2488773957E+01+
*       -2.139625260E+02               0
GRID*             168937               00.0000000000E+003.2646888088E+01+
*       -2.110757075E+02               0
GRID*             168938               00.0000000000E+002.8365632919E+01+
*       -2.125897047E+02               0
GRID*             168939               00.0000000000E+002.9650451275E+01+
*       -2.140055514E+02               0
GRID*             168940               00.0000000000E+002.9872520319E+01+
*       -2.111327562E+02               0
GRID*             168941               00.0000000000E+002.5616996405E+01+
*       -2.126040700E+02               0
GRID*             168942               00.0000000000E+002.6842402946E+01+
*       -2.140271572E+02               0
GRID*             168943               00.0000000000E+002.7140226378E+01+
*       -2.111666174E+02               0
GRID*             168944               00.0000000000E+002.2940396721E+01+
*       -2.125791354E+02               0
GRID*             168945               00.0000000000E+002.4088695626E+01+
*       -2.140128893E+02               0
GRID*             168946               00.0000000000E+002.4468697500E+01+
*       -2.111703160E+02               0
GRID*             168947               00.0000000000E+002.0400137998E+01+
*       -2.125016490E+02               0
GRID*             168948               00.0000000000E+002.1455318497E+01+
*       -2.139397682E+02               0
GRID*             168949               00.0000000000E+002.1885216221E+01+
*       -2.111410162E+02               0
GRID*             168950               00.0000000000E+001.7994948979E+01+
*       -2.124763788E+02               0
GRID*             168951               00.0000000000E+001.8987603124E+01+
*       -2.138772892E+02               0
GRID*             168952               00.0000000000E+001.9407483853E+01+
*       -2.111007386E+02               0
GRID*             168953               00.0000000000E+001.5709113961E+01+
*       -2.125185554E+02               0
GRID*             168954               00.0000000000E+001.7030311059E+01+
*       -2.110764560E+02               0
GRID*             168955               00.0000000000E+001.3549796410E+01+
*       -2.125218291E+02               0
GRID*             168956               00.0000000000E+001.4734349512E+01+
*       -2.110563145E+02               0
GRID*             168957               00.0000000000E+001.2468803614E+01+
*       -2.110232020E+02               0
GRID*             168958               00.0000000000E+001.2555651344E+01+
*       -2.080472254E+02               0
GRID*             168959               00.0000000000E+001.3669606825E+01+
*       -2.095653090E+02               0
GRID*             168960               00.0000000000E+001.2650766719E+01+
*       -2.050548560E+02               0
GRID*             168961               00.0000000000E+001.3800199804E+01+
*       -2.065990788E+02               0
GRID*             168962               00.0000000000E+001.2740463547E+01+
*       -2.020516391E+02               0
GRID*             168963               00.0000000000E+001.3924272087E+01+
*       -2.036145744E+02               0
GRID*             168964               00.0000000000E+001.2823117689E+01+
*       -1.990440630E+02               0
GRID*             168965               00.0000000000E+001.4038240358E+01+
*       -2.006199258E+02               0
GRID*             168966               00.0000000000E+001.2900726072E+01+
*       -1.960353932E+02               0
GRID*             168967               00.0000000000E+001.4144036016E+01+
*       -1.976216390E+02               0
GRID*             168968               00.0000000000E+001.2975948428E+01+
*       -1.930255055E+02               0
GRID*             168969               00.0000000000E+001.4245275402E+01+
*       -1.946217957E+02               0
GRID*             168970               00.0000000000E+001.3050375217E+01+
*       -1.900118983E+02               0
GRID*             168971               00.0000000000E+001.4344980934E+01+
*       -1.916185821E+02               0
GRID*             168972               00.0000000000E+001.3123508868E+01+
*       -1.869910917E+02               0
GRID*             168973               00.0000000000E+001.4443918985E+01+
*       -1.886078369E+02               0
GRID*             168974               00.0000000000E+001.3192710715E+01+
*       -1.839604230E+02               0
GRID*             168975               00.0000000000E+001.4539852961E+01+
*       -1.855852177E+02               0
GRID*             168976               00.0000000000E+001.3254581130E+01+
*       -1.809196198E+02               0
GRID*             168977               00.0000000000E+001.4628414361E+01+
*       -1.825486382E+02               0
GRID*             168978               00.0000000000E+001.3307087113E+01+
*       -1.778706437E+02               0
GRID*             168979               00.0000000000E+001.4705675120E+01+
*       -1.794993339E+02               0
GRID*             168980               00.0000000000E+001.3349701464E+01+
*       -1.748162545E+02               0
GRID*             168981               00.0000000000E+001.4769812142E+01+
*       -1.764406736E+02               0
GRID*             168982               00.0000000000E+001.3383009564E+01+
*       -1.717591059E+02               0
GRID*             168983               00.0000000000E+001.4820856796E+01+
*       -1.733764547E+02               0
GRID*             168984               00.0000000000E+001.3408395864E+01+
*       -1.687013122E+02               0
GRID*             168985               00.0000000000E+001.4860175437E+01+
*       -1.703099903E+02               0
GRID*             168986               00.0000000000E+001.3427598221E+01+
*       -1.656442033E+02               0
GRID*             168987               00.0000000000E+001.4889939649E+01+
*       -1.672436597E+02               0
GRID*             168988               00.0000000000E+001.3442298720E+01+
*       -1.625882793E+02               0
GRID*             168989               00.0000000000E+001.4912520214E+01+
*       -1.641787177E+02               0
GRID*             168990               00.0000000000E+001.3453866510E+01+
*       -1.595332835E+02               0
GRID*             168991               00.0000000000E+001.4930022006E+01+
*       -1.611153320E+02               0
GRID*             168992               00.0000000000E+001.3463243876E+01+
*       -1.564782816E+02               0
GRID*             168993               00.0000000000E+001.4944036310E+01+
*       -1.580527097E+02               0
GRID*             168994               00.0000000000E+001.3470905105E+01+
*       -1.534216524E+02               0
GRID*             168995               00.0000000000E+001.4955550206E+01+
*       -1.549891674E+02               0
GRID*             168996               00.0000000000E+001.3476792745E+01+
*       -1.503609323E+02               0
GRID*             168997               00.0000000000E+001.4964895688E+01+
*       -1.519220401E+02               0
GRID*             168998               00.0000000000E+001.3480005681E+01+
*       -1.472923108E+02               0
GRID*             168999               00.0000000000E+001.4971531881E+01+
*       -1.488472390E+02               0
GRID*             169000               00.0000000000E+001.3477926008E+01+
*       -1.442094328E+02               0
GRID*             169001               00.0000000000E+001.4973357879E+01+
*       -1.457580956E+02               0
GRID*             169002               00.0000000000E+001.3464810863E+01+
*       -1.411016883E+02               0
GRID*             169003               00.0000000000E+001.4965393262E+01+
*       -1.426432939E+02               0
GRID*             169004               00.0000000000E+001.3429148537E+01+
*       -1.379529108E+02               0
GRID*             169005               00.0000000000E+001.4937161946E+01+
*       -1.394840840E+02               0
GRID*             169006               00.0000000000E+001.3345201870E+01+
*       -1.347436331E+02               0
GRID*             169007               00.0000000000E+001.4864482729E+01+
*       -1.362522857E+02               0
GRID*             169008               00.0000000000E+001.3147493508E+01+
*       -1.314816294E+02               0
GRID*             169009               00.0000000000E+001.4681257963E+01+
*       -1.329286105E+02               0
GRID*             169010               00.0000000000E+001.2681036024E+01+
*       -1.284628892E+02               0
GRID*             169011               00.0000000000E+001.4201551877E+01+
*       -1.297415222E+02               0
GRID*             169012               00.0000000000E+001.3692485673E+01+
*       -1.269097447E+02               0
GRID*             169013               00.0000000000E+001.5681636305E+01+
*       -1.264845953E+02               0
GRID*             169014               00.0000000000E+001.4893314061E+01+
*       -1.279280921E+02               0
GRID*             169015               00.0000000000E+001.7369374371E+01+
*       -1.259388913E+02               0
GRID*             169016               00.0000000000E+001.6679509470E+01+
*       -1.271711306E+02               0
GRID*             169017               00.0000000000E+001.9230363185E+01+
*       -1.265407580E+02               0
GRID*             169018               00.0000000000E+001.8264868261E+01+
*       -1.272002556E+02               0
GRID*             169019               00.0000000000E+002.1743755921E+01+
*       -1.270006498E+02               0
GRID*             169020               00.0000000000E+002.0373956762E+01+
*       -1.280094469E+02               0
GRID*             169021               00.0000000000E+002.4587872466E+01+
*       -1.273563802E+02               0
GRID*             169022               00.0000000000E+002.3077305685E+01+
*       -1.285641218E+02               0
GRID*             169023               00.0000000000E+002.7545111415E+01+
*       -1.276315410E+02               0
GRID*             169024               00.0000000000E+002.5993703446E+01+
*       -1.289378366E+02               0
GRID*             169025               00.0000000000E+003.0535242764E+01+
*       -1.278493923E+02               0
GRID*             169026               00.0000000000E+002.8973848555E+01+
*       -1.292082499E+02               0
GRID*             169027               00.0000000000E+003.3532619654E+01+
*       -1.280254837E+02               0
GRID*             169028               00.0000000000E+003.1971235497E+01+
*       -1.294173579E+02               0
GRID*             169029               00.0000000000E+003.6530593202E+01+
*       -1.281700624E+02               0
GRID*             169030               00.0000000000E+003.4971870446E+01+
*       -1.295861898E+02               0
GRID*             169031               00.0000000000E+003.9529826546E+01+
*       -1.282904321E+02               0
GRID*             169032               00.0000000000E+003.7972970095E+01+
*       -1.297264999E+02               0
GRID*             169033               00.0000000000E+004.2533826929E+01+
*       -1.283925148E+02               0
GRID*             169034               00.0000000000E+004.0976076979E+01+
*       -1.298461301E+02               0
GRID*             169035               00.0000000000E+004.5547195802E+01+
*       -1.284819709E+02               0
GRID*             169036               00.0000000000E+004.3984358514E+01+
*       -1.299514827E+02               0
GRID*             169037               00.0000000000E+004.8574822322E+01+
*       -1.285652522E+02               0
GRID*             169038               00.0000000000E+004.7001286142E+01+
*       -1.300489232E+02               0
GRID*             169039               00.0000000000E+005.1621077249E+01+
*       -1.286509520E+02               0
GRID*             169040               00.0000000000E+005.0029593218E+01+
*       -1.301458795E+02               0
GRID*             169041               00.0000000000E+005.4687764594E+01+
*       -1.287518757E+02               0
GRID*             169042               00.0000000000E+005.3069665867E+01+
*       -1.302518953E+02               0
GRID*             169043               00.0000000000E+005.7768179562E+01+
*       -1.288875537E+02               0
GRID*             169044               00.0000000000E+005.6116344064E+01+
*       -1.303792417E+02               0
GRID*             169045               00.0000000000E+006.0833165750E+01+
*       -1.290846040E+02               0
GRID*             169046               00.0000000000E+005.9153741884E+01+
*       -1.305411279E+02               0
GRID*             169047               00.0000000000E+006.3813468910E+01+
*       -1.293588252E+02               0
GRID*             169048               00.0000000000E+006.2152719989E+01+
*       -1.307420397E+02               0
GRID*             169049               00.0000000000E+006.6704095298E+01+
*       -1.295949781E+02               0
GRID*             169050               00.0000000000E+006.5092135250E+01+
*       -1.309520440E+02               0
GRID*             169051               00.0000000000E+006.9547962816E+01+
*       -1.297567457E+02               0
GRID*             169052               00.0000000000E+006.7978708004E+01+
*       -1.311279620E+02               0
GRID*             169053               00.0000000000E+007.2375911557E+01+
*       -1.298496871E+02               0
GRID*             169054               00.0000000000E+007.0831732954E+01+
*       -1.312535289E+02               0
GRID*             169055               00.0000000000E+007.5195506173E+01+
*       -1.298931577E+02               0
GRID*             169056               00.0000000000E+007.3662549339E+01+
*       -1.313339684E+02               0
GRID*             169057               00.0000000000E+007.7991057345E+01+
*       -1.299116988E+02               0
GRID*             169058               00.0000000000E+007.6467936553E+01+
*       -1.313853280E+02               0
GRID*             169059               00.0000000000E+008.0723444734E+01+
*       -1.299286868E+02               0
GRID*             169060               00.0000000000E+007.9233123241E+01+
*       -1.314270035E+02               0
GRID*             169061               00.0000000000E+008.3454013489E+01+
*       -1.298497565E+02               0
GRID*             169062               00.0000000000E+008.1951091485E+01+
*       -1.314725022E+02               0
GRID*             169063               00.0000000000E+008.4602403061E+01+
*       -1.315936547E+02               0
GRID*             169064               00.0000000000E+008.3199839869E+01+
*       -1.330505082E+02               0
GRID*             169065               00.0000000000E+008.4433035449E+01+
*       -1.346760286E+02               0
GRID*             169066               00.0000000000E+008.4296834257E+01+
*       -1.377479210E+02               0
GRID*             169067               00.0000000000E+008.3021685921E+01+
*       -1.361415364E+02               0
GRID*             169068               00.0000000000E+008.4181783246E+01+
*       -1.408134607E+02               0
GRID*             169069               00.0000000000E+008.2875517370E+01+
*       -1.392129250E+02               0
GRID*             169070               00.0000000000E+008.4082432367E+01+
*       -1.438756604E+02               0
GRID*             169071               00.0000000000E+008.2750386268E+01+
*       -1.422789793E+02               0
GRID*             169072               00.0000000000E+008.3995689667E+01+
*       -1.469361269E+02               0
GRID*             169073               00.0000000000E+008.2641415834E+01+
*       -1.453431158E+02               0
GRID*             169074               00.0000000000E+008.3919470417E+01+
*       -1.499958338E+02               0
GRID*             169075               00.0000000000E+008.2545680875E+01+
*       -1.484065825E+02               0
GRID*             169076               00.0000000000E+008.3852228883E+01+
*       -1.530555703E+02               0
GRID*             169077               00.0000000000E+008.2461107260E+01+
*       -1.514701883E+02               0
GRID*             169078               00.0000000000E+008.3792815116E+01+
*       -1.561161299E+02               0
GRID*             169079               00.0000000000E+008.2386142890E+01+
*       -1.545347364E+02               0
GRID*             169080               00.0000000000E+008.3740472571E+01+
*       -1.591783552E+02               0
GRID*             169081               00.0000000000E+008.2319692010E+01+
*       -1.576011305E+02               0
GRID*             169082               00.0000000000E+008.3694901099E+01+
*       -1.622430948E+02               0
GRID*             169083               00.0000000000E+008.2261164211E+01+
*       -1.606703544E+02               0
GRID*             169084               00.0000000000E+008.3656338834E+01+
*       -1.653110927E+02               0
GRID*             169085               00.0000000000E+008.2210573945E+01+
*       -1.637433671E+02               0
GRID*             169086               00.0000000000E+008.3625616328E+01+
*       -1.683828202E+02               0
GRID*             169087               00.0000000000E+008.2168638872E+01+
*       -1.668209226E+02               0
GRID*             169088               00.0000000000E+008.3604122129E+01+
*       -1.714582673E+02               0
GRID*             169089               00.0000000000E+008.2136810657E+01+
*       -1.699033195E+02               0
GRID*             169090               00.0000000000E+008.3593598482E+01+
*       -1.745367662E+02               0
GRID*             169091               00.0000000000E+008.2117137904E+01+
*       -1.729901345E+02               0
GRID*             169092               00.0000000000E+008.3595717210E+01+
*       -1.776169478E+02               0
GRID*             169093               00.0000000000E+008.2111856428E+01+
*       -1.760800513E+02               0
GRID*             169094               00.0000000000E+008.3611541674E+01+
*       -1.806969502E+02               0
GRID*             169095               00.0000000000E+008.2122730356E+01+
*       -1.791709420E+02               0
GRID*             169096               00.0000000000E+008.3641199367E+01+
*       -1.837748986E+02               0
GRID*             169097               00.0000000000E+008.2150440344E+01+
*       -1.822603181E+02               0
GRID*             169098               00.0000000000E+008.3684124149E+01+
*       -1.868494009E+02               0
GRID*             169099               00.0000000000E+008.2194528358E+01+
*       -1.853459918E+02               0
GRID*             169100               00.0000000000E+008.3739500201E+01+
*       -1.899197581E+02               0
GRID*             169101               00.0000000000E+008.2253902672E+01+
*       -1.884265416E+02               0
GRID*             169102               00.0000000000E+008.3806518303E+01+
*       -1.929858815E+02               0
GRID*             169103               00.0000000000E+008.2327362296E+01+
*       -1.915013596E+02               0
GRID*             169104               00.0000000000E+008.3884574970E+01+
*       -1.960480211E+02               0
GRID*             169105               00.0000000000E+008.2413931462E+01+
*       -1.945703619E+02               0
GRID*             169106               00.0000000000E+008.3973838875E+01+
*       -1.991064775E+02               0
GRID*             169107               00.0000000000E+008.2513260176E+01+
*       -1.976335984E+02               0
GRID*             169108               00.0000000000E+008.4076259937E+01+
*       -2.021617727E+02               0
GRID*             169109               00.0000000000E+008.2626342054E+01+
*       -2.006913127E+02               0
GRID*             169110               00.0000000000E+008.4197189011E+01+
*       -2.052157508E+02               0
GRID*             169111               00.0000000000E+008.2756836208E+01+
*       -2.037460118E+02               0
GRID*             169112               00.0000000000E+008.2915981530E+01+
*       -2.068168011E+02               0
GRID*             169113               00.0000000000E+008.0141853333E+01+
*       -2.068602324E+02               0
GRID*             169114               00.0000000000E+008.1439989360E+01+
*       -2.053123093E+02               0
GRID*             169115               00.0000000000E+007.7359828945E+01+
*       -2.069130574E+02               0
GRID*             169116               00.0000000000E+007.8657171827E+01+
*       -2.053907395E+02               0
GRID*             169117               00.0000000000E+007.4567086380E+01+
*       -2.070018387E+02               0
GRID*             169118               00.0000000000E+007.5858644391E+01+
*       -2.054815712E+02               0
GRID*             169119               00.0000000000E+007.1759886821E+01+
*       -2.071345344E+02               0
GRID*             169120               00.0000000000E+007.3045289178E+01+
*       -2.056025076E+02               0
GRID*             169121               00.0000000000E+006.8935333826E+01+
*       -2.073154186E+02               0
GRID*             169122               00.0000000000E+007.0215417281E+01+
*       -2.057616773E+02               0
GRID*             169123               00.0000000000E+006.6086804187E+01+
*       -2.075460559E+02               0
GRID*             169124               00.0000000000E+006.7365553357E+01+
*       -2.059615592E+02               0
GRID*             169125               00.0000000000E+006.3201996671E+01+
*       -2.078196408E+02               0
GRID*             169126               00.0000000000E+006.4489924128E+01+
*       -2.061982179E+02               0
GRID*             169127               00.0000000000E+006.0269293614E+01+
*       -2.081113189E+02               0
GRID*             169128               00.0000000000E+006.1582898019E+01+
*       -2.064582371E+02               0
GRID*             169129               00.0000000000E+005.7295912421E+01+
*       -2.083779266E+02               0
GRID*             169130               00.0000000000E+005.8645662374E+01+
*       -2.067192411E+02               0
GRID*             169131               00.0000000000E+005.4310280448E+01+
*       -2.086084886E+02               0
GRID*             169132               00.0000000000E+005.5690554161E+01+
*       -2.069626263E+02               0
GRID*             169133               00.0000000000E+005.1335095007E+01+
*       -2.088070867E+02               0
GRID*             169134               00.0000000000E+005.2735175704E+01+
*       -2.071822967E+02               0
GRID*             169135               00.0000000000E+004.8383429146E+01+
*       -2.089809790E+02               0
GRID*             169136               00.0000000000E+004.9794316034E+01+
*       -2.073795866E+02               0
GRID*             169137               00.0000000000E+004.5461734750E+01+
*       -2.091359034E+02               0
GRID*             169138               00.0000000000E+004.6877955645E+01+
*       -2.075578923E+02               0
GRID*             169139               00.0000000000E+004.2572631836E+01+
*       -2.092749262E+02               0
GRID*             169140               00.0000000000E+004.3992054639E+01+
*       -2.077196843E+02               0
GRID*             169141               00.0000000000E+003.9716416879E+01+
*       -2.093988040E+02               0
GRID*             169142               00.0000000000E+004.1139605536E+01+
*       -2.078655047E+02               0
GRID*             169143               00.0000000000E+003.6891960956E+01+
*       -2.095069381E+02               0
GRID*             169144               00.0000000000E+003.8321402805E+01+
*       -2.079942629E+02               0
GRID*             169145               00.0000000000E+003.4097913884E+01+
*       -2.095980419E+02               0
GRID*             169146               00.0000000000E+003.5536929978E+01+
*       -2.081039984E+02               0
GRID*             169147               00.0000000000E+003.1334933555E+01+
*       -2.096700063E+02               0
GRID*             169148               00.0000000000E+003.2785959350E+01+
*       -2.081923406E+02               0
GRID*             169149               00.0000000000E+002.8608357678E+01+
*       -2.097192255E+02               0
GRID*             169150               00.0000000000E+003.0070770913E+01+
*       -2.082564756E+02               0
GRID*             169151               00.0000000000E+002.5929602663E+01+
*       -2.097404734E+02               0
GRID*             169152               00.0000000000E+002.7397733963E+01+
*       -2.082930815E+02               0
GRID*             169153               00.0000000000E+002.3316035190E+01+
*       -2.097291015E+02               0
GRID*             169154               00.0000000000E+002.4776940354E+01+
*       -2.082992589E+02               0
GRID*             169155               00.0000000000E+002.0788499321E+01+
*       -2.096874536E+02               0
GRID*             169156               00.0000000000E+002.2219318290E+01+
*       -2.082755390E+02               0
GRID*             169157               00.0000000000E+001.8348667758E+01+
*       -2.096437867E+02               0
GRID*             169158               00.0000000000E+001.9729683226E+01+
*       -2.082305017E+02               0
GRID*             169159               00.0000000000E+001.5983376623E+01+
*       -2.096075875E+02               0
GRID*             169160               00.0000000000E+001.7301733322E+01+
*       -2.081749182E+02               0
GRID*             169161               00.0000000000E+001.4918633936E+01+
*       -2.081165821E+02               0
GRID*             169162               00.0000000000E+001.5080468541E+01+
*       -2.051565530E+02               0
GRID*             169163               00.0000000000E+001.6198902672E+01+
*       -2.066740562E+02               0
GRID*             169164               00.0000000000E+001.5225020795E+01+
*       -2.021786043E+02               0
GRID*             169165               00.0000000000E+001.6381217249E+01+
*       -2.037205829E+02               0
GRID*             169166               00.0000000000E+001.5356741697E+01+
*       -1.991939838E+02               0
GRID*             169167               00.0000000000E+001.6543522133E+01+
*       -2.007526623E+02               0
GRID*             169168               00.0000000000E+001.5481344819E+01+
*       -1.962081283E+02               0
GRID*             169169               00.0000000000E+001.6694050500E+01+
*       -1.977804731E+02               0
GRID*             169170               00.0000000000E+001.5604324326E+01+
*       -1.932207028E+02               0
GRID*             169171               00.0000000000E+001.6840393743E+01+
*       -1.948070354E+02               0
GRID*             169172               00.0000000000E+001.5729039416E+01+
*       -1.902269132E+02               0
GRID*             169173               00.0000000000E+001.6988382808E+01+
*       -1.918290338E+02               0
GRID*             169174               00.0000000000E+001.5854824107E+01+
*       -1.872194707E+02               0
GRID*             169175               00.0000000000E+001.7139944539E+01+
*       -1.888385469E+02               0
GRID*             169176               00.0000000000E+001.5975875081E+01+
*       -1.841923905E+02               0
GRID*             169177               00.0000000000E+001.7290846227E+01+
*       -1.858266435E+02               0
GRID*             169178               00.0000000000E+001.6084008374E+01+
*       -1.811452293E+02               0
GRID*             169179               00.0000000000E+001.7431469093E+01+
*       -1.827889817E+02               0
GRID*             169180               00.0000000000E+001.6175031709E+01+
*       -1.780826581E+02               0
GRID*             169181               00.0000000000E+001.7553364962E+01+
*       -1.797285536E+02               0
GRID*             169182               00.0000000000E+001.6248059969E+01+
*       -1.750104000E+02               0
GRID*             169183               00.0000000000E+001.7653279536E+01+
*       -1.766523845E+02               0
GRID*             169184               00.0000000000E+001.6304246620E+01+
*       -1.719336178E+02               0
GRID*             169185               00.0000000000E+001.7731449793E+01+
*       -1.735675631E+02               0
GRID*             169186               00.0000000000E+001.6346352573E+01+
*       -1.688563308E+02               0
GRID*             169187               00.0000000000E+001.7790423756E+01+
*       -1.704799583E+02               0
GRID*             169188               00.0000000000E+001.6377786525E+01+
*       -1.657809643E+02               0
GRID*             169189               00.0000000000E+001.7834199449E+01+
*       -1.673936354E+02               0
GRID*             169190               00.0000000000E+001.6401747464E+01+
*       -1.627083536E+02               0
GRID*             169191               00.0000000000E+001.7867013775E+01+
*       -1.643106002E+02               0
GRID*             169192               00.0000000000E+001.6420765488E+01+
*       -1.596380103E+02               0
GRID*             169193               00.0000000000E+001.7892490947E+01+
*       -1.612310320E+02               0
GRID*             169194               00.0000000000E+001.6436568750E+01+
*       -1.565683794E+02               0
GRID*             169195               00.0000000000E+001.7913297928E+01+
*       -1.581536801E+02               0
GRID*             169196               00.0000000000E+001.6450104127E+01+
*       -1.534969312E+02               0
GRID*             169197               00.0000000000E+001.7931122671E+01+
*       -1.550761432E+02               0
GRID*             169198               00.0000000000E+001.6461540521E+01+
*       -1.504199830E+02               0
GRID*             169199               00.0000000000E+001.7946748960E+01+
*       -1.519948740E+02               0
GRID*             169200               00.0000000000E+001.6469990205E+01+
*       -1.473319379E+02               0
GRID*             169201               00.0000000000E+001.7959998844E+01+
*       -1.489046819E+02               0
GRID*             169202               00.0000000000E+001.6472738062E+01+
*       -1.442234777E+02               0
GRID*             169203               00.0000000000E+001.7969370387E+01+
*       -1.457973201E+02               0
GRID*             169204               00.0000000000E+001.6464114966E+01+
*       -1.410783180E+02               0
GRID*             169205               00.0000000000E+001.7971459766E+01+
*       -1.426585018E+02               0
GRID*             169206               00.0000000000E+001.6432966330E+01+
*       -1.378664102E+02               0
GRID*             169207               00.0000000000E+001.7959919350E+01+
*       -1.394606441E+02               0
GRID*             169208               00.0000000000E+001.6352297926E+01+
*       -1.345223970E+02               0
GRID*             169209               00.0000000000E+001.7920781527E+01+
*       -1.361365215E+02               0
GRID*             169210               00.0000000000E+001.6133729901E+01+
*       -1.308399098E+02               0
GRID*             169211               00.0000000000E+001.7804769864E+01+
*       -1.324336962E+02               0
GRID*             169212               00.0000000000E+001.6825492085E+01+
*       -1.290264797E+02               0
GRID*             169213               00.0000000000E+001.8410850876E+01+
*       -1.290556047E+02               0
GRID*             169214               00.0000000000E+002.1407459077E+01+
*       -1.298350640E+02               0
GRID*             169215               00.0000000000E+001.9444353191E+01+
*       -1.308812218E+02               0
GRID*             169216               00.0000000000E+002.4398320706E+01+
*       -1.302847745E+02               0
GRID*             169217               00.0000000000E+002.2728474098E+01+
*       -1.315557167E+02               0
GRID*             169218               00.0000000000E+002.7401278976E+01+
*       -1.305927457E+02               0
GRID*             169219               00.0000000000E+002.5805896236E+01+
*       -1.319396836E+02               0
GRID*             169220               00.0000000000E+003.0407654497E+01+
*       -1.308257699E+02               0
GRID*             169221               00.0000000000E+002.8835084918E+01+
*       -1.322102657E+02               0
GRID*             169222               00.0000000000E+003.3412592983E+01+
*       -1.310126596E+02               0
GRID*             169223               00.0000000000E+003.1849011984E+01+
*       -1.324210715E+02               0
GRID*             169224               00.0000000000E+003.6415128570E+01+
*       -1.311680302E+02               0
GRID*             169225               00.0000000000E+003.4855851107E+01+
*       -1.325944999E+02               0
GRID*             169226               00.0000000000E+003.9416748583E+01+
*       -1.313007853E+02               0
GRID*             169227               00.0000000000E+003.7858907058E+01+
*       -1.327423156E+02               0
GRID*             169228               00.0000000000E+004.2420138315E+01+
*       -1.314175281E+02               0
GRID*             169229               00.0000000000E+004.0860809918E+01+
*       -1.328721833E+02               0
GRID*             169230               00.0000000000E+004.5428267152E+01+
*       -1.315241822E+02               0
GRID*             169231               00.0000000000E+004.3864046953E+01+
*       -1.329902276E+02               0
GRID*             169232               00.0000000000E+004.8443619706E+01+
*       -1.316269766E+02               0
GRID*             169233               00.0000000000E+004.6870600716E+01+
*       -1.331022356E+02               0
GRID*             169234               00.0000000000E+005.1467231175E+01+
*       -1.317332026E+02               0
GRID*             169235               00.0000000000E+004.9881257663E+01+
*       -1.332142997E+02               0
GRID*             169236               00.0000000000E+005.4497000439E+01+
*       -1.318517369E+02               0
GRID*             169237               00.0000000000E+005.2894565746E+01+
*       -1.333330441E+02               0
GRID*             169238               00.0000000000E+005.7524729402E+01+
*       -1.319926142E+02               0
GRID*             169239               00.0000000000E+005.5905385777E+01+
*       -1.334651094E+02               0
GRID*             169240               00.0000000000E+006.0532651075E+01+
*       -1.321635634E+02               0
GRID*             169241               00.0000000000E+005.8903638593E+01+
*       -1.336150498E+02               0
GRID*             169242               00.0000000000E+006.3495663556E+01+
*       -1.323591316E+02               0
GRID*             169243               00.0000000000E+006.1875594641E+01+
*       -1.337806553E+02               0
GRID*             169244               00.0000000000E+006.6407879831E+01+
*       -1.325402516E+02               0
GRID*             169245               00.0000000000E+006.4811408137E+01+
*       -1.339473392E+02               0
GRID*             169246               00.0000000000E+006.9281981141E+01+
*       -1.326837449E+02               0
GRID*             169247               00.0000000000E+006.7711152968E+01+
*       -1.340960345E+02               0
GRID*             169248               00.0000000000E+007.2130100628E+01+
*       -1.327867960E+02               0
GRID*             169249               00.0000000000E+007.0580348815E+01+
*       -1.342170120E+02               0
GRID*             169250               00.0000000000E+007.4954534014E+01+
*       -1.328592960E+02               0
GRID*             169251               00.0000000000E+007.3422085304E+01+
*       -1.343121236E+02               0
GRID*             169252               00.0000000000E+007.7746899671E+01+
*       -1.329175717E+02               0
GRID*             169253               00.0000000000E+007.6233497132E+01+
*       -1.343915397E+02               0
GRID*             169254               00.0000000000E+008.0493725951E+01+
*       -1.329791127E+02               0
GRID*             169255               00.0000000000E+007.9007502381E+01+
*       -1.344696809E+02               0
GRID*             169256               00.0000000000E+008.1742474334E+01+
*       -1.345571188E+02               0
GRID*             169257               00.0000000000E+008.0291604484E+01+
*       -1.360393136E+02               0
GRID*             169258               00.0000000000E+008.1570816071E+01+
*       -1.376237312E+02               0
GRID*             169259               00.0000000000E+008.1422662266E+01+
*       -1.406879718E+02               0
GRID*             169260               00.0000000000E+008.0117960967E+01+
*       -1.390987780E+02               0
GRID*             169261               00.0000000000E+008.1293117551E+01+
*       -1.437520477E+02               0
GRID*             169262               00.0000000000E+007.9965393550E+01+
*       -1.421610401E+02               0
GRID*             169263               00.0000000000E+008.1178949410E+01+
*       -1.468165279E+02               0
GRID*             169264               00.0000000000E+007.9830651127E+01+
*       -1.452254598E+02               0
GRID*             169265               00.0000000000E+008.1077727175E+01+
*       -1.498818015E+02               0
GRID*             169266               00.0000000000E+007.9710995711E+01+
*       -1.482917469E+02               0
GRID*             169267               00.0000000000E+008.0987536247E+01+
*       -1.529484345E+02               0
GRID*             169268               00.0000000000E+007.9604156163E+01+
*       -1.513600476E+02               0
GRID*             169269               00.0000000000E+008.0906913430E+01+
*       -1.560172484E+02               0
GRID*             169270               00.0000000000E+007.9508306787E+01+
*       -1.544309466E+02               0
GRID*             169271               00.0000000000E+008.0834899520E+01+
*       -1.590892957E+02               0
GRID*             169272               00.0000000000E+007.9422120941E+01+
*       -1.575054136E+02               0
GRID*             169273               00.0000000000E+008.0771165626E+01+
*       -1.621657655E+02               0
GRID*             169274               00.0000000000E+007.9344900936E+01+
*       -1.605847068E+02               0
GRID*             169275               00.0000000000E+008.0716180432E+01+
*       -1.652478100E+02               0
GRID*             169276               00.0000000000E+007.9276772114E+01+
*       -1.636702084E+02               0
GRID*             169277               00.0000000000E+008.0671370611E+01+
*       -1.683362586E+02               0
GRID*             169278               00.0000000000E+007.9218912171E+01+
*       -1.667631461E+02               0
GRID*             169279               00.0000000000E+008.0639164785E+01+
*       -1.714312284E+02               0
GRID*             169280               00.0000000000E+007.9173724739E+01+
*       -1.698641675E+02               0
GRID*             169281               00.0000000000E+008.0622715118E+01+
*       -1.745317136E+02               0
GRID*             169282               00.0000000000E+007.9144741999E+01+
*       -1.729728075E+02               0
GRID*             169283               00.0000000000E+008.0625123387E+01+
*       -1.776353439E+02               0
GRID*             169284               00.0000000000E+007.9135982077E+01+
*       -1.760870062E+02               0
GRID*             169285               00.0000000000E+008.0648216263E+01+
*       -1.807386232E+02               0
GRID*             169286               00.0000000000E+007.9150609294E+01+
*       -1.792030251E+02               0
GRID*             169287               00.0000000000E+008.0691647606E+01+
*       -1.838379557E+02               0
GRID*             169288               00.0000000000E+007.9189423525E+01+
*       -1.823162607E+02               0
GRID*             169289               00.0000000000E+008.0753649481E+01+
*       -1.869307358E+02               0
GRID*             169290               00.0000000000E+007.9250768729E+01+
*       -1.854226997E+02               0
GRID*             169291               00.0000000000E+008.0832153339E+01+
*       -1.900156477E+02               0
GRID*             169292               00.0000000000E+007.9331900147E+01+
*       -1.885198419E+02               0
GRID*             169293               00.0000000000E+008.0925421922E+01+
*       -1.930922873E+02               0
GRID*             169294               00.0000000000E+007.9430212965E+01+
*       -1.916065754E+02               0
GRID*             169295               00.0000000000E+008.1032308848E+01+
*       -1.961604803E+02               0
GRID*             169296               00.0000000000E+007.9543799308E+01+
*       -1.946824057E+02               0
GRID*             169297               00.0000000000E+008.1152567463E+01+
*       -1.992196698E+02               0
GRID*             169298               00.0000000000E+007.9671616134E+01+
*       -1.977465517E+02               0
GRID*             169299               00.0000000000E+008.1287237402E+01+
*       -2.022690063E+02               0
GRID*             169300               00.0000000000E+007.9813462810E+01+
*       -2.007973633E+02               0
GRID*             169301               00.0000000000E+007.9970390554E+01+
*       -2.038353038E+02               0
GRID*             169302               00.0000000000E+007.7167279329E+01+
*       -2.039271676E+02               0
GRID*             169303               00.0000000000E+007.8480498057E+01+
*       -2.023717319E+02               0
GRID*             169304               00.0000000000E+007.4349584682E+01+
*       -2.040397922E+02               0
GRID*             169305               00.0000000000E+007.5658219620E+01+
*       -2.024853886E+02               0
GRID*             169306               00.0000000000E+007.1516761975E+01+
*       -2.041834053E+02               0
GRID*             169307               00.0000000000E+007.2821057480E+01+
*       -2.026206900E+02               0
GRID*             169308               00.0000000000E+006.8667329897E+01+
*       -2.043627165E+02               0
GRID*             169309               00.0000000000E+006.9968674591E+01+
*       -2.027844446E+02               0
GRID*             169310               00.0000000000E+006.5798319219E+01+
*       -2.045774909E+02               0
GRID*             169311               00.0000000000E+006.7100095759E+01+
*       -2.029786482E+02               0
GRID*             169312               00.0000000000E+006.2905638696E+01+
*       -2.048207871E+02               0
GRID*             169313               00.0000000000E+006.4214033786E+01+
*       -2.032000602E+02               0
GRID*             169314               00.0000000000E+005.9987503774E+01+
*       -2.050772975E+02               0
GRID*             169315               00.0000000000E+006.1310244452E+01+
*       -2.034398476E+02               0
GRID*             169316               00.0000000000E+005.7050084791E+01+
*       -2.053273088E+02               0
GRID*             169317               00.0000000000E+005.8391926192E+01+
*       -2.036853653E+02               0
GRID*             169318               00.0000000000E+005.4107456571E+01+
*       -2.055607265E+02               0
GRID*             169319               00.0000000000E+005.5466987202E+01+
*       -2.039254091E+02               0
GRID*             169320               00.0000000000E+005.1173940205E+01+
*       -2.057756380E+02               0
GRID*             169321               00.0000000000E+005.2546221072E+01+
*       -2.041540678E+02               0
GRID*             169322               00.0000000000E+004.8260851727E+01+
*       -2.059738300E+02               0
GRID*             169323               00.0000000000E+004.9640475898E+01+
*       -2.043698814E+02               0
GRID*             169324               00.0000000000E+004.5376318562E+01+
*       -2.061572551E+02               0
GRID*             169325               00.0000000000E+004.6759214643E+01+
*       -2.045731928E+02               0
GRID*             169326               00.0000000000E+004.2525717841E+01+
*       -2.063260134E+02               0
GRID*             169327               00.0000000000E+004.3909981764E+01+
*       -2.047635842E+02               0
GRID*             169328               00.0000000000E+003.9711873216E+01+
*       -2.064779414E+02               0
GRID*             169329               00.0000000000E+004.1097985520E+01+
*       -2.049384500E+02               0
GRID*             169330               00.0000000000E+003.6935223225E+01+
*       -2.066095593E+02               0
GRID*             169331               00.0000000000E+003.8325693635E+01+
*       -2.050932378E+02               0
GRID*             169332               00.0000000000E+003.4194607736E+01+
*       -2.067170777E+02               0
GRID*             169333               00.0000000000E+003.5592900983E+01+
*       -2.052226387E+02               0
GRID*             169334               00.0000000000E+003.1489118809E+01+
*       -2.067970158E+02               0
GRID*             169335               00.0000000000E+003.2897767195E+01+
*       -2.053217529E+02               0
GRID*             169336               00.0000000000E+002.8820350788E+01+
*       -2.068465460E+02               0
GRID*             169337               00.0000000000E+003.0238698685E+01+
*       -2.053870862E+02               0
GRID*             169338               00.0000000000E+002.6193437498E+01+
*       -2.068637338E+02               0
GRID*             169339               00.0000000000E+002.7616054324E+01+
*       -2.054171983E+02               0
GRID*             169340               00.0000000000E+002.3615800671E+01+
*       -2.068482286E+02               0
GRID*             169341               00.0000000000E+002.5032297815E+01+
*       -2.054127036E+02               0
GRID*             169342               00.0000000000E+002.1093545743E+01+
*       -2.068038435E+02               0
GRID*             169343               00.0000000000E+002.2490028123E+01+
*       -2.053765332E+02               0
GRID*             169344               00.0000000000E+001.8624822415E+01+
*       -2.067412896E+02               0
GRID*             169345               00.0000000000E+001.9988684933E+01+
*       -2.053146314E+02               0
GRID*             169346               00.0000000000E+001.7521991765E+01+
*       -2.052404276E+02               0
GRID*             169347               00.0000000000E+001.7710652014E+01+
*       -2.022908185E+02               0
GRID*             169348               00.0000000000E+001.8851426531E+01+
*       -2.038106633E+02               0
GRID*             169349               00.0000000000E+001.7881710119E+01+
*       -1.993344343E+02               0
GRID*             169350               00.0000000000E+001.9048840000E+01+
*       -2.008725906E+02               0
GRID*             169351               00.0000000000E+001.8045438783E+01+
*       -1.963787883E+02               0
GRID*             169352               00.0000000000E+001.9233098403E+01+
*       -1.979327495E+02               0
GRID*             169353               00.0000000000E+001.8211248415E+01+
*       -1.934232579E+02               0
GRID*             169354               00.0000000000E+001.9416293456E+01+
*       -1.949950108E+02               0
GRID*             169355               00.0000000000E+001.8386039394E+01+
*       -1.904596580E+02               0
GRID*             169356               00.0000000000E+001.9608905001E+01+
*       -1.920538820E+02               0
GRID*             169357               00.0000000000E+001.8570125341E+01+
*       -1.874739072E+02               0
GRID*             169358               00.0000000000E+001.9816220196E+01+
*       -1.890950182E+02               0
GRID*             169359               00.0000000000E+001.8752206910E+01+
*       -1.844531470E+02               0
GRID*             169360               00.0000000000E+002.0031486023E+01+
*       -1.861004107E+02               0
GRID*             169361               00.0000000000E+001.8913269327E+01+
*       -1.813967655E+02               0
GRID*             169362               00.0000000000E+002.0234007143E+01+
*       -1.830609309E+02               0
GRID*             169363               00.0000000000E+001.9046558253E+01+
*       -1.783156069E+02               0
GRID*             169364               00.0000000000E+002.0406462617E+01+
*       -1.799838189E+02               0
GRID*             169365               00.0000000000E+001.9151546357E+01+
*       -1.752202166E+02               0
GRID*             169366               00.0000000000E+002.0544825075E+01+
*       -1.768834390E+02               0
GRID*             169367               00.0000000000E+001.9230184676E+01+
*       -1.721191983E+02               0
GRID*             169368               00.0000000000E+002.0650281241E+01+
*       -1.737718518E+02               0
GRID*             169369               00.0000000000E+001.9287436399E+01+
*       -1.690191409E+02               0
GRID*             169370               00.0000000000E+002.0727197320E+01+
*       -1.706583809E+02               0
GRID*             169371               00.0000000000E+001.9329258959E+01+
*       -1.659237004E+02               0
GRID*             169372               00.0000000000E+002.0782495909E+01+
*       -1.675492060E+02               0
GRID*             169373               00.0000000000E+001.9360941705E+01+
*       -1.628338513E+02               0
GRID*             169374               00.0000000000E+002.0823186889E+01+
*       -1.644469515E+02               0
GRID*             169375               00.0000000000E+001.9386446102E+01+
*       -1.597486346E+02               0
GRID*             169376               00.0000000000E+002.0854896860E+01+
*       -1.613514540E+02               0
GRID*             169377               00.0000000000E+001.9408391542E+01+
*       -1.566657885E+02               0
GRID*             169378               00.0000000000E+002.0881539716E+01+
*       -1.582607430E+02               0
GRID*             169379               00.0000000000E+001.9428279086E+01+
*       -1.535820580E+02               0
GRID*             169380               00.0000000000E+002.0905547957E+01+
*       -1.551717033E+02               0
GRID*             169381               00.0000000000E+001.9446700961E+01+
*       -1.504931152E+02               0
GRID*             169382               00.0000000000E+002.0928231087E+01+
*       -1.520802992E+02               0
GRID*             169383               00.0000000000E+001.9463345716E+01+
*       -1.473928626E+02               0
GRID*             169384               00.0000000000E+002.0950047833E+01+
*       -1.489812959E+02               0
GRID*             169385               00.0000000000E+001.9476842594E+01+
*       -1.442718551E+02               0
GRID*             169386               00.0000000000E+002.0970817923E+01+
*       -1.458673976E+02               0
GRID*             169387               00.0000000000E+001.9484950907E+01+
*       -1.411145738E+02               0
GRID*             169388               00.0000000000E+002.0990333734E+01+
*       -1.427279271E+02               0
GRID*             169389               00.0000000000E+001.9485308973E+01+
*       -1.378934806E+02               0
GRID*             169390               00.0000000000E+002.1010340530E+01+
*       -1.395474103E+02               0
GRID*             169391               00.0000000000E+001.9475915998E+01+
*       -1.345490663E+02               0
GRID*             169392               00.0000000000E+002.1040443444E+01+
*       -1.363060254E+02               0
GRID*             169393               00.0000000000E+002.1115499325E+01+
*       -1.329965918E+02               0
GRID*             169394               00.0000000000E+002.4221223634E+01+
*       -1.333604312E+02               0
GRID*             169395               00.0000000000E+002.2608248861E+01+
*       -1.348013063E+02               0
GRID*             169396               00.0000000000E+002.7266403504E+01+
*       -1.336332492E+02               0
GRID*             169397               00.0000000000E+002.5681730902E+01+
*       -1.350539968E+02               0
GRID*             169398               00.0000000000E+003.0288545904E+01+
*       -1.338519103E+02               0
GRID*             169399               00.0000000000E+002.8719864490E+01+
*       -1.352748938E+02               0
GRID*             169400               00.0000000000E+003.3299282538E+01+
*       -1.340344676E+02               0
GRID*             169401               00.0000000000E+003.1738816458E+01+
*       -1.354653063E+02               0
GRID*             169402               00.0000000000E+003.6303310563E+01+
*       -1.341913670E+02               0
GRID*             169403               00.0000000000E+003.4746741994E+01+
*       -1.356313347E+02               0
GRID*             169404               00.0000000000E+003.9303603517E+01+
*       -1.343296770E+02               0
GRID*             169405               00.0000000000E+003.7748007021E+01+
*       -1.357787285E+02               0
GRID*             169406               00.0000000000E+004.2302646137E+01+
*       -1.344550139E+02               0
GRID*             169407               00.0000000000E+004.0745439736E+01+
*       -1.359125076E+02               0
GRID*             169408               00.0000000000E+004.5302457868E+01+
*       -1.345725095E+02               0
GRID*             169409               00.0000000000E+004.3741057052E+01+
*       -1.360372958E+02               0
GRID*             169410               00.0000000000E+004.8304198429E+01+
*       -1.346873295E+02               0
GRID*             169411               00.0000000000E+004.6736055581E+01+
*       -1.361576034E+02               0
GRID*             169412               00.0000000000E+005.1307522781E+01+
*       -1.348048888E+02               0
GRID*             169413               00.0000000000E+004.9730463547E+01+
*       -1.362779186E+02               0
GRID*             169414               00.0000000000E+005.4309666860E+01+
*       -1.349306659E+02               0
GRID*             169415               00.0000000000E+005.2722623894E+01+
*       -1.364025106E+02               0
GRID*             169416               00.0000000000E+005.7304403145E+01+
*       -1.350692118E+02               0
GRID*             169417               00.0000000000E+005.5708684229E+01+
*       -1.365347683E+02               0
GRID*             169418               00.0000000000E+006.0281771729E+01+
*       -1.352217112E+02               0
GRID*             169419               00.0000000000E+005.8682536282E+01+
*       -1.366758732E+02               0
GRID*             169420               00.0000000000E+006.3230835015E+01+
*       -1.353819220E+02               0
GRID*             169421               00.0000000000E+006.1637012102E+01+
*       -1.368229778E+02               0
GRID*             169422               00.0000000000E+006.6147287523E+01+
*       -1.355337770E+02               0
GRID*             169423               00.0000000000E+006.4566714400E+01+
*       -1.369683598E+02               0
GRID*             169424               00.0000000000E+006.9033763410E+01+
*       -1.356652376E+02               0
GRID*             169425               00.0000000000E+006.7469897965E+01+
*       -1.371029801E+02               0
GRID*             169426               00.0000000000E+007.1893521664E+01+
*       -1.357737575E+02               0
GRID*             169427               00.0000000000E+007.0346936258E+01+
*       -1.372219831E+02               0
GRID*             169428               00.0000000000E+007.4725962671E+01+
*       -1.358651933E+02               0
GRID*             169429               00.0000000000E+007.3197399031E+01+
*       -1.373268273E+02               0
GRID*             169430               00.0000000000E+007.7526240673E+01+
*       -1.359506670E+02               0
GRID*             169431               00.0000000000E+007.6018706212E+01+
*       -1.374243207E+02               0
GRID*             169432               00.0000000000E+007.8810342777E+01+
*       -1.375202997E+02               0
GRID*             169433               00.0000000000E+007.7330177773E+01+
*       -1.389974899E+02               0
GRID*             169434               00.0000000000E+007.8637795964E+01+
*       -1.405759681E+02               0
GRID*             169435               00.0000000000E+007.8484657971E+01+
*       -1.436369239E+02               0
GRID*             169436               00.0000000000E+007.7157060385E+01+
*       -1.420518519E+02               0
GRID*             169437               00.0000000000E+007.8348213817E+01+
*       -1.467015879E+02               0
GRID*             169438               00.0000000000E+007.7002220660E+01+
*       -1.451130520E+02               0
GRID*             169439               00.0000000000E+007.8225977686E+01+
*       -1.497693206E+02               0
GRID*             169440               00.0000000000E+007.6863195792E+01+
*       -1.481791616E+02               0
GRID*             169441               00.0000000000E+007.8115792938E+01+
*       -1.528402395E+02               0
GRID*             169442               00.0000000000E+007.6737614462E+01+
*       -1.512495125E+02               0
GRID*             169443               00.0000000000E+007.8015922226E+01+
*       -1.559150798E+02               0
GRID*             169444               00.0000000000E+007.6623408377E+01+
*       -1.543243728E+02               0
GRID*             169445               00.0000000000E+007.7925183049E+01+
*       -1.589950811E+02               0
GRID*             169446               00.0000000000E+007.6518984334E+01+
*       -1.574047473E+02               0
GRID*             169447               00.0000000000E+007.7843159324E+01+
*       -1.620818558E+02               0
GRID*             169448               00.0000000000E+007.6423441438E+01+
*       -1.604922301E+02               0
GRID*             169449               00.0000000000E+007.7770507316E+01+
*       -1.651771704E+02               0
GRID*             169450               00.0000000000E+007.6336894526E+01+
*       -1.635888178E+02               0
GRID*             169451               00.0000000000E+007.7709335071E+01+
*       -1.682825466E+02               0
GRID*             169452               00.0000000000E+007.6260930216E+01+
*       -1.666965709E+02               0
GRID*             169453               00.0000000000E+007.7663487980E+01+
*       -1.713986263E+02               0
GRID*             169454               00.0000000000E+007.6199098312E+01+
*       -1.698170054E+02               0
GRID*             169455               00.0000000000E+007.7638385213E+01+
*       -1.745243279E+02               0
GRID*             169456               00.0000000000E+007.6157131194E+01+
*       -1.729501467E+02               0
GRID*             169457               00.0000000000E+007.7639807056E+01+
*       -1.776559237E+02               0
GRID*             169458               00.0000000000E+007.6142210192E+01+
*       -1.760932453E+02               0
GRID*             169459               00.0000000000E+007.7671149463E+01+
*       -1.807870271E+02               0
GRID*             169460               00.0000000000E+007.6160347226E+01+
*       -1.792399257E+02               0
GRID*             169461               00.0000000000E+007.7730701416E+01+
*       -1.839109828E+02               0
GRID*             169462               00.0000000000E+007.6212427354E+01+
*       -1.823817492E+02               0
GRID*             169463               00.0000000000E+007.7814136283E+01+
*       -1.870234268E+02               0
GRID*             169464               00.0000000000E+007.6294068969E+01+
*       -1.855117099E+02               0
GRID*             169465               00.0000000000E+007.7917171040E+01+
*       -1.901225105E+02               0
GRID*             169466               00.0000000000E+007.6399407175E+01+
*       -1.886260953E+02               0
GRID*             169467               00.0000000000E+007.8036680030E+01+
*       -1.932077769E+02               0
GRID*             169468               00.0000000000E+007.6523638105E+01+
*       -1.917237120E+02               0
GRID*             169469               00.0000000000E+007.8170784420E+01+
*       -1.962787811E+02               0
GRID*             169470               00.0000000000E+007.6663665142E+01+
*       -1.948041523E+02               0
GRID*             169471               00.0000000000E+007.8318621728E+01+
*       -1.993339553E+02               0
GRID*             169472               00.0000000000E+007.6817790014E+01+
*       -1.978661846E+02               0
GRID*             169473               00.0000000000E+007.6985656975E+01+
*       -2.009083238E+02               0
GRID*             169474               00.0000000000E+007.4143762888E+01+
*       -2.010358171E+02               0
GRID*             169475               00.0000000000E+007.5471200242E+01+
*       -1.994587523E+02               0
GRID*             169476               00.0000000000E+007.1287976060E+01+
*       -2.011874541E+02               0
GRID*             169477               00.0000000000E+007.2610681468E+01+
*       -1.996025812E+02               0
GRID*             169478               00.0000000000E+006.8418234667E+01+
*       -2.013672316E+02               0
GRID*             169479               00.0000000000E+006.9737536135E+01+
*       -1.997702411E+02               0
GRID*             169480               00.0000000000E+006.5534449631E+01+
*       -2.015748711E+02               0
GRID*             169481               00.0000000000E+006.6852588538E+01+
*       -1.999634545E+02               0
GRID*             169482               00.0000000000E+006.2636875526E+01+
*       -2.018052063E+02               0
GRID*             169483               00.0000000000E+006.3957291370E+01+
*       -2.001800173E+02               0
GRID*             169484               00.0000000000E+005.9727387040E+01+
*       -2.020484778E+02               0
GRID*             169485               00.0000000000E+006.1054018114E+01+
*       -2.004138365E+02               0
GRID*             169486               00.0000000000E+005.6811127886E+01+
*       -2.022932888E+02               0
GRID*             169487               00.0000000000E+005.8146588734E+01+
*       -2.006564013E+02               0
GRID*             169488               00.0000000000E+005.3896497524E+01+
*       -2.025319266E+02               0
GRID*             169489               00.0000000000E+005.5240638208E+01+
*       -2.008998062E+02               0
GRID*             169490               00.0000000000E+005.0993167560E+01+
*       -2.027614215E+02               0
GRID*             169491               00.0000000000E+005.2343444011E+01+
*       -2.011392802E+02               0
GRID*             169492               00.0000000000E+004.8110823579E+01+
*       -2.029818033E+02               0
GRID*             169493               00.0000000000E+004.9463515241E+01+
*       -2.013733435E+02               0
GRID*             169494               00.0000000000E+004.5258596184E+01+
*       -2.031932258E+02               0
GRID*             169495               00.0000000000E+004.6610205119E+01+
*       -2.016018363E+02               0
GRID*             169496               00.0000000000E+004.2444279032E+01+
*       -2.033932212E+02               0
GRID*             169497               00.0000000000E+004.3792893452E+01+
*       -2.018228628E+02               0
GRID*             169498               00.0000000000E+003.9672953573E+01+
*       -2.035757524E+02               0
GRID*             169499               00.0000000000E+004.1019247086E+01+
*       -2.020305236E+02               0
GRID*             169500               00.0000000000E+003.6945984951E+01+
*       -2.037331172E+02               0
GRID*             169501               00.0000000000E+003.8293244889E+01+
*       -2.022156318E+02               0
GRID*             169502               00.0000000000E+003.4261141946E+01+
*       -2.038575209E+02               0
GRID*             169503               00.0000000000E+003.5614225914E+01+
*       -2.023679994E+02               0
GRID*             169504               00.0000000000E+003.1613925672E+01+
*       -2.039426059E+02               0
GRID*             169505               00.0000000000E+003.2977300422E+01+
*       -2.024783739E+02               0
GRID*             169506               00.0000000000E+002.8999818983E+01+
*       -2.039855411E+02               0
GRID*             169507               00.0000000000E+003.0375045970E+01+
*       -2.025410608E+02               0
GRID*             169508               00.0000000000E+002.6416609532E+01+
*       -2.039882260E+02               0
GRID*             169509               00.0000000000E+002.7800374192E+01+
*       -2.025565688E+02               0
GRID*             169510               00.0000000000E+002.3864560748E+01+
*       -2.039549231E+02               0
GRID*             169511               00.0000000000E+002.5248872465E+01+
*       -2.025304456E+02               0
GRID*             169512               00.0000000000E+002.1343855344E+01+
*       -2.038915475E+02               0
GRID*             169513               00.0000000000E+002.2718387969E+01+
*       -2.024699374E+02               0
GRID*             169514               00.0000000000E+002.0206596942E+01+
*       -2.023875794E+02               0
GRID*             169515               00.0000000000E+002.0402720108E+01+
*       -1.994632870E+02               0
GRID*             169516               00.0000000000E+002.1560477050E+01+
*       -2.009782758E+02               0
GRID*             169517               00.0000000000E+002.0593294130E+01+
*       -1.965458520E+02               0
GRID*             169518               00.0000000000E+002.1762915835E+01+
*       -1.980763896E+02               0
GRID*             169519               00.0000000000E+002.0793093257E+01+
*       -1.936346744E+02               0
GRID*             169520               00.0000000000E+002.1970093931E+01+
*       -1.951855156E+02               0
GRID*             169521               00.0000000000E+002.1016135672E+01+
*       -1.907170150E+02               0
GRID*             169522               00.0000000000E+002.2200323927E+01+
*       -1.922978073E+02               0
GRID*             169523               00.0000000000E+002.1267723984E+01+
*       -1.877668317E+02               0
GRID*             169524               00.0000000000E+002.2467639459E+01+
*       -1.893888285E+02               0
GRID*             169525               00.0000000000E+002.1528538236E+01+
*       -1.847555266E+02               0
GRID*             169526               00.0000000000E+002.2764776196E+01+
*       -1.864219475E+02               0
GRID*             169527               00.0000000000E+002.1751360285E+01+
*       -1.816816097E+02               0
GRID*             169528               00.0000000000E+002.3045891377E+01+
*       -1.833762053E+02               0
GRID*             169529               00.0000000000E+002.1930394850E+01+
*       -1.785721696E+02               0
GRID*             169530               00.0000000000E+002.3275292517E+01+
*       -1.802699604E+02               0
GRID*             169531               00.0000000000E+002.2068435162E+01+
*       -1.754450141E+02               0
GRID*             169532               00.0000000000E+002.3454004937E+01+
*       -1.771337446E+02               0
GRID*             169533               00.0000000000E+002.2167473870E+01+
*       -1.723127752E+02               0
GRID*             169534               00.0000000000E+002.3585627791E+01+
*       -1.739859375E+02               0
GRID*             169535               00.0000000000E+002.2236253214E+01+
*       -1.691856491E+02               0
GRID*             169536               00.0000000000E+002.3676529764E+01+
*       -1.708400434E+02               0
GRID*             169537               00.0000000000E+002.2284858810E+01+
*       -1.660683933E+02               0
GRID*             169538               00.0000000000E+002.3738616114E+01+
*       -1.677048364E+02               0
GRID*             169539               00.0000000000E+002.2321464654E+01+
*       -1.629614368E+02               0
GRID*             169540               00.0000000000E+002.3783136575E+01+
*       -1.645828785E+02               0
GRID*             169541               00.0000000000E+002.2351666730E+01+
*       -1.598627385E+02               0
GRID*             169542               00.0000000000E+002.3818234524E+01+
*       -1.614727214E+02               0
GRID*             169543               00.0000000000E+002.2378922360E+01+
*       -1.567690405E+02               0
GRID*             169544               00.0000000000E+002.3849049375E+01+
*       -1.583710361E+02               0
GRID*             169545               00.0000000000E+002.2405190705E+01+
*       -1.536764428E+02               0
GRID*             169546               00.0000000000E+002.3878565109E+01+
*       -1.552737800E+02               0
GRID*             169547               00.0000000000E+002.2431464138E+01+
*       -1.505804718E+02               0
GRID*             169548               00.0000000000E+002.3908423756E+01+
*       -1.521766154E+02               0
GRID*             169549               00.0000000000E+002.2458134518E+01+
*       -1.474756877E+02               0
GRID*             169550               00.0000000000E+002.3939550823E+01+
*       -1.490748636E+02               0
GRID*             169551               00.0000000000E+002.2485434182E+01+
*       -1.443549701E+02               0
GRID*             169552               00.0000000000E+002.3972750777E+01+
*       -1.459632601E+02               0
GRID*             169553               00.0000000000E+002.2514622371E+01+
*       -1.412090184E+02               0
GRID*             169554               00.0000000000E+002.4009722818E+01+
*       -1.428360613E+02               0
GRID*             169555               00.0000000000E+002.2550848457E+01+
*       -1.380270271E+02               0
GRID*             169556               00.0000000000E+002.4055130298E+01+
*       -1.396886351E+02               0
GRID*             169557               00.0000000000E+002.4118653874E+01+
*       -1.365223079E+02               0
GRID*             169558               00.0000000000E+002.7162762955E+01+
*       -1.367295831E+02               0
GRID*             169559               00.0000000000E+002.5599685927E+01+
*       -1.381978942E+02               0
GRID*             169560               00.0000000000E+003.0185923328E+01+
*       -1.369169993E+02               0
GRID*             169561               00.0000000000E+002.8628821793E+01+
*       -1.383716886E+02               0
GRID*             169562               00.0000000000E+003.3195975459E+01+
*       -1.370848073E+02               0
GRID*             169563               00.0000000000E+003.1643082329E+01+
*       -1.385365003E+02               0
GRID*             169564               00.0000000000E+003.6197417522E+01+
*       -1.372359582E+02               0
GRID*             169565               00.0000000000E+003.4646650987E+01+
*       -1.386894308E+02               0
GRID*             169566               00.0000000000E+003.9193151228E+01+
*       -1.373739973E+02               0
GRID*             169567               00.0000000000E+003.7642561729E+01+
*       -1.388312271E+02               0
GRID*             169568               00.0000000000E+004.2185261391E+01+
*       -1.375026259E+02               0
GRID*             169569               00.0000000000E+004.0632972884E+01+
*       -1.389641157E+02               0
GRID*             169570               00.0000000000E+004.5175160002E+01+
*       -1.376256380E+02               0
GRID*             169571               00.0000000000E+004.3619364341E+01+
*       -1.390909681E+02               0
GRID*             169572               00.0000000000E+004.8163400210E+01+
*       -1.377468727E+02               0
GRID*             169573               00.0000000000E+004.6602504630E+01+
*       -1.392149073E+02               0
GRID*             169574               00.0000000000E+005.1149326044E+01+
*       -1.378700454E+02               0
GRID*             169575               00.0000000000E+004.9582262707E+01+
*       -1.393389995E+02               0
GRID*             169576               00.0000000000E+005.4130670077E+01+
*       -1.379983346E+02               0
GRID*             169577               00.0000000000E+005.2557372227E+01+
*       -1.394658694E+02               0
GRID*             169578               00.0000000000E+005.7103304112E+01+
*       -1.381335809E+02               0
GRID*             169579               00.0000000000E+005.5525289960E+01+
*       -1.395971472E+02               0
GRID*             169580               00.0000000000E+006.0061596204E+01+
*       -1.382750566E+02               0
GRID*             169581               00.0000000000E+005.8482364034E+01+
*       -1.397327643E+02               0
GRID*             169582               00.0000000000E+006.2999945957E+01+
*       -1.384182955E+02               0
GRID*             169583               00.0000000000E+006.1424530059E+01+
*       -1.398703743E+02               0
GRID*             169584               00.0000000000E+006.5915175879E+01+
*       -1.385556692E+02               0
GRID*             169585               00.0000000000E+006.4348407436E+01+
*       -1.400056048E+02               0
GRID*             169586               00.0000000000E+006.8806619721E+01+
*       -1.386812434E+02               0
GRID*             169587               00.0000000000E+006.7251897636E+01+
*       -1.401339324E+02               0
GRID*             169588               00.0000000000E+007.1673949478E+01+
*       -1.387939264E+02               0
GRID*             169589               00.0000000000E+007.0133632940E+01+
*       -1.402531866E+02               0
GRID*             169590               00.0000000000E+007.4515445858E+01+
*       -1.388977050E+02               0
GRID*             169591               00.0000000000E+007.2991996304E+01+
*       -1.403648041E+02               0
GRID*             169592               00.0000000000E+007.5826917419E+01+
*       -1.404708742E+02               0
GRID*             169593               00.0000000000E+007.4325740211E+01+
*       -1.419453413E+02               0
GRID*             169594               00.0000000000E+007.5655883177E+01+
*       -1.435263190E+02               0
GRID*             169595               00.0000000000E+007.5501976511E+01+
*       -1.465887971E+02               0
GRID*             169596               00.0000000000E+007.4155639027E+01+
*       -1.450020641E+02               0
GRID*             169597               00.0000000000E+007.5362649734E+01+
*       -1.496566724E+02               0
GRID*             169598               00.0000000000E+007.4001430453E+01+
*       -1.480663079E+02               0
GRID*             169599               00.0000000000E+007.5235500817E+01+
*       -1.527295876E+02               0
GRID*             169600               00.0000000000E+007.3860536090E+01+
*       -1.511367476E+02               0
GRID*             169601               00.0000000000E+007.5118467537E+01+
*       -1.558081659E+02               0
GRID*             169602               00.0000000000E+007.3730559977E+01+
*       -1.542133807E+02               0
GRID*             169603               00.0000000000E+007.5010020367E+01+
*       -1.588938538E+02               0
GRID*             169604               00.0000000000E+007.3609503570E+01+
*       -1.572972724E+02               0
GRID*             169605               00.0000000000E+007.4909448133E+01+
*       -1.619888099E+02               0
GRID*             169606               00.0000000000E+007.3496027062E+01+
*       -1.603904335E+02               0
GRID*             169607               00.0000000000E+007.4817334856E+01+
*       -1.650957292E+02               0
GRID*             169608               00.0000000000E+007.3389888463E+01+
*       -1.634957212E+02               0
GRID*             169609               00.0000000000E+007.4736276805E+01+
*       -1.682174500E+02               0
GRID*             169610               00.0000000000E+007.3292681446E+01+
*       -1.666166083E+02               0
GRID*             169611               00.0000000000E+007.4671769030E+01+
*       -1.713561259E+02               0
GRID*             169612               00.0000000000E+007.3208947522E+01+
*       -1.697565705E+02               0
GRID*             169613               00.0000000000E+007.4632758735E+01+
*       -1.745115697E+02               0
GRID*             169614               00.0000000000E+007.3147396570E+01+
*       -1.729175489E+02               0
GRID*             169615               00.0000000000E+007.4630380618E+01+
*       -1.776784520E+02               0
GRID*             169616               00.0000000000E+007.3120929161E+01+
*       -1.760967764E+02               0
GRID*             169617               00.0000000000E+007.4672107666E+01+
*       -1.808447938E+02               0
GRID*             169618               00.0000000000E+007.3142141059E+01+
*       -1.792833201E+02               0
GRID*             169619               00.0000000000E+007.4752324299E+01+
*       -1.839981319E+02               0
GRID*             169620               00.0000000000E+007.3212004611E+01+
*       -1.824611765E+02               0
GRID*             169621               00.0000000000E+007.4861387175E+01+
*       -1.871319423E+02               0
GRID*             169622               00.0000000000E+007.3319642506E+01+
*       -1.856183643E+02               0
GRID*             169623               00.0000000000E+007.4991477012E+01+
*       -1.902447046E+02               0
GRID*             169624               00.0000000000E+007.3453457012E+01+
*       -1.887505515E+02               0
GRID*             169625               00.0000000000E+007.5137811174E+01+
*       -1.933369059E+02               0
GRID*             169626               00.0000000000E+007.3605650080E+01+
*       -1.918578985E+02               0
GRID*             169627               00.0000000000E+007.5297973514E+01+
*       -1.964086154E+02               0
GRID*             169628               00.0000000000E+007.3772119546E+01+
*       -1.949413690E+02               0
GRID*             169629               00.0000000000E+007.3951383742E+01+
*       -1.980011830E+02               0
GRID*             169630               00.0000000000E+007.1072855149E+01+
*       -1.981577084E+02               0
GRID*             169631               00.0000000000E+007.2413557423E+01+
*       -1.965563102E+02               0
GRID*             169632               00.0000000000E+006.8183529185E+01+
*       -1.983393183E+02               0
GRID*             169633               00.0000000000E+006.9518848200E+01+
*       -1.967267856E+02               0
GRID*             169634               00.0000000000E+006.5285502770E+01+
*       -1.985462065E+02               0
GRID*             169635               00.0000000000E+006.6616443417E+01+
*       -1.969220703E+02               0
GRID*             169636               00.0000000000E+006.2381743626E+01+
*       -1.987746652E+02               0
GRID*             169637               00.0000000000E+006.3709955026E+01+
*       -1.971408545E+02               0
GRID*             169638               00.0000000000E+005.9475884568E+01+
*       -1.990173713E+02               0
GRID*             169639               00.0000000000E+006.0803610079E+01+
*       -1.973782000E+02               0
GRID*             169640               00.0000000000E+005.6572178194E+01+
*       -1.992656033E+02               0
GRID*             169641               00.0000000000E+005.7901474028E+01+
*       -1.976265733E+02               0
GRID*             169642               00.0000000000E+005.3675781421E+01+
*       -1.995129971E+02               0
GRID*             169643               00.0000000000E+005.5007321408E+01+
*       -1.978787941E+02               0
GRID*             169644               00.0000000000E+005.0793200332E+01+
*       -1.997573662E+02               0
GRID*             169645               00.0000000000E+005.2125537742E+01+
*       -1.981310830E+02               0
GRID*             169646               00.0000000000E+004.7932904179E+01+
*       -1.999997825E+02               0
GRID*             169647               00.0000000000E+004.9262589270E+01+
*       -1.983838053E+02               0
GRID*             169648               00.0000000000E+004.5105591715E+01+
*       -2.002412611E+02               0
GRID*             169649               00.0000000000E+004.6428290775E+01+
*       -1.986392073E+02               0
GRID*             169650               00.0000000000E+004.2322680614E+01+
*       -2.004779259E+02               0
GRID*             169651               00.0000000000E+004.3635378878E+01+
*       -1.988963242E+02               0
GRID*             169652               00.0000000000E+003.9592208460E+01+
*       -2.006982361E+02               0
GRID*             169653               00.0000000000E+004.0895641989E+01+
*       -1.991456384E+02               0
GRID*             169654               00.0000000000E+003.6916366932E+01+
*       -2.008887290E+02               0
GRID*             169655               00.0000000000E+003.8215330504E+01+
*       -1.993713332E+02               0
GRID*             169656               00.0000000000E+003.4291227505E+01+
*       -2.010355860E+02               0
GRID*             169657               00.0000000000E+003.5593368524E+01+
*       -1.995563156E+02               0
GRID*             169658               00.0000000000E+003.1707098808E+01+
*       -2.011263966E+02               0
GRID*             169659               00.0000000000E+003.3021025891E+01+
*       -1.996836087E+02               0
GRID*             169660               00.0000000000E+002.9150411291E+01+
*       -2.011559415E+02               0
GRID*             169661               00.0000000000E+003.0482464128E+01+
*       -1.997412773E+02               0
GRID*             169662               00.0000000000E+002.6609887806E+01+
*       -2.011328800E+02               0
GRID*             169663               00.0000000000E+002.7959924904E+01+
*       -1.997322527E+02               0
GRID*             169664               00.0000000000E+002.4080383187E+01+
*       -2.010690913E+02               0
GRID*             169665               00.0000000000E+002.5441398528E+01+
*       -1.996715257E+02               0
GRID*             169666               00.0000000000E+002.2922472268E+01+
*       -1.995774297E+02               0
GRID*             169667               00.0000000000E+002.3122840804E+01+
*       -1.967063526E+02               0
GRID*             169668               00.0000000000E+002.4282397237E+01+
*       -1.982073927E+02               0
GRID*             169669               00.0000000000E+002.3342092755E+01+
*       -1.938553739E+02               0
GRID*             169670               00.0000000000E+002.4494839628E+01+
*       -1.953762109E+02               0
GRID*             169671               00.0000000000E+002.3607103000E+01+
*       -1.910080186E+02               0
GRID*             169672               00.0000000000E+002.4748871828E+01+
*       -1.925655851E+02               0
GRID*             169673               00.0000000000E+002.3940036449E+01+
*       -1.881194322E+02               0
GRID*             169674               00.0000000000E+002.5079499990E+01+
*       -1.897386223E+02               0
GRID*             169675               00.0000000000E+002.4319405703E+01+
*       -1.851220818E+02               0
GRID*             169676               00.0000000000E+002.5494665956E+01+
*       -1.868195665E+02               0
GRID*             169677               00.0000000000E+002.4611753384E+01+
*       -1.820076549E+02               0
GRID*             169678               00.0000000000E+002.5885267710E+01+
*       -1.837535314E+02               0
GRID*             169679               00.0000000000E+002.4836867829E+01+
*       -1.788528274E+02               0
GRID*             169680               00.0000000000E+002.6173328696E+01+
*       -1.805905219E+02               0
GRID*             169681               00.0000000000E+002.5009327955E+01+
*       -1.756812785E+02               0
GRID*             169682               00.0000000000E+002.6392190848E+01+
*       -1.774003613E+02               0
GRID*             169683               00.0000000000E+002.5123937539E+01+
*       -1.725076269E+02               0
GRID*             169684               00.0000000000E+002.6547637703E+01+
*       -1.742029679E+02               0
GRID*             169685               00.0000000000E+002.5197342024E+01+
*       -1.693483661E+02               0
GRID*             169686               00.0000000000E+002.6644749798E+01+
*       -1.710159496E+02               0
GRID*             169687               00.0000000000E+002.5246760608E+01+
*       -1.662084132E+02               0
GRID*             169688               00.0000000000E+002.6705486518E+01+
*       -1.678519428E+02               0
GRID*             169689               00.0000000000E+002.5284119064E+01+
*       -1.630858797E+02               0
GRID*             169690               00.0000000000E+002.6747743097E+01+
*       -1.647114143E+02               0
GRID*             169691               00.0000000000E+002.5316493873E+01+
*       -1.599764066E+02               0
GRID*             169692               00.0000000000E+002.6782378413E+01+
*       -1.615895648E+02               0
GRID*             169693               00.0000000000E+002.5347777561E+01+
*       -1.568751867E+02               0
GRID*             169694               00.0000000000E+002.6815222060E+01+
*       -1.584805572E+02               0
GRID*             169695               00.0000000000E+002.5380015486E+01+
*       -1.537776021E+02               0
GRID*             169696               00.0000000000E+002.6849227939E+01+
*       -1.553790087E+02               0
GRID*             169697               00.0000000000E+002.5414299671E+01+
*       -1.506792759E+02               0
GRID*             169698               00.0000000000E+002.6885891402E+01+
*       -1.522802625E+02               0
GRID*             169699               00.0000000000E+002.5451392332E+01+
*       -1.475758869E+02               0
GRID*             169700               00.0000000000E+002.6926141181E+01+
*       -1.491802992E+02               0
GRID*             169701               00.0000000000E+002.5492404386E+01+
*       -1.444631014E+02               0
GRID*             169702               00.0000000000E+002.6971045942E+01+
*       -1.460757282E+02               0
GRID*             169703               00.0000000000E+002.5540005428E+01+
*       -1.413373196E+02               0
GRID*             169704               00.0000000000E+002.7022686996E+01+
*       -1.429643597E+02               0
GRID*             169705               00.0000000000E+002.7084561057E+01+
*       -1.398465788E+02               0
GRID*             169706               00.0000000000E+003.0099696334E+01+
*       -1.400038978E+02               0
GRID*             169707               00.0000000000E+002.8555435598E+01+
*       -1.414787880E+02               0
GRID*             169708               00.0000000000E+003.3103633164E+01+
*       -1.401542795E+02               0
GRID*             169709               00.0000000000E+003.1560247170E+01+
*       -1.416216770E+02               0
GRID*             169710               00.0000000000E+003.6098925824E+01+
*       -1.402960642E+02               0
GRID*             169711               00.0000000000E+003.4555908001E+01+
*       -1.417609129E+02               0
GRID*             169712               00.0000000000E+003.9087535862E+01+
*       -1.404299811E+02               0
GRID*             169713               00.0000000000E+003.7543899957E+01+
*       -1.418948182E+02               0
GRID*             169714               00.0000000000E+004.2070930134E+01+
*       -1.405579551E+02               0
GRID*             169715               00.0000000000E+004.0525493112E+01+
*       -1.420238205E+02               0
GRID*             169716               00.0000000000E+004.5050077359E+01+
*       -1.406824884E+02               0
GRID*             169717               00.0000000000E+004.3501643152E+01+
*       -1.421494753E+02               0
GRID*             169718               00.0000000000E+004.8025318432E+01+
*       -1.408062428E+02               0
GRID*             169719               00.0000000000E+004.6472891160E+01+
*       -1.422738239E+02               0
GRID*             169720               00.0000000000E+005.0996170146E+01+
*       -1.409316525E+02               0
GRID*             169721               00.0000000000E+004.9439225871E+01+
*       -1.423988958E+02               0
GRID*             169722               00.0000000000E+005.3961150186E+01+
*       -1.410604764E+02               0
GRID*             169723               00.0000000000E+005.2399948105E+01+
*       -1.425262595E+02               0
GRID*             169724               00.0000000000E+005.6917752827E+01+
*       -1.411932644E+02               0
GRID*             169725               00.0000000000E+005.5353613053E+01+
*       -1.426565936E+02               0
GRID*             169726               00.0000000000E+005.9862751782E+01+
*       -1.413288386E+02               0
GRID*             169727               00.0000000000E+005.8298140575E+01+
*       -1.427893387E+02               0
GRID*             169728               00.0000000000E+006.2792916717E+01+
*       -1.414641505E+02               0
GRID*             169729               00.0000000000E+006.1231138439E+01+
*       -1.429226148E+02               0
GRID*             169730               00.0000000000E+006.5705811509E+01+
*       -1.415951345E+02               0
GRID*             169731               00.0000000000E+006.4150320789E+01+
*       -1.430536802E+02               0
GRID*             169732               00.0000000000E+006.8599802964E+01+
*       -1.417188479E+02               0
GRID*             169733               00.0000000000E+006.7053716838E+01+
*       -1.431800500E+02               0
GRID*             169734               00.0000000000E+007.1473354778E+01+
*       -1.418351174E+02               0
GRID*             169735               00.0000000000E+006.9939524802E+01+
*       -1.433007787E+02               0
GRID*             169736               00.0000000000E+007.2807098685E+01+
*       -1.434156547E+02               0
GRID*             169737               00.0000000000E+007.1291479636E+01+
*       -1.448887670E+02               0
GRID*             169738               00.0000000000E+007.2640019978E+01+
*       -1.464751764E+02               0
GRID*             169739               00.0000000000E+007.2487336739E+01+
*       -1.495418083E+02               0
GRID*             169740               00.0000000000E+007.1125926265E+01+
*       -1.479506768E+02               0
GRID*             169741               00.0000000000E+007.2346289649E+01+
*       -1.526148550E+02               0
GRID*             169742               00.0000000000E+007.0973090299E+01+
*       -1.510199157E+02               0
GRID*             169743               00.0000000000E+007.2214368714E+01+
*       -1.556948540E+02               0
GRID*             169744               00.0000000000E+007.0830098385E+01+
*       -1.540963282E+02               0
GRID*             169745               00.0000000000E+007.2089484964E+01+
*       -1.587834614E+02               0
GRID*             169746               00.0000000000E+007.0694350108E+01+
*       -1.571810430E+02               0
GRID*             169747               00.0000000000E+007.1970252926E+01+
*       -1.618834550E+02               0
GRID*             169748               00.0000000000E+007.0563710828E+01+
*       -1.602764828E+02               0
GRID*             169749               00.0000000000E+007.1856564305E+01+
*       -1.649988086E+02               0
GRID*             169750               00.0000000000E+007.0436928768E+01+
*       -1.633865423E+02               0
GRID*             169751               00.0000000000E+007.1750690348E+01+
*       -1.681346665E+02               0
GRID*             169752               00.0000000000E+007.0314573207E+01+
*       -1.665168668E+02               0
GRID*             169753               00.0000000000E+007.1659291438E+01+
*       -1.712966315E+02               0
GRID*             169754               00.0000000000E+007.0201034264E+01+
*       -1.696747275E+02               0
GRID*             169755               00.0000000000E+007.1596095574E+01+
*       -1.744880759E+02               0
GRID*             169756               00.0000000000E+007.0107990442E+01+
*       -1.728671584E+02               0
GRID*             169757               00.0000000000E+007.1583193084E+01+
*       -1.777029624E+02               0
GRID*             169758               00.0000000000E+007.0058359497E+01+
*       -1.760942618E+02               0
GRID*             169759               00.0000000000E+007.1640952607E+01+
*       -1.809173268E+02               0
GRID*             169760               00.0000000000E+007.0082004632E+01+
*       -1.793369690E+02               0
GRID*             169761               00.0000000000E+007.1751093922E+01+
*       -1.841065976E+02               0
GRID*             169762               00.0000000000E+007.0180041917E+01+
*       -1.825627479E+02               0
GRID*             169763               00.0000000000E+007.1892991903E+01+
*       -1.872629510E+02               0
GRID*             169764               00.0000000000E+007.0324443319E+01+
*       -1.857511843E+02               0
GRID*             169765               00.0000000000E+007.2054009606E+01+
*       -1.903879104E+02               0
GRID*             169766               00.0000000000E+007.0493544497E+01+
*       -1.889003099E+02               0
GRID*             169767               00.0000000000E+007.2228212862E+01+
*       -1.934849810E+02               0
GRID*             169768               00.0000000000E+007.0676572388E+01+
*       -1.920149929E+02               0
GRID*             169769               00.0000000000E+007.0869650740E+01+
*       -1.950999223E+02               0
GRID*             169770               00.0000000000E+006.7958679522E+01+
*       -1.952837424E+02               0
GRID*             169771               00.0000000000E+006.9309482062E+01+
*       -1.936568791E+02               0
GRID*             169772               00.0000000000E+006.5043700109E+01+
*       -1.954943645E+02               0
GRID*             169773               00.0000000000E+006.6385936213E+01+
*       -1.938560365E+02               0
GRID*             169774               00.0000000000E+006.2130337698E+01+
*       -1.957291422E+02               0
GRID*             169775               00.0000000000E+006.3464082780E+01+
*       -1.940826522E+02               0
GRID*             169776               00.0000000000E+005.9223975216E+01+
*       -1.959808506E+02               0
GRID*             169777               00.0000000000E+006.0550702834E+01+
*       -1.943317928E+02               0
GRID*             169778               00.0000000000E+005.6327906443E+01+
*       -1.962396065E+02               0
GRID*             169779               00.0000000000E+005.7650407631E+01+
*       -1.945938838E+02               0
GRID*             169780               00.0000000000E+005.3443835437E+01+
*       -1.964986125E+02               0
GRID*             169781               00.0000000000E+005.4764420472E+01+
*       -1.948594249E+02               0
GRID*             169782               00.0000000000E+005.0574367453E+01+
*       -1.967572870E+02               0
GRID*             169783               00.0000000000E+005.1892665148E+01+
*       -1.951248165E+02               0
GRID*             169784               00.0000000000E+004.7726049630E+01+
*       -1.970207897E+02               0
GRID*             169785               00.0000000000E+004.9037827813E+01+
*       -1.953942714E+02               0
GRID*             169786               00.0000000000E+004.4912305614E+01+
*       -1.972958762E+02               0
GRID*             169787               00.0000000000E+004.6210064468E+01+
*       -1.956774586E+02               0
GRID*             169788               00.0000000000E+004.2152094531E+01+
*       -1.975807743E+02               0
GRID*             169789               00.0000000000E+004.3429021267E+01+
*       -1.959803263E+02               0
GRID*             169790               00.0000000000E+003.9458523375E+01+
*       -1.978529405E+02               0
GRID*             169791               00.0000000000E+004.0714975918E+01+
*       -1.962880764E+02               0
GRID*             169792               00.0000000000E+003.6835098459E+01+
*       -1.980917621E+02               0
GRID*             169793               00.0000000000E+003.8078291331E+01+
*       -1.965733694E+02               0
GRID*             169794               00.0000000000E+003.4277102898E+01+
*       -1.982754263E+02               0
GRID*             169795               00.0000000000E+003.5518832833E+01+
*       -1.968108728E+02               0
GRID*             169796               00.0000000000E+003.1769050167E+01+
*       -1.983784398E+02               0
GRID*             169797               00.0000000000E+003.3025127175E+01+
*       -1.969702574E+02               0
GRID*             169798               00.0000000000E+002.9281657928E+01+
*       -1.983835665E+02               0
GRID*             169799               00.0000000000E+003.0568243968E+01+
*       -1.970207290E+02               0
GRID*             169800               00.0000000000E+002.6788807440E+01+
*       -1.983172249E+02               0
GRID*             169801               00.0000000000E+002.8110540464E+01+
*       -1.969685386E+02               0
GRID*             169802               00.0000000000E+002.5629806149E+01+
*       -1.968530918E+02               0
GRID*             169803               00.0000000000E+002.5844664335E+01+
*       -1.940806364E+02               0
GRID*             169804               00.0000000000E+002.6979630855E+01+
*       -1.955575174E+02               0
GRID*             169805               00.0000000000E+002.6131943066E+01+
*       -1.913413041E+02               0
GRID*             169806               00.0000000000E+002.7227735573E+01+
*       -1.928563554E+02               0
GRID*             169807               00.0000000000E+002.6558221424E+01+
*       -1.885700305E+02               0
GRID*             169808               00.0000000000E+002.7610664500E+01+
*       -1.901727123E+02               0
GRID*             169809               00.0000000000E+002.7166387499E+01+
*       -1.856015222E+02               0
GRID*             169810               00.0000000000E+002.8229942967E+01+
*       -1.873519862E+02               0
GRID*             169811               00.0000000000E+002.7514130814E+01+
*       -1.823781996E+02               0
GRID*             169812               00.0000000000E+002.8795250603E+01+
*       -1.842261905E+02               0
GRID*             169813               00.0000000000E+002.7774649769E+01+
*       -1.791535484E+02               0
GRID*             169814               00.0000000000E+002.9115451886E+01+
*       -1.809412261E+02               0
GRID*             169815               00.0000000000E+002.7989649381E+01+
*       -1.759227778E+02               0
GRID*             169816               00.0000000000E+002.9372108302E+01+
*       -1.776759649E+02               0
GRID*             169817               00.0000000000E+002.8108902924E+01+
*       -1.726920844E+02               0
GRID*             169818               00.0000000000E+002.9550914602E+01+
*       -1.744118942E+02               0
GRID*             169819               00.0000000000E+002.8174149523E+01+
*       -1.694957242E+02               0
GRID*             169820               00.0000000000E+002.9638302649E+01+
*       -1.711718589E+02               0
GRID*             169821               00.0000000000E+002.8215314611E+01+
*       -1.663347112E+02               0
GRID*             169822               00.0000000000E+002.9683977617E+01+
*       -1.679784925E+02               0
GRID*             169823               00.0000000000E+002.8248069470E+01+
*       -1.632007148E+02               0
GRID*             169824               00.0000000000E+002.9715640984E+01+
*       -1.648240117E+02               0
GRID*             169825               00.0000000000E+002.8279768987E+01+
*       -1.600850316E+02               0
GRID*             169826               00.0000000000E+002.9745460043E+01+
*       -1.616961815E+02               0
GRID*             169827               00.0000000000E+002.8313727497E+01+
*       -1.569806512E+02               0
GRID*             169828               00.0000000000E+002.9778274424E+01+
*       -1.585851256E+02               0
GRID*             169829               00.0000000000E+002.8351389673E+01+
*       -1.538821710E+02               0
GRID*             169830               00.0000000000E+002.9815889231E+01+
*       -1.554838135E+02               0
GRID*             169831               00.0000000000E+002.8393453969E+01+
*       -1.507854052E+02               0
GRID*             169832               00.0000000000E+002.9858952240E+01+
*       -1.523873137E+02               0
GRID*             169833               00.0000000000E+002.8440545937E+01+
*       -1.476871130E+02               0
GRID*             169834               00.0000000000E+002.9907858725E+01+
*       -1.492922191E+02               0
GRID*             169835               00.0000000000E+002.8493826783E+01+
*       -1.445851052E+02               0
GRID*             169836               00.0000000000E+002.9963326778E+01+
*       -1.461964900E+02               0
GRID*             169837               00.0000000000E+003.0026575385E+01+
*       -1.430995335E+02               0
GRID*             169838               00.0000000000E+003.3021501506E+01+
*       -1.432344249E+02               0
GRID*             169839               00.0000000000E+003.1487829721E+01+
*       -1.447122813E+02               0
GRID*             169840               00.0000000000E+003.6008376467E+01+
*       -1.433661119E+02               0
GRID*             169841               00.0000000000E+003.4473969972E+01+
*       -1.448396239E+02               0
GRID*             169842               00.0000000000E+003.8988144852E+01+
*       -1.434938958E+02               0
GRID*             169843               00.0000000000E+003.7452621362E+01+
*       -1.449651895E+02               0
GRID*             169844               00.0000000000E+004.1961650827E+01+
*       -1.436186073E+02               0
GRID*             169845               00.0000000000E+004.0424302567E+01+
*       -1.450886827E+02               0
GRID*             169846               00.0000000000E+004.4929551028E+01+
*       -1.437418787E+02               0
GRID*             169847               00.0000000000E+004.3389558702E+01+
*       -1.452110107E+02               0
GRID*             169848               00.0000000000E+004.7892197242E+01+
*       -1.438655730E+02               0
GRID*             169849               00.0000000000E+004.6348857110E+01+
*       -1.453336279E+02               0
GRID*             169850               00.0000000000E+005.0849492348E+01+
*       -1.439912988E+02               0
GRID*             169851               00.0000000000E+004.9302463719E+01+
*       -1.454579761E+02               0
GRID*             169852               00.0000000000E+005.3800767624E+01+
*       -1.441199819E+02               0
GRID*             169853               00.0000000000E+005.2250311867E+01+
*       -1.455850212E+02               0
GRID*             169854               00.0000000000E+005.6744749823E+01+
*       -1.442515189E+02               0
GRID*             169855               00.0000000000E+005.5191904394E+01+
*       -1.457149072E+02               0
GRID*             169856               00.0000000000E+005.9679685514E+01+
*       -1.443846128E+02               0
GRID*             169857               00.0000000000E+005.8126294763E+01+
*       -1.458467930E+02               0
GRID*             169858               00.0000000000E+006.2603617167E+01+
*       -1.445169732E+02               0
GRID*             169859               00.0000000000E+006.1052164242E+01+
*       -1.459789711E+02               0
GRID*             169860               00.0000000000E+006.5514654247E+01+
*       -1.446460531E+02               0
GRID*             169861               00.0000000000E+006.3967950625E+01+
*       -1.461093460E+02               0
GRID*             169862               00.0000000000E+006.8411010047E+01+
*       -1.447701927E+02               0
GRID*             169863               00.0000000000E+006.6871947457E+01+
*       -1.462361958E+02               0
GRID*             169864               00.0000000000E+006.9762964881E+01+
*       -1.463581810E+02               0
GRID*             169865               00.0000000000E+006.8237607134E+01+
*       -1.478304842E+02               0
GRID*             169866               00.0000000000E+006.9600568518E+01+
*       -1.494229800E+02               0
GRID*             169867               00.0000000000E+006.9448846428E+01+
*       -1.524946828E+02               0
GRID*             169868               00.0000000000E+006.8076324646E+01+
*       -1.508977471E+02               0
GRID*             169869               00.0000000000E+006.9304714345E+01+
*       -1.555737393E+02               0
GRID*             169870               00.0000000000E+006.7923462387E+01+
*       -1.539720939E+02               0
GRID*             169871               00.0000000000E+006.9165297684E+01+
*       -1.586619084E+02               0
GRID*             169872               00.0000000000E+006.7775661921E+01+
*       -1.570546047E+02               0
GRID*             169873               00.0000000000E+006.9028031324E+01+
*       -1.617624553E+02               0
GRID*             169874               00.0000000000E+006.7629618181E+01+
*       -1.601478809E+02               0
GRID*             169875               00.0000000000E+006.8891075668E+01+
*       -1.648807748E+02               0
GRID*             169876               00.0000000000E+006.7482178225E+01+
*       -1.632566878E+02               0
GRID*             169877               00.0000000000E+006.8754486814E+01+
*       -1.680254016E+02               0
GRID*             169878               00.0000000000E+006.7330989275E+01+
*       -1.663893097E+02               0
GRID*             169879               00.0000000000E+006.8623560383E+01+
*       -1.712083353E+02               0
GRID*             169880               00.0000000000E+006.7177012933E+01+
*       -1.695590095E+02               0
GRID*             169881               00.0000000000E+006.8515604202E+01+
*       -1.744430322E+02               0
GRID*             169882               00.0000000000E+006.7031174143E+01+
*       -1.727842091E+02               0
GRID*             169883               00.0000000000E+006.8473167848E+01+
*       -1.777298911E+02               0
GRID*             169884               00.0000000000E+006.6930412552E+01+
*       -1.760786614E+02               0
GRID*             169885               00.0000000000E+006.8564514669E+01+
*       -1.810161030E+02               0
GRID*             169886               00.0000000000E+006.6955677884E+01+
*       -1.794090250E+02               0
GRID*             169887               00.0000000000E+006.8723852133E+01+
*       -1.842487172E+02               0
GRID*             169888               00.0000000000E+006.7108324885E+01+
*       -1.827020724E+02               0
GRID*             169889               00.0000000000E+006.8910012507E+01+
*       -1.874257734E+02               0
GRID*             169890               00.0000000000E+006.7309421320E+01+
*       -1.859233063E+02               0
GRID*             169891               00.0000000000E+006.9106765029E+01+
*       -1.905586153E+02               0
GRID*             169892               00.0000000000E+006.7523233038E+01+
*       -1.890840788E+02               0
GRID*             169893               00.0000000000E+006.7739674702E+01+
*       -1.922005014E+02               0
GRID*             169894               00.0000000000E+006.4801927508E+01+
*       -1.924180625E+02               0
GRID*             169895               00.0000000000E+006.6155665997E+01+
*       -1.907625273E+02               0
GRID*             169896               00.0000000000E+006.1873468623E+01+
*       -1.926671405E+02               0
GRID*             169897               00.0000000000E+006.3211313351E+01+
*       -1.910025508E+02               0
GRID*             169898               00.0000000000E+005.8963571931E+01+
*       -1.929386098E+02               0
GRID*             169899               00.0000000000E+006.0286337719E+01+
*       -1.912739575E+02               0
GRID*             169900               00.0000000000E+005.6074376837E+01+
*       -1.932155412E+02               0
GRID*             169901               00.0000000000E+005.7387541136E+01+
*       -1.915602671E+02               0
GRID*             169902               00.0000000000E+005.3201593280E+01+
*       -1.934875658E+02               0
GRID*             169903               00.0000000000E+005.4511549645E+01+
*       -1.918436821E+02               0
GRID*             169904               00.0000000000E+005.0340323476E+01+
*       -1.937559496E+02               0
GRID*             169905               00.0000000000E+005.1649251608E+01+
*       -1.921186989E+02               0
GRID*             169906               00.0000000000E+004.7491325060E+01+
*       -1.940336262E+02               0
GRID*             169907               00.0000000000E+004.8793820723E+01+
*       -1.923953043E+02               0
GRID*             169908               00.0000000000E+004.4671095773E+01+
*       -1.943435972E+02               0
GRID*             169909               00.0000000000E+004.5952356365E+01+
*       -1.926997647E+02               0
GRID*             169910               00.0000000000E+004.1918223250E+01+
*       -1.947009509E+02               0
GRID*             169911               00.0000000000E+004.3160297756E+01+
*       -1.930642218E+02               0
GRID*             169912               00.0000000000E+003.9254406460E+01+
*       -1.950480393E+02               0
GRID*             169913               00.0000000000E+004.0457653792E+01+
*       -1.934609139E+02               0
GRID*             169914               00.0000000000E+003.6683577710E+01+
*       -1.953603669E+02               0
GRID*             169915               00.0000000000E+003.7859692839E+01+
*       -1.938350369E+02               0
GRID*             169916               00.0000000000E+003.4205011042E+01+
*       -1.956112567E+02               0
GRID*             169917               00.0000000000E+003.5369755919E+01+
*       -1.941607508E+02               0
GRID*             169918               00.0000000000E+003.1802946192E+01+
*       -1.957491044E+02               0
GRID*             169919               00.0000000000E+003.2982830059E+01+
*       -1.943901036E+02               0
GRID*             169920               00.0000000000E+002.9413942424E+01+
*       -1.957017583E+02               0
GRID*             169921               00.0000000000E+003.0648644649E+01+
*       -1.944301336E+02               0
GRID*             169922               00.0000000000E+002.8283032815E+01+
*       -1.942907371E+02               0
GRID*             169923               00.0000000000E+002.8538657511E+01+
*       -1.917115428E+02               0
GRID*             169924               00.0000000000E+002.9593954754E+01+
*       -1.931459244E+02               0
GRID*             169925               00.0000000000E+002.9017385717E+01+
*       -1.891828578E+02               0
GRID*             169926               00.0000000000E+002.9945378729E+01+
*       -1.907216883E+02               0
GRID*             169927               00.0000000000E+003.0234116406E+01+
*       -1.863408975E+02               0
GRID*             169928               00.0000000000E+003.1021559156E+01+
*       -1.881717691E+02               0
GRID*             169929               00.0000000000E+003.0476887361E+01+
*       -1.827625083E+02               0
GRID*             169930               00.0000000000E+003.1915753164E+01+
*       -1.848772153E+02               0
GRID*             169931               00.0000000000E+003.0736186181E+01+
*       -1.794617888E+02               0
GRID*             169932               00.0000000000E+003.2097621656E+01+
*       -1.812830710E+02               0
GRID*             169933               00.0000000000E+003.1041814392E+01+
*       -1.761640687E+02               0
GRID*             169934               00.0000000000E+003.2405892272E+01+
*       -1.779498926E+02               0
GRID*             169935               00.0000000000E+003.1133590931E+01+
*       -1.728455257E+02               0
GRID*             169936               00.0000000000E+003.2624490721E+01+
*       -1.745977001E+02               0
GRID*             169937               00.0000000000E+003.1166816281E+01+
*       -1.696105947E+02               0
GRID*             169938               00.0000000000E+003.2662104563E+01+
*       -1.712842614E+02               0
GRID*             169939               00.0000000000E+003.1187420026E+01+
*       -1.664362920E+02               0
GRID*             169940               00.0000000000E+003.2670258690E+01+
*       -1.680683942E+02               0
GRID*             169941               00.0000000000E+003.1210044195E+01+
*       -1.632993253E+02               0
GRID*             169942               00.0000000000E+003.2681823237E+01+
*       -1.649116056E+02               0
GRID*             169943               00.0000000000E+003.1238808395E+01+
*       -1.601844119E+02               0
GRID*             169944               00.0000000000E+003.2703392547E+01+
*       -1.617875557E+02               0
GRID*             169945               00.0000000000E+003.1274663637E+01+
*       -1.570822677E+02               0
GRID*             169946               00.0000000000E+003.2735197607E+01+
*       -1.586815540E+02               0
GRID*             169947               00.0000000000E+003.1317552441E+01+
*       -1.539870403E+02               0
GRID*             169948               00.0000000000E+003.2776326847E+01+
*       -1.555854946E+02               0
GRID*             169949               00.0000000000E+003.1367260080E+01+
*       -1.508949574E+02               0
GRID*             169950               00.0000000000E+003.2825860281E+01+
*       -1.524946840E+02               0
GRID*             169951               00.0000000000E+003.1423845223E+01+
*       -1.478037365E+02               0
GRID*             169952               00.0000000000E+003.2883246579E+01+
*       -1.494064748E+02               0
GRID*             169953               00.0000000000E+003.2948348167E+01+
*       -1.463195278E+02               0
GRID*             169954               00.0000000000E+003.5925812985E+01+
*       -1.464418183E+02               0
GRID*             169955               00.0000000000E+003.4400191180E+01+
*       -1.479217222E+02               0
GRID*             169956               00.0000000000E+003.8895826119E+01+
*       -1.465626013E+02               0
GRID*             169957               00.0000000000E+003.7369017742E+01+
*       -1.480392301E+02               0
GRID*             169958               00.0000000000E+004.1858723352E+01+
*       -1.466823692E+02               0
GRID*             169959               00.0000000000E+004.0330246904E+01+
*       -1.481562878E+02               0
GRID*             169960               00.0000000000E+004.4814982861E+01+
*       -1.468024467E+02               0
GRID*             169961               00.0000000000E+004.3284147510E+01+
*       -1.482738051E+02               0
GRID*             169962               00.0000000000E+004.7765128583E+01+
*       -1.469243702E+02               0
GRID*             169963               00.0000000000E+004.6231254334E+01+
*       -1.483931890E+02               0
GRID*             169964               00.0000000000E+005.0709584074E+01+
*       -1.470493533E+02               0
GRID*             169965               00.0000000000E+004.9172248937E+01+
*       -1.485157474E+02               0
GRID*             169966               00.0000000000E+005.3648511694E+01+
*       -1.471778722E+02               0
GRID*             169967               00.0000000000E+005.2107783901E+01+
*       -1.486422043E+02               0
GRID*             169968               00.0000000000E+005.6581682991E+01+
*       -1.473094233E+02               0
GRID*             169969               00.0000000000E+005.5038290291E+01+
*       -1.487723883E+02               0
GRID*             169970               00.0000000000E+005.9508420941E+01+
*       -1.474425304E+02               0
GRID*             169971               00.0000000000E+005.7963809169E+01+
*       -1.489051607E+02               0
GRID*             169972               00.0000000000E+006.2427623843E+01+
*       -1.475750772E+02               0
GRID*             169973               00.0000000000E+006.0883880542E+01+
*       -1.490386365E+02               0
GRID*             169974               00.0000000000E+006.5337834342E+01+
*       -1.477049713E+02               0
GRID*             169975               00.0000000000E+006.3797507560E+01+
*       -1.491707024E+02               0
GRID*             169976               00.0000000000E+006.6703494019E+01+
*       -1.492992597E+02               0
GRID*             169977               00.0000000000E+006.1145895366E+01+
*       -1.691476712E+02               0
GRID*             169978               00.0000000000E+006.2521589948E+01+
*       -1.708546313E+02               0
GRID*             169979               00.0000000000E+006.4147838581E+01+
*       -1.693909270E+02               0
GRID*             169980               00.0000000000E+006.2772143999E+01+
*       -1.676839670E+02               0
GRID*             169981               00.0000000000E+005.8231327717E+01+
*       -1.688265601E+02               0
GRID*             169982               00.0000000000E+005.9546120368E+01+
*       -1.705314020E+02               0
GRID*             169983               00.0000000000E+005.9831102715E+01+
*       -1.674428294E+02               0
GRID*             169984               00.0000000000E+005.5403112150E+01+
*       -1.685411935E+02               0
GRID*             169985               00.0000000000E+005.6685392907E+01+
*       -1.701786831E+02               0
GRID*             169986               00.0000000000E+005.6949046960E+01+
*       -1.671890704E+02               0
GRID*             169987               00.0000000000E+005.2621227478E+01+
*       -1.683237668E+02               0
GRID*             169988               00.0000000000E+005.3908022091E+01+
*       -1.698992336E+02               0
GRID*             169989               00.0000000000E+005.4116317537E+01+
*       -1.669657266E+02               0
GRID*             169990               00.0000000000E+004.9853783874E+01+
*       -1.681727540E+02               0
GRID*             169991               00.0000000000E+005.1164434057E+01+
*       -1.697056809E+02               0
GRID*             169992               00.0000000000E+005.1310577295E+01+
*       -1.667908399E+02               0
GRID*             169993               00.0000000000E+004.7081058265E+01+
*       -1.680796192E+02               0
GRID*             169994               00.0000000000E+004.8423409137E+01+
*       -1.695861702E+02               0
GRID*             169995               00.0000000000E+004.8511433003E+01+
*       -1.666662030E+02               0
GRID*             169996               00.0000000000E+004.4289012554E+01+
*       -1.680366112E+02               0
GRID*             169997               00.0000000000E+004.5666982696E+01+
*       -1.695289706E+02               0
GRID*             169998               00.0000000000E+004.5703088124E+01+
*       -1.665872598E+02               0
GRID*             169999               00.0000000000E+004.1463306823E+01+
*       -1.680375240E+02               0
GRID*             170000               00.0000000000E+004.2880045597E+01+
*       -1.695272367E+02               0
GRID*             170001               00.0000000000E+004.2872273781E+01+
*       -1.665468985E+02               0
GRID*             170002               00.0000000000E+003.8587182446E+01+
*       -1.680702825E+02               0
GRID*             170003               00.0000000000E+004.0043520930E+01+
*       -1.695737867E+02               0
GRID*             170004               00.0000000000E+004.0006968339E+01+
*       -1.665340198E+02               0
GRID*             170005               00.0000000000E+003.5649342849E+01+
*       -1.681021933E+02               0
GRID*             170006               00.0000000000E+003.7137235638E+01+
*       -1.696437238E+02               0
GRID*             170007               00.0000000000E+003.7099289657E+01+
*       -1.665287520E+02               0
GRID*             170008               00.0000000000E+003.4165599631E+01+
*       -1.696684664E+02               0
GRID*             170009               00.0000000000E+003.4154001909E+01+
*       -1.665021211E+02               0
GRID*             170010               00.0000000000E+003.4163764245E+01+
*       -1.633769614E+02               0
GRID*             170011               00.0000000000E+003.5635942916E+01+
*       -1.649674769E+02               0
GRID*             170012               00.0000000000E+003.4189468911E+01+
*       -1.602722014E+02               0
GRID*             170013               00.0000000000E+003.5649840609E+01+
*       -1.618616071E+02               0
GRID*             170014               00.0000000000E+003.4227822741E+01+
*       -1.571783375E+02               0
GRID*             170015               00.0000000000E+003.5682094045E+01+
*       -1.587689848E+02               0
GRID*             170016               00.0000000000E+003.4276571902E+01+
*       -1.540902862E+02               0
GRID*             170017               00.0000000000E+003.5728067797E+01+
*       -1.556831292E+02               0
GRID*             170018               00.0000000000E+003.4334285022E+01+
*       -1.510052527E+02               0
GRID*             170019               00.0000000000E+003.5784996643E+01+
*       -1.526008549E+02               0
GRID*             170020               00.0000000000E+003.5851229623E+01+
*       -1.495205001E+02               0
GRID*             170021               00.0000000000E+003.8811226125E+01+
*       -1.496337834E+02               0
GRID*             170022               00.0000000000E+003.7293438006E+01+
*       -1.511150534E+02               0
GRID*             170023               00.0000000000E+004.1763094846E+01+
*       -1.497472907E+02               0
GRID*             170024               00.0000000000E+004.0244074067E+01+
*       -1.512247864E+02               0
GRID*             170025               00.0000000000E+004.4707254548E+01+
*       -1.498626252E+02               0
GRID*             170026               00.0000000000E+004.3186201884E+01+
*       -1.513361108E+02               0
GRID*             170027               00.0000000000E+004.7644555745E+01+
*       -1.499815014E+02               0
GRID*             170028               00.0000000000E+004.6120555959E+01+
*       -1.514509376E+02               0
GRID*             170029               00.0000000000E+005.0576094760E+01+
*       -1.501051457E+02               0
GRID*             170030               00.0000000000E+004.9048401567E+01+
*       -1.515708997E+02               0
GRID*             170031               00.0000000000E+005.3502967547E+01+
*       -1.502338593E+02               0
GRID*             170032               00.0000000000E+005.1971278406E+01+
*       -1.516968008E+02               0
GRID*             170033               00.0000000000E+005.6426002857E+01+
*       -1.503668132E+02               0
GRID*             170034               00.0000000000E+005.4890680114E+01+
*       -1.518282842E+02               0
GRID*             170035               00.0000000000E+005.9345517519E+01+
*       -1.505021372E+02               0
GRID*             170036               00.0000000000E+005.7807711207E+01+
*       -1.519637896E+02               0
GRID*             170037               00.0000000000E+006.2261144992E+01+
*       -1.506373403E+02               0
GRID*             170038               00.0000000000E+006.0722781968E+01+
*       -1.521008410E+02               0
GRID*             170039               00.0000000000E+006.5171817483E+01+
*       -1.507699914E+02               0
GRID*             170040               00.0000000000E+006.3635454915E+01+
*       -1.522366292E+02               0
GRID*             170041               00.0000000000E+006.6544648111E+01+
*       -1.523684788E+02               0
GRID*             170042               00.0000000000E+006.6391626968E+01+
*       -1.554442431E+02               0
GRID*             170043               00.0000000000E+006.5012812691E+01+
*       -1.538406281E+02               0
GRID*             170044               00.0000000000E+006.6240673071E+01+
*       -1.585281567E+02               0
GRID*             170045               00.0000000000E+006.4856638118E+01+
*       -1.569177950E+02               0
GRID*             170046               00.0000000000E+006.6087611626E+01+
*       -1.616234212E+02               0
GRID*             170047               00.0000000000E+006.4698666517E+01+
*       -1.600036970E+02               0
GRID*             170048               00.0000000000E+006.5927710032E+01+
*       -1.647362087E+02               0
GRID*             170049               00.0000000000E+006.4533143434E+01+
*       -1.631029421E+02               0
GRID*             170050               00.0000000000E+006.5755685825E+01+
*       -1.678785953E+02               0
GRID*             170051               00.0000000000E+006.4352406582E+01+
*       -1.662254943E+02               0
GRID*             170052               00.0000000000E+006.5569165689E+01+
*       -1.710713412E+02               0
GRID*             170053               00.0000000000E+006.2977055401E+01+
*       -1.645631610E+02               0
GRID*             170054               00.0000000000E+006.1396792818E+01+
*       -1.660216336E+02               0
GRID*             170055               00.0000000000E+005.8485955627E+01+
*       -1.657884547E+02               0
GRID*             170056               00.0000000000E+006.0051645730E+01+
*       -1.643672590E+02               0
GRID*             170057               00.0000000000E+005.5621879875E+01+
*       -1.655661937E+02               0
GRID*             170058               00.0000000000E+005.7158788542E+01+
*       -1.641655780E+02               0
GRID*             170059               00.0000000000E+005.2789241161E+01+
*       -1.653786108E+02               0
GRID*             170060               00.0000000000E+005.4294803499E+01+
*       -1.639790779E+02               0
GRID*             170061               00.0000000000E+004.9970107139E+01+
*       -1.652330406E+02               0
GRID*             170062               00.0000000000E+005.1448771005E+01+
*       -1.638208114E+02               0
GRID*             170063               00.0000000000E+004.7149500504E+01+
*       -1.651284021E+02               0
GRID*             170064               00.0000000000E+004.8608174640E+01+
*       -1.636952397E+02               0
GRID*             170065               00.0000000000E+004.4315163866E+01+
*       -1.650598358E+02               0
GRID*             170066               00.0000000000E+004.5761576245E+01+
*       -1.636009782E+02               0
GRID*             170067               00.0000000000E+004.1456277433E+01+
*       -1.650197447E+02               0
GRID*             170068               00.0000000000E+004.2899167518E+01+
*       -1.635326821E+02               0
GRID*             170069               00.0000000000E+003.8563957252E+01+
*       -1.649955855E+02               0
GRID*             170070               00.0000000000E+004.0013266346E+01+
*       -1.634813105E+02               0
GRID*             170071               00.0000000000E+003.7100610511E+01+
*       -1.634343104E+02               0
GRID*             170072               00.0000000000E+003.7126914282E+01+
*       -1.603495737E+02               0
GRID*             170073               00.0000000000E+003.8577684185E+01+
*       -1.619222771E+02               0
GRID*             170074               00.0000000000E+003.7170349698E+01+
*       -1.572694831E+02               0
GRID*             170075               00.0000000000E+003.8615169936E+01+
*       -1.588500720E+02               0
GRID*             170076               00.0000000000E+003.7226689575E+01+
*       -1.541917155E+02               0
GRID*             170077               00.0000000000E+003.8668971476E+01+
*       -1.557780694E+02               0
GRID*             170078               00.0000000000E+003.8735130937E+01+
*       -1.527059140E+02               0
GRID*             170079               00.0000000000E+004.1675726735E+01+
*       -1.528116129E+02               0
GRID*             170080               00.0000000000E+004.0166783605E+01+
*       -1.542927406E+02               0
GRID*             170081               00.0000000000E+004.4607108065E+01+
*       -1.529205240E+02               0
GRID*             170082               00.0000000000E+004.3096632915E+01+
*       -1.543960261E+02               0
GRID*             170083               00.0000000000E+004.7530632676E+01+
*       -1.530350878E+02               0
GRID*             170084               00.0000000000E+004.6017184782E+01+
*       -1.545046742E+02               0
GRID*             170085               00.0000000000E+005.0448291350E+01+
*       -1.531569635E+02               0
GRID*             170086               00.0000000000E+004.8930522459E+01+
*       -1.546211516E+02               0
GRID*             170087               00.0000000000E+005.3362349220E+01+
*       -1.532865203E+02               0
GRID*             170088               00.0000000000E+005.1839362163E+01+
*       -1.547466830E+02               0
GRID*             170089               00.0000000000E+005.6274909958E+01+
*       -1.534226038E+02               0
GRID*             170090               00.0000000000E+005.4746579064E+01+
*       -1.548808399E+02               0
GRID*             170091               00.0000000000E+005.9187442482E+01+
*       -1.535626420E+02               0
GRID*             170092               00.0000000000E+005.7654641234E+01+
*       -1.550214562E+02               0
GRID*             170093               00.0000000000E+006.2100340874E+01+
*       -1.537031721E+02               0
GRID*             170094               00.0000000000E+006.0565001388E+01+
*       -1.551649731E+02               0
GRID*             170095               00.0000000000E+006.3477698650E+01+
*       -1.553071710E+02               0
GRID*             170096               00.0000000000E+006.3319616644E+01+
*       -1.583831316E+02               0
GRID*             170097               00.0000000000E+006.1940677177E+01+
*       -1.567725075E+02               0
GRID*             170098               00.0000000000E+006.3155508159E+01+
*       -1.614667032E+02               0
GRID*             170099               00.0000000000E+006.1776458287E+01+
*       -1.598461377E+02               0
GRID*             170100               00.0000000000E+006.1599420126E+01+
*       -1.629269221E+02               0
GRID*             170101               00.0000000000E+006.0237843569E+01+
*       -1.612973957E+02               0
GRID*             170102               00.0000000000E+005.8690069173E+01+
*       -1.627377326E+02               0
GRID*             170103               00.0000000000E+005.5806589179E+01+
*       -1.625532436E+02               0
GRID*             170104               00.0000000000E+005.7337869810E+01+
*       -1.611253981E+02               0
GRID*             170105               00.0000000000E+005.2942352317E+01+
*       -1.623877949E+02               0
GRID*             170106               00.0000000000E+005.4454137997E+01+
*       -1.609619606E+02               0
GRID*             170107               00.0000000000E+005.0087362938E+01+
*       -1.622485423E+02               0
GRID*             170108               00.0000000000E+005.1580944250E+01+
*       -1.608155257E+02               0
GRID*             170109               00.0000000000E+004.7231548909E+01+
*       -1.621367649E+02               0
GRID*             170110               00.0000000000E+004.8710737207E+01+
*       -1.606900675E+02               0
GRID*             170111               00.0000000000E+004.4365909472E+01+
*       -1.620496539E+02               0
GRID*             170112               00.0000000000E+004.5835882136E+01+
*       -1.605854406E+02               0
GRID*             170113               00.0000000000E+004.1482889399E+01+
*       -1.619811802E+02               0
GRID*             170114               00.0000000000E+004.2949631353E+01+
*       -1.604981519E+02               0
GRID*             170115               00.0000000000E+004.0047307238E+01+
*       -1.604221468E+02               0
GRID*             170116               00.0000000000E+004.0100170034E+01+
*       -1.573588615E+02               0
GRID*             170117               00.0000000000E+004.1532307335E+01+
*       -1.589309363E+02               0
GRID*             170118               00.0000000000E+004.1597982163E+01+
*       -1.558735328E+02               0
GRID*             170119               00.0000000000E+004.4515496211E+01+
*       -1.559736411E+02               0
GRID*             170120               00.0000000000E+004.3016845459E+01+
*       -1.574511477E+02               0
GRID*             170121               00.0000000000E+004.7423487047E+01+
*       -1.560822082E+02               0
GRID*             170122               00.0000000000E+004.5921798477E+01+
*       -1.575511751E+02               0
GRID*             170123               00.0000000000E+005.0325163878E+01+
*       -1.562018015E+02               0
GRID*             170124               00.0000000000E+004.8818128466E+01+
*       -1.576628581E+02               0
GRID*             170125               00.0000000000E+005.3224372550E+01+
*       -1.563331399E+02               0
GRID*             170126               00.0000000000E+005.1710174264E+01+
*       -1.577882584E+02               0
GRID*             170127               00.0000000000E+005.6124962870E+01+
*       -1.564747460E+02               0
GRID*             170128               00.0000000000E+005.4602756356E+01+
*       -1.579270459E+02               0
GRID*             170129               00.0000000000E+005.9030027122E+01+
*       -1.566229337E+02               0
GRID*             170130               00.0000000000E+005.7500348759E+01+
*       -1.580762235E+02               0
GRID*             170131               00.0000000000E+006.0405702911E+01+
*       -1.582304681E+02               0
GRID*             170132               00.0000000000E+005.8867088194E+01+
*       -1.596817260E+02               0
GRID*             170133               00.0000000000E+005.5971130376E+01+
*       -1.595198957E+02               0
GRID*             170134               00.0000000000E+005.3085763977E+01+
*       -1.593691108E+02               0
GRID*             170135               00.0000000000E+005.0205354537E+01+
*       -1.592346733E+02               0
GRID*             170136               00.0000000000E+004.7323511136E+01+
*       -1.591182523E+02               0
GRID*             170137               00.0000000000E+004.4434169477E+01+
*       -1.590183633E+02               0
GRID*             170138               00.0000000000E+004.4052747185E+01+
*       -1.848872600E+02               0
GRID*             170139               00.0000000000E+004.5317962475E+01+
*       -1.864341810E+02               0
GRID*             170140               00.0000000000E+004.6953989590E+01+
*       -1.849030393E+02               0
GRID*             170141               00.0000000000E+004.5688774299E+01+
*       -1.833561183E+02               0
GRID*             170142               00.0000000000E+004.3965118786E+01+
*       -1.881461170E+02               0
GRID*             170143               00.0000000000E+004.5654095213E+01+
*       -1.896630631E+02               0
GRID*             170144               00.0000000000E+004.7006938902E+01+
*       -1.879511270E+02               0
GRID*             170145               00.0000000000E+004.4368301240E+01+
*       -1.913442976E+02               0
GRID*             170146               00.0000000000E+004.7238150338E+01+
*       -1.910185302E+02               0
GRID*             170147               00.0000000000E+004.2805268474E+01+
*       -1.901183287E+02               0
GRID*             170148               00.0000000000E+004.1597264990E+01+
*       -1.918382529E+02               0
GRID*             170149               00.0000000000E+003.8954004900E+01+
*       -1.922894673E+02               0
GRID*             170150               00.0000000000E+004.0093616098E+01+
*       -1.906668063E+02               0
GRID*             170151               00.0000000000E+004.2306516454E+01+
*       -1.870456767E+02               0
GRID*             170152               00.0000000000E+004.1146666142E+01+
*       -1.890178883E+02               0
GRID*             170153               00.0000000000E+003.8531864160E+01+
*       -1.895832560E+02               0
GRID*             170154               00.0000000000E+003.9584914204E+01+
*       -1.879343380E+02               0
GRID*             170155               00.0000000000E+004.3241522809E+01+
*       -1.831087788E+02               0
GRID*             170156               00.0000000000E+004.2090943481E+01+
*       -1.839479385E+02               0
GRID*             170157               00.0000000000E+004.2902167857E+01+
*       -1.857264197E+02               0
GRID*             170158               00.0000000000E+003.8006615335E+01+
*       -1.869465933E+02               0
GRID*             170159               00.0000000000E+004.0495006212E+01+
*       -1.864678512E+02               0
GRID*             170160               00.0000000000E+003.8916707343E+01+
*       -1.854801065E+02               0
GRID*             170161               00.0000000000E+003.8667785671E+01+
*       -1.829602802E+02               0
GRID*             170162               00.0000000000E+003.7600356438E+01+
*       -1.843220029E+02               0
GRID*             170163               00.0000000000E+003.9984136576E+01+
*       -1.841183838E+02               0
GRID*             170164               00.0000000000E+003.3427496758E+01+
*       -1.829631251E+02               0
GRID*             170165               00.0000000000E+003.3457227835E+01+
*       -1.864260518E+02               0
GRID*             170166               00.0000000000E+003.4968971430E+01+
*       -1.845119616E+02               0
GRID*             170167               00.0000000000E+003.6177601471E+01+
*       -1.829853693E+02               0
GRID*             170168               00.0000000000E+003.6391726396E+01+
*       -1.858485952E+02               0
GRID*             170169               00.0000000000E+003.5414301296E+01+
*       -1.874299939E+02               0
GRID*             170170               00.0000000000E+003.7029190235E+01+
*       -1.885279920E+02               0
GRID*             170171               00.0000000000E+003.6021390788E+01+
*       -1.901051927E+02               0
GRID*             170172               00.0000000000E+003.7524064713E+01+
*       -1.911604567E+02               0
GRID*             170173               00.0000000000E+003.6429752652E+01+
*       -1.927060263E+02               0
GRID*             170174               00.0000000000E+003.4608470932E+01+
*       -1.891718348E+02               0
GRID*             170175               00.0000000000E+003.2651397470E+01+
*       -1.881678927E+02               0
GRID*             170176               00.0000000000E+003.0999090742E+01+
*       -1.900174988E+02               0
GRID*             170177               00.0000000000E+003.2628929056E+01+
*       -1.900136225E+02               0
GRID*             170178               00.0000000000E+003.5102448414E+01+
*       -1.916282862E+02               0
GRID*             170179               00.0000000000E+003.4042451680E+01+
*       -1.930830107E+02               0
GRID*             170180               00.0000000000E+003.0760586940E+01+
*       -1.920521657E+02               0
GRID*             170181               00.0000000000E+003.1815276835E+01+
*       -1.933363749E+02               0
GRID*             170182               00.0000000000E+003.2874898455E+01+
*       -1.920292820E+02               0
GRID*             170183               00.0000000000E+003.4978487520E+01+
*       -1.814456806E+02               0
GRID*             170184               00.0000000000E+003.3648612418E+01+
*       -1.797656266E+02               0
GRID*             170185               00.0000000000E+003.4278097298E+01+
*       -1.764216054E+02               0
GRID*             170186               00.0000000000E+003.5520817444E+01+
*       -1.782373394E+02               0
GRID*             170187               00.0000000000E+003.4202925035E+01+
*       -1.729233484E+02               0
GRID*             170188               00.0000000000E+003.5856531612E+01+
*       -1.747472538E+02               0
GRID*             170189               00.0000000000E+003.5706420103E+01+
*       -1.713075534E+02               0
GRID*             170190               00.0000000000E+003.8672051622E+01+
*       -1.711375991E+02               0
GRID*             170191               00.0000000000E+003.7241236087E+01+
*       -1.728014287E+02               0
GRID*             170192               00.0000000000E+004.1520322713E+01+
*       -1.710129024E+02               0
GRID*             170193               00.0000000000E+004.0148853406E+01+
*       -1.725767148E+02               0
GRID*             170194               00.0000000000E+004.4296127699E+01+
*       -1.709598381E+02               0
GRID*             170195               00.0000000000E+004.2936404816E+01+
*       -1.724455038E+02               0
GRID*             170196               00.0000000000E+004.7031479948E+01+
*       -1.709727460E+02               0
GRID*             170197               00.0000000000E+004.5660624952E+01+
*       -1.724036134E+02               0
GRID*             170198               00.0000000000E+004.5691369467E+01+
*       -1.751941309E+02               0
GRID*             170199               00.0000000000E+004.7007022461E+01+
*       -1.737922884E+02               0
GRID*             170200               00.0000000000E+004.4344971957E+01+
*       -1.738054559E+02               0
GRID*             170201               00.0000000000E+004.5745950106E+01+
*       -1.778999651E+02               0
GRID*             170202               00.0000000000E+004.7009749555E+01+
*       -1.765390603E+02               0
GRID*             170203               00.0000000000E+004.4427570018E+01+
*       -1.765550357E+02               0
GRID*             170204               00.0000000000E+004.5766757479E+01+
*       -1.805875551E+02               0
GRID*             170205               00.0000000000E+004.7025463863E+01+
*       -1.792509303E+02               0
GRID*             170206               00.0000000000E+004.4487243722E+01+
*       -1.792365899E+02               0
GRID*             170207               00.0000000000E+004.7018187359E+01+
*       -1.820053244E+02               0
GRID*             170208               00.0000000000E+004.4437344419E+01+
*       -1.819383490E+02               0
GRID*             170209               00.0000000000E+004.2101501838E+01+
*       -1.816909929E+02               0
GRID*             170210               00.0000000000E+004.3297323448E+01+
*       -1.805205631E+02               0
GRID*             170211               00.0000000000E+003.9810955973E+01+
*       -1.816968485E+02               0
GRID*             170212               00.0000000000E+004.0984422442E+01+
*       -1.829177281E+02               0
GRID*             170213               00.0000000000E+004.0928035368E+01+
*       -1.804701133E+02               0
GRID*             170214               00.0000000000E+003.7469153645E+01+
*       -1.817083997E+02               0
GRID*             170215               00.0000000000E+003.8612323946E+01+
*       -1.804449679E+02               0
GRID*             170216               00.0000000000E+003.6270039694E+01+
*       -1.801687110E+02               0
GRID*             170217               00.0000000000E+004.3232446688E+01+
*       -1.779218992E+02               0
GRID*             170218               00.0000000000E+004.2042526414E+01+
*       -1.792058724E+02               0
GRID*             170219               00.0000000000E+004.0808102972E+01+
*       -1.779997835E+02               0
GRID*             170220               00.0000000000E+003.9693611927E+01+
*       -1.792640244E+02               0
GRID*             170221               00.0000000000E+003.8610640323E+01+
*       -1.781498481E+02               0
GRID*             170222               00.0000000000E+003.7529352343E+01+
*       -1.793307916E+02               0
GRID*             170223               00.0000000000E+004.1651211281E+01+
*       -1.739022069E+02               0
GRID*             170224               00.0000000000E+004.3059778422E+01+
*       -1.752621590E+02               0
GRID*             170225               00.0000000000E+004.1864655092E+01+
*       -1.766290225E+02               0
GRID*             170226               00.0000000000E+004.0379344893E+01+
*       -1.754740407E+02               0
GRID*             170227               00.0000000000E+003.9322792773E+01+
*       -1.768448018E+02               0
GRID*             170228               00.0000000000E+004.8349398125E+01+
*       -1.724341104E+02               0
GRID*             170229               00.0000000000E+004.9741327314E+01+
*       -1.710475347E+02               0
GRID*             170230               00.0000000000E+005.2435312969E+01+
*       -1.711954171E+02               0
GRID*             170231               00.0000000000E+005.1012206226E+01+
*       -1.725372709E+02               0
GRID*             170232               00.0000000000E+005.5131718596E+01+
*       -1.714413506E+02               0
GRID*             170233               00.0000000000E+005.3659009474E+01+
*       -1.727375341E+02               0
GRID*             170234               00.0000000000E+005.7880931034E+01+
*       -1.718247063E+02               0
GRID*             170235               00.0000000000E+005.6327256723E+01+
*       -1.730873737E+02               0
GRID*             170236               00.0000000000E+006.0795220309E+01+
*       -1.723609240E+02               0
GRID*             170237               00.0000000000E+005.9130030975E+01+
*       -1.736542283E+02               0
GRID*             170238               00.0000000000E+006.3914796959E+01+
*       -1.726379748E+02               0
GRID*             170239               00.0000000000E+006.2188427321E+01+
*       -1.741442675E+02               0
GRID*             170240               00.0000000000E+006.5376805413E+01+
*       -1.743508427E+02               0
GRID*             170241               00.0000000000E+006.5239174420E+01+
*       -1.777600872E+02               0
GRID*             170242               00.0000000000E+006.3685567281E+01+
*       -1.760322684E+02               0
GRID*             170243               00.0000000000E+006.5428168096E+01+
*       -1.811675923E+02               0
GRID*             170244               00.0000000000E+006.3711664632E+01+
*       -1.795186545E+02               0
GRID*             170245               00.0000000000E+006.5674802181E+01+
*       -1.844450863E+02               0
GRID*             170246               00.0000000000E+006.3994645392E+01+
*       -1.829106062E+02               0
GRID*             170247               00.0000000000E+006.5919864712E+01+
*       -1.876320307E+02               0
GRID*             170248               00.0000000000E+006.4285245573E+01+
*       -1.861538106E+02               0
GRID*             170249               00.0000000000E+006.4552297671E+01+
*       -1.893104793E+02               0
GRID*             170250               00.0000000000E+006.1598800672E+01+
*       -1.895839096E+02               0
GRID*             170251               00.0000000000E+006.2939784993E+01+
*       -1.878918381E+02               0
GRID*             170252               00.0000000000E+005.8683786885E+01+
*       -1.898936737E+02               0
GRID*             170253               00.0000000000E+005.9996249838E+01+
*       -1.882036258E+02               0
GRID*             170254               00.0000000000E+005.5807737328E+01+
*       -1.902005190E+02               0
GRID*             170255               00.0000000000E+005.7103983077E+01+
*       -1.885339256E+02               0
GRID*             170256               00.0000000000E+005.2954025383E+01+
*       -1.904853773E+02               0
GRID*             170257               00.0000000000E+005.4250213066E+01+
*       -1.888422142E+02               0
GRID*             170258               00.0000000000E+005.0103116691E+01+
*       -1.907510244E+02               0
GRID*             170259               00.0000000000E+005.1407890465E+01+
*       -1.891177028E+02               0
GRID*             170260               00.0000000000E+004.8547446306E+01+
*       -1.893742503E+02               0
GRID*             170261               00.0000000000E+004.8348493206E+01+
*       -1.863274354E+02               0
GRID*             170262               00.0000000000E+004.9889000610E+01+
*       -1.877505588E+02               0
GRID*             170263               00.0000000000E+004.8349097114E+01+
*       -1.833746439E+02               0
GRID*             170264               00.0000000000E+004.9743600730E+01+
*       -1.847990401E+02               0
GRID*             170265               00.0000000000E+004.8323615615E+01+
*       -1.805876929E+02               0
GRID*             170266               00.0000000000E+004.9654525370E+01+
*       -1.819570124E+02               0
GRID*             170267               00.0000000000E+004.8290757332E+01+
*       -1.778923923E+02               0
GRID*             170268               00.0000000000E+004.9588909084E+01+
*       -1.792291549E+02               0
GRID*             170269               00.0000000000E+004.8300404725E+01+
*       -1.751977825E+02               0
GRID*             170270               00.0000000000E+004.9581412503E+01+
*       -1.765511145E+02               0
GRID*             170271               00.0000000000E+004.9642780389E+01+
*       -1.738396044E+02               0
GRID*             170272               00.0000000000E+005.0872222774E+01+
*       -1.752608218E+02               0
GRID*             170273               00.0000000000E+005.2241648610E+01+
*       -1.739584882E+02               0
GRID*             170274               00.0000000000E+005.4797276094E+01+
*       -1.741939248E+02               0
GRID*             170275               00.0000000000E+005.3379915231E+01+
*       -1.754148789E+02               0
GRID*             170276               00.0000000000E+005.7351973810E+01+
*       -1.746704471E+02               0
GRID*             170277               00.0000000000E+005.5821993182E+01+
*       -1.757769982E+02               0
GRID*             170278               00.0000000000E+006.0175019148E+01+
*       -1.759076203E+02               0
GRID*             170279               00.0000000000E+005.8396961983E+01+
*       -1.769238391E+02               0
GRID*             170280               00.0000000000E+006.1672159108E+01+
*       -1.777956212E+02               0
GRID*             170281               00.0000000000E+006.2241268662E+01+
*       -1.814391565E+02               0
GRID*             170282               00.0000000000E+006.0201763137E+01+
*       -1.797161233E+02               0
GRID*             170283               00.0000000000E+006.2629082643E+01+
*       -1.847263197E+02               0
GRID*             170284               00.0000000000E+006.0875705913E+01+
*       -1.832548699E+02               0
GRID*             170285               00.0000000000E+006.1283622063E+01+
*       -1.864643471E+02               0
GRID*             170286               00.0000000000E+005.8364043910E+01+
*       -1.868557529E+02               0
GRID*             170287               00.0000000000E+005.9651416136E+01+
*       -1.851164742E+02               0
GRID*             170288               00.0000000000E+005.5521151659E+01+
*       -1.872140320E+02               0
GRID*             170289               00.0000000000E+005.6781212492E+01+
*       -1.855358594E+02               0
GRID*             170290               00.0000000000E+005.2710580579E+01+
*       -1.875104406E+02               0
GRID*             170291               00.0000000000E+005.3981519172E+01+
*       -1.858822584E+02               0
GRID*             170292               00.0000000000E+005.1191690724E+01+
*       -1.861432965E+02               0
GRID*             170293               00.0000000000E+005.1033223947E+01+
*       -1.832570832E+02               0
GRID*             170294               00.0000000000E+005.2481313941E+01+
*       -1.846013397E+02               0
GRID*             170295               00.0000000000E+005.0888871508E+01+
*       -1.805098663E+02               0
GRID*             170296               00.0000000000E+005.2267570085E+01+
*       -1.818099371E+02               0
GRID*             170297               00.0000000000E+005.0798135057E+01+
*       -1.778830226E+02               0
GRID*             170298               00.0000000000E+005.2098097480E+01+
*       -1.791637341E+02               0
GRID*             170299               00.0000000000E+005.2088945327E+01+
*       -1.765927299E+02               0
GRID*             170300               00.0000000000E+005.5201105733E+01+
*       -1.842986291E+02               0
GRID*             170301               00.0000000000E+005.3700900502E+01+
*       -1.830177104E+02               0
GRID*             170302               00.0000000000E+005.3400918680E+01+
*       -1.803264637E+02               0
GRID*             170303               00.0000000000E+005.4834249096E+01+
*       -1.815342369E+02               0
GRID*             170304               00.0000000000E+005.7961156031E+01+
*       -1.838561250E+02               0
GRID*             170305               00.0000000000E+005.6381049272E+01+
*       -1.826188947E+02               0
GRID*             170306               00.0000000000E+005.6541896505E+01+
*       -1.769413379E+02               0
GRID*             170307               00.0000000000E+005.6553254707E+01+
*       -1.787514019E+02               0
GRID*             170308               00.0000000000E+005.8408320185E+01+
*       -1.787339031E+02               0
GRID*             170309               00.0000000000E+005.4464379944E+01+
*       -1.790326045E+02               0
GRID*             170310               00.0000000000E+005.3161558745E+01+
*       -1.778698749E+02               0
GRID*             170311               00.0000000000E+005.4452528648E+01+
*       -1.766920239E+02               0
GRID*             170312               00.0000000000E+005.5172431972E+01+
*       -1.778563636E+02               0
GRID*             170313               00.0000000000E+008.7616207482E+01+
*       -2.138751126E+02               0
GRID*             170314               00.0000000000E+008.7960063032E+01+
*       -2.122240807E+02               0
GRID*             170315               00.0000000000E+008.6762054277E+01+
*       -2.129961379E+02               0
GRID*             170316               00.0000000000E+008.6113075650E+01+
*       -2.139576581E+02               0
GRID*             170317               00.0000000000E+008.5949552866E+01+
*       -2.120414102E+02               0
GRID*             170318               00.0000000000E+004.8533655183E+01+
*       -2.150525987E+02               0
GRID*             170319               00.0000000000E+005.1575741209E+01+
*       -2.149503418E+02               0
GRID*             170320               00.0000000000E+004.5536601226E+01+
*       -2.151379436E+02               0
GRID*             170321               00.0000000000E+004.2575993451E+01+
*       -2.152122237E+02               0
GRID*             170322               00.0000000000E+003.9644690012E+01+
*       -2.152778173E+02               0
GRID*             170323               00.0000000000E+003.6736382545E+01+
*       -2.153355246E+02               0
GRID*             170324               00.0000000000E+003.3845460485E+01+
*       -2.153852910E+02               0
GRID*             170325               00.0000000000E+003.0967752496E+01+
*       -2.154257211E+02               0
GRID*             170326               00.0000000000E+002.8102616007E+01+
*       -2.154521398E+02               0
GRID*             170327               00.0000000000E+002.5251772676E+01+
*       -2.154536480E+02               0
GRID*             170328               00.0000000000E+002.2436236703E+01+
*       -2.154039276E+02               0
GRID*             170329               00.0000000000E+001.9878653561E+01+
*       -2.151804685E+02               0
GRID*             170330               00.0000000000E+002.0859571767E+01+
*       -2.166446280E+02               0
GRID*             170331               00.0000000000E+006.6787493215E+01+
*       -2.132962589E+02               0
GRID*             170332               00.0000000000E+006.9534028865E+01+
*       -2.130173859E+02               0
GRID*             170333               00.0000000000E+006.3990371665E+01+
*       -2.137196180E+02               0
GRID*             170334               00.0000000000E+006.1017016895E+01+
*       -2.143059580E+02               0
GRID*             170335               00.0000000000E+005.7830992274E+01+
*       -2.146256911E+02               0
GRID*             170336               00.0000000000E+005.4672880272E+01+
*       -2.148179404E+02               0
GRID*             170337               00.0000000000E+007.5014544137E+01+
*       -2.127226373E+02               0
GRID*             170338               00.0000000000E+007.7726818100E+01+
*       -2.126712729E+02               0
GRID*             170339               00.0000000000E+007.2276284288E+01+
*       -2.128362043E+02               0
GRID*             170340               00.0000000000E+008.0384965234E+01+
*       -2.127170468E+02               0
GRID*             170341               00.0000000000E+008.3001390454E+01+
*       -2.129880401E+02               0
GRID*             170342               00.0000000000E+008.4545745975E+01+
*       -2.139633021E+02               0
GRID*             170343               00.0000000000E+008.5277491806E+01+
*       -2.130476364E+02               0
GRID*             170344               00.0000000000E+008.3903900188E+01+
*       -2.123538288E+02               0
GRID*             170345               00.0000000000E+005.3403099076E+01+
*       -1.177444224E+02               0
GRID*             170346               00.0000000000E+005.1863498605E+01+
*       -1.193533250E+02               0
GRID*             170347               00.0000000000E+005.3458426179E+01+
*       -1.208715757E+02               0
GRID*             170348               00.0000000000E+005.4998026649E+01+
*       -1.192626731E+02               0
GRID*             170349               00.0000000000E+005.8269279488E+01+
*       -1.191115926E+02               0
GRID*             170350               00.0000000000E+005.6550247931E+01+
*       -1.175661486E+02               0
GRID*             170351               00.0000000000E+005.6717058206E+01+
*       -1.208081171E+02               0
GRID*             170352               00.0000000000E+006.1854156585E+01+
*       -1.188380819E+02               0
GRID*             170353               00.0000000000E+005.9771573918E+01+
*       -1.172470794E+02               0
GRID*             170354               00.0000000000E+006.0351862154E+01+
*       -1.207025952E+02               0
GRID*             170355               00.0000000000E+006.4708187882E+01+
*       -1.174788970E+02               0
GRID*             170356               00.0000000000E+006.2865345225E+01+
*       -1.166205999E+02               0
GRID*             170357               00.0000000000E+006.3696999242E+01+
*       -1.196963790E+02               0
GRID*             170358               00.0000000000E+006.7278524749E+01+
*       -1.168939093E+02               0
GRID*             170359               00.0000000000E+006.5687899871E+01+
*       -1.159168118E+02               0
GRID*             170360               00.0000000000E+006.6298812759E+01+
*       -1.184559944E+02               0
GRID*             170361               00.0000000000E+006.9880865894E+01+
*       -1.165287350E+02               0
GRID*             170362               00.0000000000E+006.8382005193E+01+
*       -1.154356050E+02               0
GRID*             170363               00.0000000000E+006.8777385450E+01+
*       -1.179870393E+02               0
GRID*             170364               00.0000000000E+007.2549308618E+01+
*       -1.162477696E+02               0
GRID*             170365               00.0000000000E+007.1071134903E+01+
*       -1.150891628E+02               0
GRID*             170366               00.0000000000E+007.1359039609E+01+
*       -1.176873418E+02               0
GRID*             170367               00.0000000000E+007.5251644930E+01+
*       -1.159956745E+02               0
GRID*             170368               00.0000000000E+007.3776008047E+01+
*       -1.148155299E+02               0
GRID*             170369               00.0000000000E+007.4024945500E+01+
*       -1.174279142E+02               0
GRID*             170370               00.0000000000E+007.7923404096E+01+
*       -1.157560326E+02               0
GRID*             170371               00.0000000000E+007.6468210726E+01+
*       -1.145916496E+02               0
GRID*             170372               00.0000000000E+007.6706838299E+01+
*       -1.171600575E+02               0
GRID*             170373               00.0000000000E+008.0455121799E+01+
*       -1.155653605E+02               0
GRID*             170374               00.0000000000E+007.9089027909E+01+
*       -1.144401478E+02               0
GRID*             170375               00.0000000000E+007.9289497986E+01+
*       -1.168812454E+02               0
GRID*             170376               00.0000000000E+008.1552504220E+01+
*       -1.144608451E+02               0
GRID*             170377               00.0000000000E+008.1682812419E+01+
*       -1.167262946E+02               0
GRID*             170378               00.0000000000E+008.1922034816E+01+
*       -1.187055723E+02               0
GRID*             170379               00.0000000000E+008.0696652375E+01+
*       -1.177967677E+02               0
GRID*             170380               00.0000000000E+008.2287056304E+01+
*       -1.204510171E+02               0
GRID*             170381               00.0000000000E+008.1114340123E+01+
*       -1.197624080E+02               0
GRID*             170382               00.0000000000E+008.2789167185E+01+
*       -1.218183545E+02               0
GRID*             170383               00.0000000000E+008.1761209246E+01+
*       -1.212835803E+02               0
GRID*             170384               00.0000000000E+008.2339797800E+01+
*       -1.233528200E+02               0
GRID*             170385               00.0000000000E+008.1779930067E+01+
*       -1.226146942E+02               0
GRID*             170386               00.0000000000E+008.1186375969E+01+
*       -1.244846311E+02               0
GRID*             170387               00.0000000000E+007.8765830549E+01+
*       -1.238927172E+02               0
GRID*             170388               00.0000000000E+008.0256546933E+01+
*       -1.228282897E+02               0
GRID*             170389               00.0000000000E+007.5671816665E+01+
*       -1.240902640E+02               0
GRID*             170390               00.0000000000E+007.7439006460E+01+
*       -1.224886998E+02               0
GRID*             170391               00.0000000000E+007.2810224888E+01+
*       -1.241836321E+02               0
GRID*             170392               00.0000000000E+007.4330776076E+01+
*       -1.227325413E+02               0
GRID*             170393               00.0000000000E+007.0068448940E+01+
*       -1.241780122E+02               0
GRID*             170394               00.0000000000E+007.1531888095E+01+
*       -1.228269775E+02               0
GRID*             170395               00.0000000000E+006.7420417813E+01+
*       -1.240317563E+02               0
GRID*             170396               00.0000000000E+006.8896423737E+01+
*       -1.227881139E+02               0
GRID*             170397               00.0000000000E+006.4802536071E+01+
*       -1.236240876E+02               0
GRID*             170398               00.0000000000E+006.6381029127E+01+
*       -1.225135068E+02               0
GRID*             170399               00.0000000000E+006.1885184015E+01+
*       -1.224813185E+02               0
GRID*             170400               00.0000000000E+006.3728723016E+01+
*       -1.214661775E+02               0
GRID*             170401               00.0000000000E+005.8281215004E+01+
*       -1.224432153E+02               0
GRID*             170402               00.0000000000E+005.4995622558E+01+
*       -1.224442264E+02               0
GRID*             170403               00.0000000000E+005.1845188934E+01+
*       -1.224496211E+02               0
GRID*             170404               00.0000000000E+007.8222003605E+01+
*       -1.182728096E+02               0
GRID*             170405               00.0000000000E+007.9629157994E+01+
*       -1.191883319E+02               0
GRID*             170406               00.0000000000E+008.0237826112E+01+
*       -1.214971759E+02               0
GRID*             170407               00.0000000000E+007.8752643983E+01+
*       -1.209230998E+02               0
GRID*             170408               00.0000000000E+006.5602899216E+01+
*       -1.196216081E+02               0
GRID*             170409               00.0000000000E+006.5634622990E+01+
*       -1.213914066E+02               0
GRID*             170410               00.0000000000E+006.7013677929E+01+
*       -1.204551808E+02               0
GRID*             170411               00.0000000000E+006.7709591473E+01+
*       -1.192895671E+02               0
GRID*             170412               00.0000000000E+006.7760084067E+01+
*       -1.215772810E+02               0
GRID*             170413               00.0000000000E+007.0212623534E+01+
*       -1.215791857E+02               0
GRID*             170414               00.0000000000E+006.9076283864E+01+
*       -1.203683528E+02               0
GRID*             170415               00.0000000000E+007.0144077841E+01+
*       -1.190658250E+02               0
GRID*             170416               00.0000000000E+007.1552143823E+01+
*       -1.202319761E+02               0
GRID*             170417               00.0000000000E+007.2767105590E+01+
*       -1.188534928E+02               0
GRID*             170418               00.0000000000E+007.4230713296E+01+
*       -1.200308557E+02               0
GRID*             170419               00.0000000000E+007.5488553206E+01+
*       -1.186052771E+02               0
GRID*             170420               00.0000000000E+007.7003718511E+01+
*       -1.197180292E+02               0
GRID*             170421               00.0000000000E+007.5690080988E+01+
*       -1.212836292E+02               0
GRID*             170422               00.0000000000E+007.2871408383E+01+
*       -1.214797679E+02               0
GRID*             170423               00.0000000000E+003.0817147448E+01+
*       -1.220247316E+02               0
GRID*             170424               00.0000000000E+002.9400472051E+01+
*       -1.205140232E+02               0
GRID*             170425               00.0000000000E+002.7819707482E+01+
*       -1.218724978E+02               0
GRID*             170426               00.0000000000E+002.6349605925E+01+
*       -1.203638424E+02               0
GRID*             170427               00.0000000000E+002.4762031517E+01+
*       -1.217058411E+02               0
GRID*             170428               00.0000000000E+002.3022561197E+01+
*       -1.202005128E+02               0
GRID*             170429               00.0000000000E+002.1497197445E+01+
*       -1.215660449E+02               0
GRID*             170430               00.0000000000E+001.8972748165E+01+
*       -1.222849812E+02               0
GRID*             170431               00.0000000000E+001.7806503151E+01+
*       -1.214317997E+02               0
GRID*             170432               00.0000000000E+001.7355235323E+01+
*       -1.200077082E+02               0
GRID*             170433               00.0000000000E+001.8386868743E+01+
*       -1.206769920E+02               0
GRID*             170434               00.0000000000E+003.0999281550E+01+
*       -1.191542650E+02               0
GRID*             170435               00.0000000000E+002.9630048684E+01+
*       -1.176643718E+02               0
GRID*             170436               00.0000000000E+002.8031239185E+01+
*       -1.190241300E+02               0
GRID*             170437               00.0000000000E+002.6681542879E+01+
*       -1.175244348E+02               0
GRID*             170438               00.0000000000E+002.4999909619E+01+
*       -1.188641471E+02               0
GRID*             170439               00.0000000000E+002.3721890661E+01+
*       -1.173265439E+02               0
GRID*             170440               00.0000000000E+002.1744542240E+01+
*       -1.186629096E+02               0
GRID*             170441               00.0000000000E+001.8464274607E+01+
*       -1.193726123E+02               0
GRID*             170442               00.0000000000E+001.7929197268E+01+
*       -1.185825518E+02               0
GRID*             170443               00.0000000000E+001.8490025388E+01+
*       -1.166355098E+02               0
GRID*             170444               00.0000000000E+001.9279322352E+01+
*       -1.177176187E+02               0
GRID*             170445               00.0000000000E+003.2385579492E+01+
*       -1.206417081E+02               0
GRID*             170446               00.0000000000E+003.3951872908E+01+
*       -1.192580111E+02               0
GRID*             170447               00.0000000000E+003.2565574967E+01+
*       -1.177705680E+02               0
GRID*             170448               00.0000000000E+003.5354112527E+01+
*       -1.207448270E+02               0
GRID*             170449               00.0000000000E+003.6898721284E+01+
*       -1.193369919E+02               0
GRID*             170450               00.0000000000E+003.5496481665E+01+
*       -1.178501760E+02               0
GRID*             170451               00.0000000000E+003.8318594326E+01+
*       -1.208236970E+02               0
GRID*             170452               00.0000000000E+003.9849182188E+01+
*       -1.193916352E+02               0
GRID*             170453               00.0000000000E+003.8429309146E+01+
*       -1.179049301E+02               0
GRID*             170454               00.0000000000E+004.1289253234E+01+
*       -1.208789625E+02               0
GRID*             170455               00.0000000000E+004.2811063532E+01+
*       -1.194218723E+02               0
GRID*             170456               00.0000000000E+004.1370992486E+01+
*       -1.179345450E+02               0
GRID*             170457               00.0000000000E+004.4274896588E+01+
*       -1.209113054E+02               0
GRID*             170458               00.0000000000E+004.5792685792E+01+
*       -1.194270731E+02               0
GRID*             170459               00.0000000000E+004.4328852735E+01+
*       -1.179376400E+02               0
GRID*             170460               00.0000000000E+004.7285915584E+01+
*       -1.209211834E+02               0
GRID*             170461               00.0000000000E+004.8804780722E+01+
*       -1.194056124E+02               0
GRID*             170462               00.0000000000E+004.7311550929E+01+
*       -1.179115021E+02               0
GRID*             170463               00.0000000000E+005.0337570518E+01+
*       -1.209081579E+02               0
GRID*             170464               00.0000000000E+005.0330708808E+01+
*       -1.178507794E+02               0
GRID*             170465               00.0000000000E+004.8768589121E+01+
*       -1.224463695E+02               0
GRID*             170466               00.0000000000E+004.5736789973E+01+
*       -1.224277523E+02               0
GRID*             170467               00.0000000000E+004.2733695942E+01+
*       -1.223911444E+02               0
GRID*             170468               00.0000000000E+003.9748493557E+01+
*       -1.223343374E+02               0
GRID*             170469               00.0000000000E+003.6772739101E+01+
*       -1.222554176E+02               0
GRID*             170470               00.0000000000E+003.3798626350E+01+
*       -1.221526248E+02               0
GRID*             170471               00.0000000000E+002.0843867500E+01+
*       -1.408065155E+01               0
GRID*             170472               00.0000000000E+001.8251386400E+01+
*       -1.364067128E+01               0
GRID*             170473               00.0000000000E+001.9500599845E+01+
*       -1.513697311E+01               0
GRID*             170474               00.0000000000E+001.8813551655E+01+
*       -1.657866847E+01               0
GRID*             170475               00.0000000000E+001.8083107529E+01+
*       -1.734152748E+01               0
GRID*             170476               00.0000000000E+001.9580446415E+01+
*       -1.738713954E+01               0
GRID*             170477               00.0000000000E+002.0138881160E+01+
*       -1.605816439E+01               0
GRID*             170478               00.0000000000E+001.8175270340E+01+
*       -1.565747719E+01               0
GRID*             170479               00.0000000000E+002.0908437034E+01+
*       -1.682102411E+01               0
GRID*             170480               00.0000000000E+001.5781231330E+01+
*       -1.370546938E+01               0
GRID*             170481               00.0000000000E+001.7184188995E+01+
*       -1.478532380E+01               0
GRID*             170482               00.0000000000E+001.6227021642E+01+
*       -1.567585896E+01               0
GRID*             170483               00.0000000000E+001.7218102988E+01+
*       -1.654801235E+01               0
GRID*             170484               00.0000000000E+001.6484996317E+01+
*       -1.735648306E+01               0
GRID*             170485               00.0000000000E+001.5527689267E+01+
*       -1.667853123E+01               0
GRID*             170486               00.0000000000E+001.4892690948E+01+
*       -1.747204636E+01               0
GRID*             170487               00.0000000000E+001.3939479140E+01+
*       -1.705321824E+01               0
GRID*             170488               00.0000000000E+001.3396784044E+01+
*       -1.773117007E+01               0
GRID*             170489               00.0000000000E+002.2971391970E+01+
*       -1.675134287E+01               0
GRID*             170490               00.0000000000E+002.2029826716E+01+
*       -1.542236736E+01               0
GRID*             170491               00.0000000000E+002.3582268254E+01+
*       -1.400334266E+01               0
GRID*             170492               00.0000000000E+008.1938431991E+01+
*       -1.379666266E+01               0
GRID*             170493               00.0000000000E+007.9024690636E+01+
*       -1.345007142E+01               0
GRID*             170494               00.0000000000E+008.0507043505E+01+
*       -1.482486181E+01               0
GRID*             170495               00.0000000000E+007.9830855333E+01+
*       -1.656798802E+01               0
GRID*             170496               00.0000000000E+007.8917342054E+01+
*       -1.730312092E+01               0
GRID*             170497               00.0000000000E+008.0563514805E+01+
*       -1.741486671E+01               0
GRID*             170498               00.0000000000E+008.1337293651E+01+
*       -1.588556777E+01               0
GRID*             170499               00.0000000000E+007.9000605187E+01+
*       -1.550728205E+01               0
GRID*             170500               00.0000000000E+007.7973358047E+01+
*       -1.644483017E+01               0
GRID*             170501               00.0000000000E+007.7206017519E+01+
*       -1.729170887E+01               0
GRID*             170502               00.0000000000E+007.7764325695E+01+
*       -1.458057195E+01               0
GRID*             170503               00.0000000000E+007.6737078556E+01+
*       -1.551812007E+01               0
GRID*             170504               00.0000000000E+007.6277030848E+01+
*       -1.349391603E+01               0
GRID*             170505               00.0000000000E+007.6506791455E+01+
*       -2.131487751E+01               0
GRID*             170506               00.0000000000E+007.6336924142E+01+
*       -1.976435434E+01               0
GRID*             170507               00.0000000000E+007.5443714071E+01+
*       -2.067923223E+01               0
GRID*             170508               00.0000000000E+007.6826156278E+01+
*       -2.266340005E+01               0
GRID*             170509               00.0000000000E+007.5932946207E+01+
*       -2.207827794E+01               0
GRID*             170510               00.0000000000E+007.6478605916E+01+
*       -2.402619638E+01               0
GRID*             170511               00.0000000000E+007.5904760668E+01+
*       -2.328959680E+01               0
GRID*             170512               00.0000000000E+007.6226149337E+01+
*       -2.563263708E+01               0
GRID*             170513               00.0000000000E+007.5304753727E+01+
*       -2.475883384E+01               0
GRID*             170514               00.0000000000E+007.6027601281E+01+
*       -2.738158280E+01               0
GRID*             170515               00.0000000000E+007.4853749092E+01+
*       -2.661422027E+01               0
GRID*             170516               00.0000000000E+007.2148100696E+01+
*       -2.648949129E+01               0
GRID*             170517               00.0000000000E+007.3285588955E+01+
*       -2.764779333E+01               0
GRID*             170518               00.0000000000E+007.3716260833E+01+
*       -2.545591822E+01               0
GRID*             170519               00.0000000000E+006.9159546444E+01+
*       -2.655955422E+01               0
GRID*             170520               00.0000000000E+007.0471062074E+01+
*       -2.773602224E+01               0
GRID*             170521               00.0000000000E+007.0836585066E+01+
*       -2.531302328E+01               0
GRID*             170522               00.0000000000E+006.6166247280E+01+
*       -2.666384763E+01               0
GRID*             170523               00.0000000000E+006.7556057698E+01+
*       -2.785117871E+01               0
GRID*             170524               00.0000000000E+006.7769736027E+01+
*       -2.537222315E+01               0
GRID*             170525               00.0000000000E+006.3166928781E+01+
*       -2.676578506E+01               0
GRID*             170526               00.0000000000E+006.4599857733E+01+
*       -2.797150525E+01               0
GRID*             170527               00.0000000000E+006.4733318328E+01+
*       -2.545812745E+01               0
GRID*             170528               00.0000000000E+006.0155278677E+01+
*       -2.685415066E+01               0
GRID*             170529               00.0000000000E+006.1615074159E+01+
*       -2.808069356E+01               0
GRID*             170530               00.0000000000E+006.1707133298E+01+
*       -2.553924217E+01               0
GRID*             170531               00.0000000000E+005.7128718248E+01+
*       -2.692375965E+01               0
GRID*             170532               00.0000000000E+005.8607101412E+01+
*       -2.817067377E+01               0
GRID*             170533               00.0000000000E+005.8676895512E+01+
*       -2.560723654E+01               0
GRID*             170534               00.0000000000E+005.4086239837E+01+
*       -2.697243709E+01               0
GRID*             170535               00.0000000000E+005.5578981208E+01+
*       -2.823809067E+01               0
GRID*             170536               00.0000000000E+005.5635976876E+01+
*       -2.565810607E+01               0
GRID*             170537               00.0000000000E+005.1027054706E+01+
*       -2.699991546E+01               0
GRID*             170538               00.0000000000E+005.2532277206E+01+
*       -2.828212637E+01               0
GRID*             170539               00.0000000000E+005.2581017336E+01+
*       -2.569022618E+01               0
GRID*             170540               00.0000000000E+004.7949967994E+01+
*       -2.700810893E+01               0
GRID*             170541               00.0000000000E+004.9467344360E+01+
*       -2.830334532E+01               0
GRID*             170542               00.0000000000E+004.9509678340E+01+
*       -2.570467908E+01               0
GRID*             170543               00.0000000000E+004.4852146421E+01+
*       -2.699512746E+01               0
GRID*             170544               00.0000000000E+004.6383257797E+01+
*       -2.830176176E+01               0
GRID*             170545               00.0000000000E+004.6418856618E+01+
*       -2.570147464E+01               0
GRID*             170546               00.0000000000E+004.1728411400E+01+
*       -2.695925392E+01               0
GRID*             170547               00.0000000000E+004.3277490595E+01+
*       -2.827609778E+01               0
GRID*             170548               00.0000000000E+004.3303067226E+01+
*       -2.567828360E+01               0
GRID*             170549               00.0000000000E+003.8568269284E+01+
*       -2.689896969E+01               0
GRID*             170550               00.0000000000E+004.0144850039E+01+
*       -2.822470322E+01               0
GRID*             170551               00.0000000000E+004.0151830645E+01+
*       -2.563352039E+01               0
GRID*             170552               00.0000000000E+003.5351072134E+01+
*       -2.681339738E+01               0
GRID*             170553               00.0000000000E+003.6975502865E+01+
*       -2.814584205E+01               0
GRID*             170554               00.0000000000E+003.6943838553E+01+
*       -2.556652502E+01               0
GRID*             170555               00.0000000000E+003.2041481973E+01+
*       -2.670496508E+01               0
GRID*             170556               00.0000000000E+003.3755203996E+01+
*       -2.803826640E+01               0
GRID*             170557               00.0000000000E+003.3637350112E+01+
*       -2.548009606E+01               0
GRID*             170558               00.0000000000E+002.8598927663E+01+
*       -2.659557888E+01               0
GRID*             170559               00.0000000000E+003.0478624008E+01+
*       -2.790372977E+01               0
GRID*             170560               00.0000000000E+003.0161785628E+01+
*       -2.539681419E+01               0
GRID*             170561               00.0000000000E+002.5452434813E+01+
*       -2.669036853E+01               0
GRID*             170562               00.0000000000E+002.7248793113E+01+
*       -2.776650898E+01               0
GRID*             170563               00.0000000000E+002.6802569363E+01+
*       -2.551943843E+01               0
GRID*             170564               00.0000000000E+002.4135341185E+01+
*       -2.742637961E+01               0
GRID*             170565               00.0000000000E+002.3917095917E+01+
*       -2.566398854E+01               0
GRID*             170566               00.0000000000E+002.3627031090E+01+
*       -2.405102959E+01               0
GRID*             170567               00.0000000000E+002.4944124718E+01+
*       -2.481501851E+01               0
GRID*             170568               00.0000000000E+002.3243661836E+01+
*       -2.265956534E+01               0
GRID*             170569               00.0000000000E+002.4270690637E+01+
*       -2.331059531E+01               0
GRID*             170570               00.0000000000E+002.3641676126E+01+
*       -2.128251302E+01               0
GRID*             170571               00.0000000000E+002.4285335673E+01+
*       -2.204207874E+01               0
GRID*             170572               00.0000000000E+002.3956733543E+01+
*       -1.967234658E+01               0
GRID*             170573               00.0000000000E+002.4998407380E+01+
*       -2.055485998E+01               0
GRID*             170574               00.0000000000E+002.4217071566E+01+
*       -1.788876699E+01               0
GRID*             170575               00.0000000000E+002.5573802820E+01+
*       -1.866111395E+01               0
GRID*             170576               00.0000000000E+002.4863874846E+01+
*       -1.525932637E+01               0
GRID*             170577               00.0000000000E+002.6109554442E+01+
*       -1.639675050E+01               0
GRID*             170578               00.0000000000E+002.6609914708E+01+
*       -1.388387675E+01               0
GRID*             170579               00.0000000000E+002.9713066732E+01+
*       -1.388446370E+01               0
GRID*             170580               00.0000000000E+002.7950943674E+01+
*       -1.516794124E+01               0
GRID*             170581               00.0000000000E+003.2856021151E+01+
*       -1.390354280E+01               0
GRID*             170582               00.0000000000E+003.1110099786E+01+
*       -1.518362811E+01               0
GRID*             170583               00.0000000000E+003.5988599043E+01+
*       -1.392494014E+01               0
GRID*             170584               00.0000000000E+003.4287672325E+01+
*       -1.521208869E+01               0
GRID*             170585               00.0000000000E+003.9099660121E+01+
*       -1.394330611E+01               0
GRID*             170586               00.0000000000E+003.7440775799E+01+
*       -1.523928699E+01               0
GRID*             170587               00.0000000000E+004.2190978320E+01+
*       -1.395706797E+01               0
GRID*             170588               00.0000000000E+004.0564379131E+01+
*       -1.526098508E+01               0
GRID*             170589               00.0000000000E+004.5267056033E+01+
*       -1.396589197E+01               0
GRID*             170590               00.0000000000E+004.3663745904E+01+
*       -1.527611926E+01               0
GRID*             170591               00.0000000000E+004.8332031954E+01+
*       -1.397005806E+01               0
GRID*             170592               00.0000000000E+004.6745212694E+01+
*       -1.528472927E+01               0
GRID*             170593               00.0000000000E+005.1389286562E+01+
*       -1.397039720E+01               0
GRID*             170594               00.0000000000E+004.9814021477E+01+
*       -1.528756642E+01               0
GRID*             170595               00.0000000000E+005.4441838993E+01+
*       -1.396815258E+01               0
GRID*             170596               00.0000000000E+005.2874504541E+01+
*       -1.528605421E+01               0
GRID*             170597               00.0000000000E+005.7492662670E+01+
*       -1.396354634E+01               0
GRID*             170598               00.0000000000E+005.5930595853E+01+
*       -1.528114571E+01               0
GRID*             170599               00.0000000000E+006.0546267163E+01+
*       -1.395738898E+01               0
GRID*             170600               00.0000000000E+005.8987052864E+01+
*       -1.527341068E+01               0
GRID*             170601               00.0000000000E+006.3610636931E+01+
*       -1.395149675E+01               0
GRID*             170602               00.0000000000E+006.2051684285E+01+
*       -1.526457964E+01               0
GRID*             170603               00.0000000000E+006.6701728052E+01+
*       -1.394902414E+01               0
GRID*             170604               00.0000000000E+006.5139487772E+01+
*       -1.525839910E+01               0
GRID*             170605               00.0000000000E+006.9858523013E+01+
*       -1.395551306E+01               0
GRID*             170606               00.0000000000E+006.8287800707E+01+
*       -1.526331239E+01               0
GRID*             170607               00.0000000000E+007.3218596133E+01+
*       -1.399398304E+01               0
GRID*             170608               00.0000000000E+007.1645298641E+01+
*       -1.531742847E+01               0
GRID*             170609               00.0000000000E+007.4934405611E+01+
*       -1.498382591E+01               0
GRID*             170610               00.0000000000E+007.6034994883E+01+
*       -1.651307634E+01               0
GRID*             170611               00.0000000000E+007.4232321938E+01+
*       -1.597878217E+01               0
GRID*             170612               00.0000000000E+006.9443136721E+01+
*       -2.407708707E+01               0
GRID*             170613               00.0000000000E+006.8002970068E+01+
*       -2.286466762E+01               0
GRID*             170614               00.0000000000E+006.6329569374E+01+
*       -2.415980369E+01               0
GRID*             170615               00.0000000000E+006.9627675881E+01+
*       -2.157175889E+01               0
GRID*             170616               00.0000000000E+006.8094023054E+01+
*       -2.034852802E+01               0
GRID*             170617               00.0000000000E+006.6469317240E+01+
*       -2.164143674E+01               0
GRID*             170618               00.0000000000E+006.9702171549E+01+
*       -1.907130378E+01               0
GRID*             170619               00.0000000000E+006.8179343528E+01+
*       -1.782719186E+01               0
GRID*             170620               00.0000000000E+006.6571195032E+01+
*       -1.910441609E+01               0
GRID*             170621               00.0000000000E+006.9813114411E+01+
*       -1.654690322E+01               0
GRID*             170622               00.0000000000E+006.6654029823E+01+
*       -1.654360103E+01               0
GRID*             170623               00.0000000000E+007.1269618399E+01+
*       -1.784992831E+01               0
GRID*             170624               00.0000000000E+007.3101802629E+01+
*       -1.662045356E+01               0
GRID*             170625               00.0000000000E+007.5092941394E+01+
*       -1.738956947E+01               0
GRID*             170626               00.0000000000E+007.3962422085E+01+
*       -1.803124086E+01               0
GRID*             170627               00.0000000000E+007.1216652309E+01+
*       -2.027180807E+01               0
GRID*             170628               00.0000000000E+007.2784099158E+01+
*       -1.905043260E+01               0
GRID*             170629               00.0000000000E+007.4022563719E+01+
*       -2.005174846E+01               0
GRID*             170630               00.0000000000E+007.5200886646E+01+
*       -1.903255672E+01               0
GRID*             170631               00.0000000000E+007.2794414738E+01+
*       -2.401806942E+01               0
GRID*             170632               00.0000000000E+007.1400966393E+01+
*       -2.278213321E+01               0
GRID*             170633               00.0000000000E+007.2989942820E+01+
*       -2.148218239E+01               0
GRID*             170634               00.0000000000E+007.4411093172E+01+
*       -2.210966617E+01               0
GRID*             170635               00.0000000000E+007.4382907633E+01+
*       -2.332098504E+01               0
GRID*             170636               00.0000000000E+006.3553192844E+01+
*       -1.655281533E+01               0
GRID*             170637               00.0000000000E+006.5067734895E+01+
*       -1.783801727E+01               0
GRID*             170638               00.0000000000E+006.3476577808E+01+
*       -1.913149879E+01               0
GRID*             170639               00.0000000000E+006.4980037945E+01+
*       -2.039789761E+01               0
GRID*             170640               00.0000000000E+006.3383905162E+01+
*       -2.169238487E+01               0
GRID*             170641               00.0000000000E+006.4873184457E+01+
*       -2.293592400E+01               0
GRID*             170642               00.0000000000E+006.3276933410E+01+
*       -2.423424775E+01               0
GRID*             170643               00.0000000000E+006.0481036443E+01+
*       -1.656704958E+01               0
GRID*             170644               00.0000000000E+006.1982545001E+01+
*       -1.785528528E+01               0
GRID*             170645               00.0000000000E+006.0406416226E+01+
*       -1.915916416E+01               0
GRID*             170646               00.0000000000E+006.1900449033E+01+
*       -2.043537767E+01               0
GRID*             170647               00.0000000000E+006.0323976970E+01+
*       -2.173739999E+01               0
GRID*             170648               00.0000000000E+006.1807433099E+01+
*       -2.299440718E+01               0
GRID*             170649               00.0000000000E+006.0237632987E+01+
*       -2.429940160E+01               0
GRID*             170650               00.0000000000E+005.7421252853E+01+
*       -1.658030902E+01               0
GRID*             170651               00.0000000000E+005.8915236432E+01+
*       -1.787394793E+01               0
GRID*             170652               00.0000000000E+005.7346497850E+01+
*       -1.918236089E+01               0
GRID*             170653               00.0000000000E+005.8837677644E+01+
*       -2.046757713E+01               0
GRID*             170654               00.0000000000E+005.7270252402E+01+
*       -2.177329608E+01               0
GRID*             170655               00.0000000000E+005.8756551728E+01+
*       -2.304311893E+01               0
GRID*             170656               00.0000000000E+005.7195814254E+01+
*       -2.435095388E+01               0
GRID*             170657               00.0000000000E+005.4363992457E+01+
*       -1.658978878E+01               0
GRID*             170658               00.0000000000E+005.5854649457E+01+
*       -1.788895209E+01               0
GRID*             170659               00.0000000000E+005.4286751167E+01+
*       -1.919804623E+01               0
GRID*             170660               00.0000000000E+005.5778599560E+01+
*       -2.049145503E+01               0
GRID*             170661               00.0000000000E+005.4212635879E+01+
*       -2.179711567E+01               0
GRID*             170662               00.0000000000E+005.5704288721E+01+
*       -2.307895671E+01               0
GRID*             170663               00.0000000000E+005.4144451344E+01+
*       -2.438610891E+01               0
GRID*             170664               00.0000000000E+002.9284308943E+01+
*       -1.643402184E+01               0
GRID*             170665               00.0000000000E+002.7442919710E+01+
*       -1.766283110E+01               0
GRID*             170666               00.0000000000E+002.6893788801E+01+
*       -1.993484951E+01               0
GRID*             170667               00.0000000000E+002.8762905691E+01+
*       -1.893656665E+01               0
GRID*             170668               00.0000000000E+003.0717450283E+01+
*       -1.772873724E+01               0
GRID*             170669               00.0000000000E+003.2543241126E+01+
*       -1.647834351E+01               0
GRID*             170670               00.0000000000E+003.5759057496E+01+
*       -1.651858250E+01               0
GRID*             170671               00.0000000000E+003.4014626298E+01+
*       -1.778483733E+01               0
GRID*             170672               00.0000000000E+003.8925005820E+01+
*       -1.655079951E+01               0
GRID*             170673               00.0000000000E+003.7243287517E+01+
*       -1.783009503E+01               0
GRID*             170674               00.0000000000E+004.2052465979E+01+
*       -1.657421512E+01               0
GRID*             170675               00.0000000000E+004.0413092668E+01+
*       -1.786402956E+01               0
GRID*             170676               00.0000000000E+004.5152836230E+01+
*       -1.658886790E+01               0
GRID*             170677               00.0000000000E+004.3541556306E+01+
*       -1.788696376E+01               0
GRID*             170678               00.0000000000E+004.8234410617E+01+
*       -1.659527475E+01               0
GRID*             170679               00.0000000000E+004.6642034153E+01+
*       -1.789941337E+01               0
GRID*             170680               00.0000000000E+005.1303095198E+01+
*       -1.659466496E+01               0
GRID*             170681               00.0000000000E+004.9723484338E+01+
*       -1.790237328E+01               0
GRID*             170682               00.0000000000E+005.2792583113E+01+
*       -1.789839953E+01               0
GRID*             170683               00.0000000000E+005.2714616605E+01+
*       -2.050435799E+01               0
GRID*             170684               00.0000000000E+005.1220448552E+01+
*       -1.920471129E+01               0
GRID*             170685               00.0000000000E+005.2642994583E+01+
*       -2.309911312E+01               0
GRID*             170686               00.0000000000E+005.1144975310E+01+
*       -2.180635544E+01               0
GRID*             170687               00.0000000000E+005.1079560576E+01+
*       -2.440323039E+01               0
GRID*             170688               00.0000000000E+004.7998360433E+01+
*       -2.440852396E+01               0
GRID*             170689               00.0000000000E+004.9568242669E+01+
*       -2.310707528E+01               0
GRID*             170690               00.0000000000E+004.4895704865E+01+
*       -2.439656678E+01               0
GRID*             170691               00.0000000000E+004.6475208680E+01+
*       -2.310361611E+01               0
GRID*             170692               00.0000000000E+004.1763414803E+01+
*       -2.436540542E+01               0
GRID*             170693               00.0000000000E+004.3356052442E+01+
*       -2.308368860E+01               0
GRID*             170694               00.0000000000E+003.8585183944E+01+
*       -2.431384749E+01               0
GRID*             170695               00.0000000000E+004.0196768103E+01+
*       -2.304573252E+01               0
GRID*             170696               00.0000000000E+003.5325744139E+01+
*       -2.424139930E+01               0
GRID*             170697               00.0000000000E+003.6967089530E+01+
*       -2.298872176E+01               0
GRID*             170698               00.0000000000E+003.1898606800E+01+
*       -2.415020176E+01               0
GRID*             170699               00.0000000000E+003.3587000827E+01+
*       -2.291150500E+01               0
GRID*             170700               00.0000000000E+002.7974408517E+01+
*       -2.405796767E+01               0
GRID*             170701               00.0000000000E+002.9711229689E+01+
*       -2.281135524E+01               0
GRID*             170702               00.0000000000E+003.0272846396E+01+
*       -2.023927120E+01               0
GRID*             170703               00.0000000000E+002.8025990330E+01+
*       -2.146502071E+01               0
GRID*             170704               00.0000000000E+003.1958085755E+01+
*       -2.158560573E+01               0
GRID*             170705               00.0000000000E+003.2227390987E+01+
*       -1.903144178E+01               0
GRID*             170706               00.0000000000E+003.3761234893E+01+
*       -2.034178630E+01               0
GRID*             170707               00.0000000000E+003.5548470203E+01+
*       -1.909518185E+01               0
GRID*             170708               00.0000000000E+003.7075000849E+01+
*       -2.040730121E+01               0
GRID*             170709               00.0000000000E+003.8769818163E+01+
*       -1.914221439E+01               0
GRID*             170710               00.0000000000E+004.0285732683E+01+
*       -2.045361674E+01               0
GRID*             170711               00.0000000000E+004.1929007189E+01+
*       -1.917543190E+01               0
GRID*             170712               00.0000000000E+004.3436512108E+01+
*       -2.048421751E+01               0
GRID*             170713               00.0000000000E+004.5049061225E+01+
*       -1.919574937E+01               0
GRID*             170714               00.0000000000E+004.6550427901E+01+
*       -2.050005262E+01               0
GRID*             170715               00.0000000000E+004.8143400829E+01+
*       -1.920371663E+01               0
GRID*             170716               00.0000000000E+004.9640365043E+01+
*       -2.050605463E+01               0
GRID*             170717               00.0000000000E+004.8063632403E+01+
*       -2.180677447E+01               0
GRID*             170718               00.0000000000E+004.4962004178E+01+
*       -2.179689426E+01               0
GRID*             170719               00.0000000000E+004.1830560371E+01+
*       -2.177101185E+01               0
GRID*             170720               00.0000000000E+003.8651940414E+01+
*       -2.172833740E+01               0
GRID*             170721               00.0000000000E+003.5390149964E+01+
*       -2.166768557E+01               0
GRID*             170722               00.0000000000E+008.4887326704E+01+
*       -1.371285286E+01               0
GRID*             170723               00.0000000000E+008.3410382683E+01+
*       -1.499099633E+01               0
GRID*             170724               00.0000000000E+008.3249096328E+01+
*       -1.744279365E+01               0
GRID*             170725               00.0000000000E+008.4861356144E+01+
*       -1.739023843E+01               0
GRID*             170726               00.0000000000E+008.3960450947E+01+
*       -1.668303246E+01               0
GRID*             170727               00.0000000000E+008.2522875174E+01+
*       -1.591349471E+01               0
GRID*             170728               00.0000000000E+008.4847958456E+01+
*       -1.576053407E+01               0
GRID*             170729               00.0000000000E+008.6252892518E+01+
*       -1.537551444E+01               0
GRID*             170730               00.0000000000E+008.5613495790E+01+
*       -1.668617464E+01               0
GRID*             170731               00.0000000000E+008.6402141171E+01+
*       -1.744593583E+01               0
GRID*             170732               00.0000000000E+008.7018429851E+01+
*       -1.630115501E+01               0
GRID*             170733               00.0000000000E+008.7204715601E+01+
*       -1.849811000E+01               0
GRID*             170734               00.0000000000E+008.6924303740E+01+
*       -2.578250811E+01               0
GRID*             170735               00.0000000000E+008.6907852056E+01+
*       -2.736421775E+01               0
GRID*             170736               00.0000000000E+008.7432154270E+01+
*       -2.674672625E+01               0
GRID*             170737               00.0000000000E+008.7916628959E+01+
*       -2.536423726E+01               0
GRID*             170738               00.0000000000E+008.7392326745E+01+
*       -2.448172877E+01               0
GRID*             170739               00.0000000000E+008.8189835122E+01+
*       -2.760543045E+01               0
GRID*             170740               00.0000000000E+008.7292833784E+01+
*       -2.227076085E+01               0
GRID*             170741               00.0000000000E+008.7417875352E+01+
*       -2.038179549E+01               0
GRID*             170742               00.0000000000E+008.6892118399E+01+
*       -1.966529683E+01               0
GRID*             170743               00.0000000000E+008.6925758479E+01+
*       -2.111649828E+01               0
GRID*             170744               00.0000000000E+008.7696832474E+01+
*       -1.926340721E+01               0
GRID*             170745               00.0000000000E+008.7818590737E+01+
*       -2.148725951E+01               0
GRID*             170746               00.0000000000E+001.7969958506E+01+
*       -6.837432756E+01               0
GRID*             170747               00.0000000000E+001.6477698375E+01+
*       -6.680334967E+01               0
GRID*             170748               00.0000000000E+001.4974759609E+01+
*       -6.823007531E+01               0
GRID*             170749               00.0000000000E+001.6467019741E+01+
*       -6.980105319E+01               0
GRID*             170750               00.0000000000E+002.0974204562E+01+
*       -6.852082777E+01               0
GRID*             170751               00.0000000000E+001.9478626495E+01+
*       -6.694360416E+01               0
GRID*             170752               00.0000000000E+001.9465536573E+01+
*       -6.995155117E+01               0
GRID*             170753               00.0000000000E+002.3989803863E+01+
*       -6.866387157E+01               0
GRID*             170754               00.0000000000E+002.2488616775E+01+
*       -6.708346655E+01               0
GRID*             170755               00.0000000000E+002.2475391649E+01+
*       -7.010123279E+01               0
GRID*             170756               00.0000000000E+002.7018081691E+01+
*       -6.879624529E+01               0
GRID*             170757               00.0000000000E+002.5509081231E+01+
*       -6.721677349E+01               0
GRID*             170758               00.0000000000E+002.5498804322E+01+
*       -7.024334337E+01               0
GRID*             170759               00.0000000000E+003.0058843618E+01+
*       -6.891045337E+01               0
GRID*             170760               00.0000000000E+002.8540349390E+01+
*       -6.733667873E+01               0
GRID*             170761               00.0000000000E+002.8536575918E+01+
*       -7.037001993E+01               0
GRID*             170762               00.0000000000E+003.3109977833E+01+
*       -6.900004261E+01               0
GRID*             170763               00.0000000000E+003.1581376776E+01+
*       -6.743688753E+01               0
GRID*             170764               00.0000000000E+003.1587444675E+01+
*       -7.047360845E+01               0
GRID*             170765               00.0000000000E+003.6167537023E+01+
*       -6.906093873E+01               0
GRID*             170766               00.0000000000E+003.4629700990E+01+
*       -6.751275786E+01               0
GRID*             170767               00.0000000000E+003.4647813866E+01+
*       -7.054822347E+01               0
GRID*             170768               00.0000000000E+003.9226543559E+01+
*       -6.909231966E+01               0
GRID*             170769               00.0000000000E+003.7681798324E+01+
*       -6.756203558E+01               0
GRID*             170770               00.0000000000E+003.7712282258E+01+
*       -7.059122281E+01               0
GRID*             170771               00.0000000000E+004.2282123621E+01+
*       -6.909621008E+01               0
GRID*             170772               00.0000000000E+004.0733786549E+01+
*       -6.758497330E+01               0
GRID*             170773               00.0000000000E+004.0774880631E+01+
*       -7.060355645E+01               0
GRID*             170774               00.0000000000E+004.5330458577E+01+
*       -6.907673051E+01               0
GRID*             170775               00.0000000000E+004.3782229823E+01+
*       -6.758393000E+01               0
GRID*             170776               00.0000000000E+004.3830352375E+01+
*       -7.058901060E+01               0
GRID*             170777               00.0000000000E+004.8369602319E+01+
*       -6.903959430E+01               0
GRID*             170778               00.0000000000E+004.6824871261E+01+
*       -6.756281981E+01               0
GRID*             170779               00.0000000000E+004.6875189635E+01+
*       -7.055350500E+01               0
GRID*             170780               00.0000000000E+005.1400168583E+01+
*       -6.899132082E+01               0
GRID*             170781               00.0000000000E+004.9861208759E+01+
*       -6.752645702E+01               0
GRID*             170782               00.0000000000E+004.9908562143E+01+
*       -7.050445810E+01               0
GRID*             170783               00.0000000000E+005.4425397477E+01+
*       -6.893749146E+01               0
GRID*             170784               00.0000000000E+005.2892722659E+01+
*       -6.747957765E+01               0
GRID*             170785               00.0000000000E+005.2932843401E+01+
*       -7.044923463E+01               0
GRID*             170786               00.0000000000E+005.7450311133E+01+
*       -6.888113964E+01               0
GRID*             170787               00.0000000000E+005.5922543921E+01+
*       -6.742569551E+01               0
GRID*             170788               00.0000000000E+005.5953164690E+01+
*       -7.039293559E+01               0
GRID*             170789               00.0000000000E+006.0480219701E+01+
*       -6.882215331E+01               0
GRID*             170790               00.0000000000E+005.8954572760E+01+
*       -6.736633434E+01               0
GRID*             170791               00.0000000000E+005.8975958074E+01+
*       -7.033695860E+01               0
GRID*             170792               00.0000000000E+006.3518971525E+01+
*       -6.875791599E+01               0
GRID*             170793               00.0000000000E+006.1992290346E+01+
*       -6.730106626E+01               0
GRID*             170794               00.0000000000E+006.2006900880E+01+
*       -7.027900304E+01               0
GRID*             170795               00.0000000000E+006.6567619365E+01+
*       -6.868519908E+01               0
GRID*             170796               00.0000000000E+006.5037680421E+01+
*       -6.722843473E+01               0
GRID*             170797               00.0000000000E+006.5048910468E+01+
*       -7.021468034E+01               0
GRID*             170798               00.0000000000E+006.9624448088E+01+
*       -6.860254376E+01               0
GRID*             170799               00.0000000000E+006.8090736427E+01+
*       -6.714736941E+01               0
GRID*             170800               00.0000000000E+006.8101331025E+01+
*       -7.014037343E+01               0
GRID*             170801               00.0000000000E+007.2686127719E+01+
*       -6.851104145E+01               0
GRID*             170802               00.0000000000E+007.1149705982E+01+
*       -6.705829086E+01               0
GRID*             170803               00.0000000000E+007.1160869824E+01+
*       -7.005529436E+01               0
GRID*             170804               00.0000000000E+007.5748823357E+01+
*       -6.841389510E+01               0
GRID*             170805               00.0000000000E+007.4211727318E+01+
*       -6.696339369E+01               0
GRID*             170806               00.0000000000E+007.4223223757E+01+
*       -6.996154287E+01               0
GRID*             170807               00.0000000000E+007.8809023331E+01+
*       -6.831532995E+01               0
GRID*             170808               00.0000000000E+007.7273520252E+01+
*       -6.686618776E+01               0
GRID*             170809               00.0000000000E+007.7284326436E+01+
*       -6.986303729E+01               0
GRID*             170810               00.0000000000E+008.1864245349E+01+
*       -6.821922342E+01               0
GRID*             170811               00.0000000000E+008.0332105590E+01+
*       -6.677051152E+01               0
GRID*             170812               00.0000000000E+008.0341163090E+01+
*       -6.976404185E+01               0
GRID*             170813               00.0000000000E+008.4913600823E+01+
*       -6.812789801E+01               0
GRID*             170814               00.0000000000E+008.3385534623E+01+
*       -6.667935840E+01               0
GRID*             170815               00.0000000000E+008.3392311549E+01+
*       -6.966776304E+01               0
GRID*             170816               00.0000000000E+008.6434143409E+01+
*       -6.659311189E+01               0
GRID*             170817               00.0000000000E+008.6438444541E+01+
*       -6.957510858E+01               0
GRID*             170818               00.0000000000E+008.6443999724E+01+
*       -7.255798525E+01               0
GRID*             170819               00.0000000000E+008.4920111031E+01+
*       -7.111380207E+01               0
GRID*             170820               00.0000000000E+008.6451103578E+01+
*       -7.554324075E+01               0
GRID*             170821               00.0000000000E+008.4928528386E+01+
*       -7.410187804E+01               0
GRID*             170822               00.0000000000E+008.6461123129E+01+
*       -7.853114298E+01               0
GRID*             170823               00.0000000000E+008.4939873904E+01+
*       -7.709343943E+01               0
GRID*             170824               00.0000000000E+008.6475753589E+01+
*       -8.152163816E+01               0
GRID*             170825               00.0000000000E+008.4956241925E+01+
*       -8.008858785E+01               0
GRID*             170826               00.0000000000E+008.6496875315E+01+
*       -8.451428026E+01               0
GRID*             170827               00.0000000000E+008.4980062837E+01+
*       -8.308695766E+01               0
GRID*             170828               00.0000000000E+008.6526257844E+01+
*       -8.750818865E+01               0
GRID*             170829               00.0000000000E+008.5013815287E+01+
*       -8.608760191E+01               0
GRID*             170830               00.0000000000E+008.6565103199E+01+
*       -9.050216486E+01               0
GRID*             170831               00.0000000000E+008.5059490737E+01+
*       -8.908902975E+01               0
GRID*             170832               00.0000000000E+008.6613611735E+01+
*       -9.349501075E+01               0
GRID*             170833               00.0000000000E+008.5117970708E+01+
*       -9.208950187E+01               0
GRID*             170834               00.0000000000E+008.6671116113E+01+
*       -9.648582840E+01               0
GRID*             170835               00.0000000000E+008.5188866741E+01+
*       -9.508744262E+01               0
GRID*             170836               00.0000000000E+008.6736990373E+01+
*       -9.947408212E+01               0
GRID*             170837               00.0000000000E+008.5271272953E+01+
*       -9.808162124E+01               0
GRID*             170838               00.0000000000E+008.6811938084E+01+
*       -1.024597366E+02               0
GRID*             170839               00.0000000000E+008.5365202817E+01+
*       -1.010709335E+02               0
GRID*             170840               00.0000000000E+008.6899111533E+01+
*       -1.054439805E+02               0
GRID*             170841               00.0000000000E+008.5473211465E+01+
*       -1.040530390E+02               0
GRID*             170842               00.0000000000E+008.7005051241E+01+
*       -1.084302802E+02               0
GRID*             170843               00.0000000000E+008.5602280311E+01+
*       -1.070145672E+02               0
GRID*             170844               00.0000000000E+008.7136384813E+01+
*       -1.114360706E+02               0
GRID*             170845               00.0000000000E+008.5763539775E+01+
*       -1.098714212E+02               0
GRID*             170846               00.0000000000E+008.3121520539E+01+
*       -1.103193404E+02               0
GRID*             170847               00.0000000000E+008.4562014077E+01+
*       -1.115746864E+02               0
GRID*             170848               00.0000000000E+008.4323046236E+01+
*       -1.086160752E+02               0
GRID*             170849               00.0000000000E+008.0275819653E+01+
*       -1.103023941E+02               0
GRID*             170850               00.0000000000E+008.1819385282E+01+
*       -1.118182401E+02               0
GRID*             170851               00.0000000000E+008.1577954910E+01+
*       -1.088034944E+02               0
GRID*             170852               00.0000000000E+007.7508334050E+01+
*       -1.104120926E+02               0
GRID*             170853               00.0000000000E+007.8993382389E+01+
*       -1.117788592E+02               0
GRID*             170854               00.0000000000E+007.8790771314E+01+
*       -1.089356275E+02               0
GRID*             170855               00.0000000000E+007.4743623333E+01+
*       -1.106028089E+02               0
GRID*             170856               00.0000000000E+007.6246734171E+01+
*       -1.119045691E+02               0
GRID*             170857               00.0000000000E+007.6005223211E+01+
*       -1.091103324E+02               0
GRID*             170858               00.0000000000E+007.1971334774E+01+
*       -1.108546540E+02               0
GRID*             170859               00.0000000000E+007.3499181098E+01+
*       -1.121174052E+02               0
GRID*             170860               00.0000000000E+007.3215777009E+01+
*       -1.093400576E+02               0
GRID*             170861               00.0000000000E+006.9194481570E+01+
*       -1.111642609E+02               0
GRID*             170862               00.0000000000E+007.0745560200E+01+
*       -1.123951099E+02               0
GRID*             170863               00.0000000000E+007.0420256145E+01+
*       -1.096238050E+02               0
GRID*             170864               00.0000000000E+006.6407534821E+01+
*       -1.115374660E+02               0
GRID*             170865               00.0000000000E+006.7986150031E+01+
*       -1.127410858E+02               0
GRID*             170866               00.0000000000E+006.7615866360E+01+
*       -1.099606411E+02               0
GRID*             170867               00.0000000000E+006.3583848781E+01+
*       -1.119767992E+02               0
GRID*             170868               00.0000000000E+006.5200261523E+01+
*       -1.131684543E+02               0
GRID*             170869               00.0000000000E+006.4791122079E+01+
*       -1.103458109E+02               0
GRID*             170870               00.0000000000E+006.0678242544E+01+
*       -1.124493681E+02               0
GRID*             170871               00.0000000000E+006.2336134936E+01+
*       -1.136685947E+02               0
GRID*             170872               00.0000000000E+006.1925956390E+01+
*       -1.107575726E+02               0
GRID*             170873               00.0000000000E+005.7688169826E+01+
*       -1.128239437E+02               0
GRID*             170874               00.0000000000E+005.9356365235E+01+
*       -1.141294737E+02               0
GRID*             170875               00.0000000000E+005.9010047135E+01+
*       -1.111438381E+02               0
GRID*             170876               00.0000000000E+005.4685128779E+01+
*       -1.130981054E+02               0
GRID*             170877               00.0000000000E+005.6311011468E+01+
*       -1.144608933E+02               0
GRID*             170878               00.0000000000E+005.6062287138E+01+
*       -1.114611557E+02               0
GRID*             170879               00.0000000000E+005.1702238849E+01+
*       -1.132933860E+02               0
GRID*             170880               00.0000000000E+005.3274650432E+01+
*       -1.146872551E+02               0
GRID*             170881               00.0000000000E+005.3112717196E+01+
*       -1.117042363E+02               0
GRID*             170882               00.0000000000E+004.8747242155E+01+
*       -1.134286695E+02               0
GRID*             170883               00.0000000000E+005.0271252957E+01+
*       -1.148395637E+02               0
GRID*             170884               00.0000000000E+005.0178228047E+01+
*       -1.118824918E+02               0
GRID*             170885               00.0000000000E+004.5818389941E+01+
*       -1.135171031E+02               0
GRID*             170886               00.0000000000E+004.7301488396E+01+
*       -1.149383124E+02               0
GRID*             170887               00.0000000000E+004.7264143700E+01+
*       -1.120074602E+02               0
GRID*             170888               00.0000000000E+004.2911717804E+01+
*       -1.135675785E+02               0
GRID*             170889               00.0000000000E+004.4359764202E+01+
*       -1.149957401E+02               0
GRID*             170890               00.0000000000E+004.4370343544E+01+
*       -1.120889415E+02               0
GRID*             170891               00.0000000000E+004.0023464233E+01+
*       -1.135859598E+02               0
GRID*             170892               00.0000000000E+004.1440000927E+01+
*       -1.150192588E+02               0
GRID*             170893               00.0000000000E+004.1495181110E+01+
*       -1.121342795E+02               0
GRID*             170894               00.0000000000E+003.7150505305E+01+
*       -1.135759302E+02               0
GRID*             170895               00.0000000000E+003.8536926237E+01+
*       -1.150134509E+02               0
GRID*             170896               00.0000000000E+003.8637043300E+01+
*       -1.121484391E+02               0
GRID*             170897               00.0000000000E+003.4290567856E+01+
*       -1.135394585E+02               0
GRID*             170898               00.0000000000E+003.5646234752E+01+
*       -1.149810771E+02               0
GRID*             170899               00.0000000000E+003.5794838408E+01+
*       -1.121343116E+02               0
GRID*             170900               00.0000000000E+003.1443691264E+01+
*       -1.134767249E+02               0
GRID*             170901               00.0000000000E+003.2765291978E+01+
*       -1.149232160E+02               0
GRID*             170902               00.0000000000E+003.2968967142E+01+
*       -1.120929673E+02               0
GRID*             170903               00.0000000000E+002.8615670867E+01+
*       -1.133855553E+02               0
GRID*             170904               00.0000000000E+002.9895504918E+01+
*       -1.148385051E+02               0
GRID*             170905               00.0000000000E+003.0163857213E+01+
*       -1.120237751E+02               0
GRID*             170906               00.0000000000E+002.5822494860E+01+
*       -1.132608712E+02               0
GRID*             170907               00.0000000000E+002.7046616013E+01+
*       -1.147216858E+02               0
GRID*             170908               00.0000000000E+002.7391549714E+01+
*       -1.119247407E+02               0
GRID*             170909               00.0000000000E+002.3099717154E+01+
*       -1.130958864E+02               0
GRID*             170910               00.0000000000E+002.4247279085E+01+
*       -1.145624519E+02               0
GRID*             170911               00.0000000000E+002.4674932929E+01+
*       -1.117943057E+02               0
GRID*             170912               00.0000000000E+002.0521355759E+01+
*       -1.128896599E+02               0
GRID*             170913               00.0000000000E+002.1573340425E+01+
*       -1.143478587E+02               0
GRID*             170914               00.0000000000E+002.2047732489E+01+
*       -1.116376876E+02               0
GRID*             170915               00.0000000000E+001.8083571570E+01+
*       -1.127612669E+02               0
GRID*             170916               00.0000000000E+001.9073348302E+01+
*       -1.141638432E+02               0
GRID*             170917               00.0000000000E+001.9531579027E+01+
*       -1.114870836E+02               0
GRID*             170918               00.0000000000E+001.5768051014E+01+
*       -1.127287108E+02               0
GRID*             170919               00.0000000000E+001.7121541467E+01+
*       -1.113756601E+02               0
GRID*             170920               00.0000000000E+001.3592870946E+01+
*       -1.126819186E+02               0
GRID*             170921               00.0000000000E+001.4799218202E+01+
*       -1.112898103E+02               0
GRID*             170922               00.0000000000E+001.2510329353E+01+
*       -1.112054144E+02               0
GRID*             170923               00.0000000000E+001.2610878764E+01+
*       -1.083017998E+02               0
GRID*             170924               00.0000000000E+001.3732951407E+01+
*       -1.098089031E+02               0
GRID*             170925               00.0000000000E+001.2721667663E+01+
*       -1.053771661E+02               0
GRID*             170926               00.0000000000E+001.3884064800E+01+
*       -1.069160503E+02               0
GRID*             170927               00.0000000000E+001.2828616079E+01+
*       -1.024373599E+02               0
GRID*             170928               00.0000000000E+001.4030649433E+01+
*       -1.039989462E+02               0
GRID*             170929               00.0000000000E+001.2929248924E+01+
*       -9.948816981E+01               0
GRID*             170930               00.0000000000E+001.4168646181E+01+
*       -1.010654885E+02               0
GRID*             170931               00.0000000000E+001.3024139074E+01+
*       -9.653213777E+01               0
GRID*             170932               00.0000000000E+001.4298613213E+01+
*       -9.812118542E+01               0
GRID*             170933               00.0000000000E+001.3113684082E+01+
*       -9.356894705E+01               0
GRID*             170934               00.0000000000E+001.4421711173E+01+
*       -9.516739410E+01               0
GRID*             170935               00.0000000000E+001.3196752542E+01+
*       -9.059706001E+01               0
GRID*             170936               00.0000000000E+001.4537523901E+01+
*       -9.220267910E+01               0
GRID*             170937               00.0000000000E+001.3270709381E+01+
*       -8.761569378E+01               0
GRID*             170938               00.0000000000E+001.4643347385E+01+
*       -8.922528183E+01               0
GRID*             170939               00.0000000000E+001.3332818119E+01+
*       -8.462618802E+01               0
GRID*             170940               00.0000000000E+001.4735220525E+01+
*       -8.623550767E+01               0
GRID*             170941               00.0000000000E+001.3382103259E+01+
*       -8.163160885E+01               0
GRID*             170942               00.0000000000E+001.4810360376E+01+
*       -8.323645644E+01               0
GRID*             170943               00.0000000000E+001.3419345659E+01+
*       -7.863520821E+01               0
GRID*             170944               00.0000000000E+001.4868562818E+01+
*       -8.023260796E+01               0
GRID*             170945               00.0000000000E+001.3446281298E+01+
*       -7.563945916E+01               0
GRID*             170946               00.0000000000E+001.4911578327E+01+
*       -7.722800363E+01               0
GRID*             170947               00.0000000000E+001.3464875367E+01+
*       -7.264589197E+01               0
GRID*             170948               00.0000000000E+001.4941987664E+01+
*       -7.422547555E+01               0
GRID*             170949               00.0000000000E+001.3476834715E+01+
*       -6.965421654E+01               0
GRID*             170950               00.0000000000E+001.4962317353E+01+
*       -7.122567055E+01               0
GRID*             170951               00.0000000000E+001.3483699883E+01+
*       -6.666711771E+01               0
GRID*             170952               00.0000000000E+001.6447898241E+01+
*       -7.280630626E+01               0
GRID*             170953               00.0000000000E+001.7952600629E+01+
*       -7.138168890E+01               0
GRID*             170954               00.0000000000E+002.0954079200E+01+
*       -7.154034157E+01               0
GRID*             170955               00.0000000000E+001.9441143256E+01+
*       -7.297047930E+01               0
GRID*             170956               00.0000000000E+002.3970205789E+01+
*       -7.169548758E+01               0
GRID*             170957               00.0000000000E+002.2448893340E+01+
*       -7.313459636E+01               0
GRID*             170958               00.0000000000E+002.7003344383E+01+
*       -7.183888691E+01               0
GRID*             170959               00.0000000000E+002.5474745851E+01+
*       -7.329103112E+01               0
GRID*             170960               00.0000000000E+003.0053769461E+01+
*       -7.196126836E+01               0
GRID*             170961               00.0000000000E+002.8520537926E+01+
*       -7.343013534E+01               0
GRID*             170962               00.0000000000E+003.3118663738E+01+
*       -7.205388334E+01               0
GRID*             170963               00.0000000000E+003.1584988524E+01+
*       -7.354154326E+01               0
GRID*             170964               00.0000000000E+003.6191916695E+01+
*       -7.211097654E+01               0
GRID*             170965               00.0000000000E+003.4662766567E+01+
*       -7.361663641E+01               0
GRID*             170966               00.0000000000E+003.9265688856E+01+
*       -7.213216259E+01               0
GRID*             170967               00.0000000000E+003.7745323293E+01+
*       -7.365191632E+01               0
GRID*             170968               00.0000000000E+004.2332572119E+01+
*       -7.212101415E+01               0
GRID*             170969               00.0000000000E+004.0823380344E+01+
*       -7.364962029E+01               0
GRID*             170970               00.0000000000E+004.5386776841E+01+
*       -7.208358358E+01               0
GRID*             170971               00.0000000000E+004.3888996585E+01+
*       -7.361558713E+01               0
GRID*             170972               00.0000000000E+004.8425071002E+01+
*       -7.202833697E+01               0
GRID*             170973               00.0000000000E+004.6936658208E+01+
*       -7.355841555E+01               0
GRID*             170974               00.0000000000E+005.1448244912E+01+
*       -7.196576462E+01               0
GRID*             170975               00.0000000000E+004.9964753770E+01+
*       -7.348964350E+01               0
GRID*             170976               00.0000000000E+005.4461540923E+01+
*       -7.190464351E+01               0
GRID*             170977               00.0000000000E+005.2976942434E+01+
*       -7.342117349E+01               0
GRID*             170978               00.0000000000E+005.7473291673E+01+
*       -7.184919666E+01               0
GRID*             170979               00.0000000000E+005.5981667906E+01+
*       -7.336090458E+01               0
GRID*             170980               00.0000000000E+006.0492507340E+01+
*       -7.179802626E+01               0
GRID*             170981               00.0000000000E+005.8989840939E+01+
*       -7.331026432E+01               0
GRID*             170982               00.0000000000E+006.3525615626E+01+
*       -7.174473155E+01               0
GRID*             170983               00.0000000000E+006.2011222086E+01+
*       -7.326375478E+01               0
GRID*             170984               00.0000000000E+006.6573588772E+01+
*       -7.168142419E+01               0
GRID*             170985               00.0000000000E+006.5050293930E+01+
*       -7.321147541E+01               0
GRID*             170986               00.0000000000E+006.9632399252E+01+
*       -7.160442498E+01               0
GRID*             170987               00.0000000000E+006.8104657000E+01+
*       -7.314547574E+01               0
GRID*             170988               00.0000000000E+007.2696281559E+01+
*       -7.151471652E+01               0
GRID*             170989               00.0000000000E+007.1167810987E+01+
*       -7.306384714E+01               0
GRID*             170990               00.0000000000E+007.5759932635E+01+
*       -7.141627553E+01               0
GRID*             170991               00.0000000000E+007.4232990437E+01+
*       -7.296944918E+01               0
GRID*             170992               00.0000000000E+007.8819456921E+01+
*       -7.131413476E+01               0
GRID*             170993               00.0000000000E+007.7295063120E+01+
*       -7.286737299E+01               0
GRID*             170994               00.0000000000E+008.1872752160E+01+
*       -7.121269373E+01               0
GRID*             170995               00.0000000000E+008.0351045991E+01+
*       -7.276278664E+01               0
GRID*             170996               00.0000000000E+008.3400551643E+01+
*       -7.265873277E+01               0
GRID*             170997               00.0000000000E+008.3411723082E+01+
*       -7.565318726E+01               0
GRID*             170998               00.0000000000E+008.1883746339E+01+
*       -7.421004198E+01               0
GRID*             170999               00.0000000000E+008.3427614259E+01+
*       -7.865249283E+01               0
GRID*             171000               00.0000000000E+008.1899463438E+01+
*       -7.721224066E+01               0
GRID*             171001               00.0000000000E+008.3451212525E+01+
*       -8.165656134E+01               0
GRID*             171002               00.0000000000E+008.1922584859E+01+
*       -8.022046632E+01               0
GRID*             171003               00.0000000000E+008.3485934158E+01+
*       -8.466452448E+01               0
GRID*             171004               00.0000000000E+008.1957083845E+01+
*       -8.323412817E+01               0
GRID*             171005               00.0000000000E+008.3535026398E+01+
*       -8.767454743E+01               0
GRID*             171006               00.0000000000E+008.2007145268E+01+
*       -8.625147000E+01               0
GRID*             171007               00.0000000000E+008.3600525511E+01+
*       -9.068399107E+01               0
GRID*             171008               00.0000000000E+008.2076061172E+01+
*       -8.926950876E+01               0
GRID*             171009               00.0000000000E+008.3682331722E+01+
*       -9.369011068E+01               0
GRID*             171010               00.0000000000E+008.2164886526E+01+
*       -9.228459988E+01               0
GRID*             171011               00.0000000000E+008.3778782448E+01+
*       -9.669070808E+01               0
GRID*             171012               00.0000000000E+008.2272247429E+01+
*       -9.529337614E+01               0
GRID*             171013               00.0000000000E+008.3888298566E+01+
*       -9.968418340E+01               0
GRID*             171014               00.0000000000E+008.2395808061E+01+
*       -9.829327023E+01               0
GRID*             171015               00.0000000000E+008.4011202582E+01+
*       -1.026694066E+02               0
GRID*             171016               00.0000000000E+008.2534298331E+01+
*       -1.012826565E+02               0
GRID*             171017               00.0000000000E+008.4151627551E+01+
*       -1.056459576E+02               0
GRID*             171018               00.0000000000E+008.2689618668E+01+
*       -1.042623251E+02               0
GRID*             171019               00.0000000000E+008.2872393475E+01+
*       -1.072474657E+02               0
GRID*             171020               00.0000000000E+008.0079795153E+01+
*       -1.073982863E+02               0
GRID*             171021               00.0000000000E+008.1374233718E+01+
*       -1.058422576E+02               0
GRID*             171022               00.0000000000E+007.7281593904E+01+
*       -1.075699790E+02               0
GRID*             171023               00.0000000000E+007.8570617742E+01+
*       -1.060326378E+02               0
GRID*             171024               00.0000000000E+007.4477719400E+01+
*       -1.077864066E+02               0
GRID*             171025               00.0000000000E+007.5754090093E+01+
*       -1.062460532E+02               0
GRID*             171026               00.0000000000E+007.1667472334E+01+
*       -1.080512077E+02               0
GRID*             171027               00.0000000000E+007.2929414725E+01+
*       -1.064975568E+02               0
GRID*             171028               00.0000000000E+006.8852104139E+01+
*       -1.083643839E+02               0
GRID*             171029               00.0000000000E+007.0099320328E+01+
*       -1.067917866E+02               0
GRID*             171030               00.0000000000E+006.6028638857E+01+
*       -1.087233038E+02               0
GRID*             171031               00.0000000000E+006.7264876636E+01+
*       -1.071270466E+02               0
GRID*             171032               00.0000000000E+006.3185733461E+01+
*       -1.091164018E+02               0
GRID*             171033               00.0000000000E+006.4423250239E+01+
*       -1.074938947E+02               0
GRID*             171034               00.0000000000E+006.0308481317E+01+
*       -1.095125333E+02               0
GRID*             171035               00.0000000000E+006.1568258388E+01+
*       -1.078713625E+02               0
GRID*             171036               00.0000000000E+005.7398487945E+01+
*       -1.098591973E+02               0
GRID*             171037               00.0000000000E+005.8696922126E+01+
*       -1.082278925E+02               0
GRID*             171038               00.0000000000E+005.4479480356E+01+
*       -1.101386446E+02               0
GRID*             171039               00.0000000000E+005.5815681163E+01+
*       -1.085366861E+02               0
GRID*             171040               00.0000000000E+005.1568931571E+01+
*       -1.103526703E+02               0
GRID*             171041               00.0000000000E+005.2935694731E+01+
*       -1.087870786E+02               0
GRID*             171042               00.0000000000E+004.8674237542E+01+
*       -1.105097060E+02               0
GRID*             171043               00.0000000000E+005.0064941065E+01+
*       -1.089798845E+02               0
GRID*             171044               00.0000000000E+004.5796962750E+01+
*       -1.106191852E+02               0
GRID*             171045               00.0000000000E+004.7207056592E+01+
*       -1.091214310E+02               0
GRID*             171046               00.0000000000E+004.2936861513E+01+
*       -1.106894021E+02               0
GRID*             171047               00.0000000000E+004.4363480720E+01+
*       -1.092196459E+02               0
GRID*             171048               00.0000000000E+004.0093873280E+01+
*       -1.107263951E+02               0
GRID*             171049               00.0000000000E+004.1535553683E+01+
*       -1.092815177E+02               0
GRID*             171050               00.0000000000E+003.7268333619E+01+
*       -1.107336396E+02               0
GRID*             171051               00.0000000000E+003.8725163599E+01+
*       -1.093115956E+02               0
GRID*             171052               00.0000000000E+003.4460716914E+01+
*       -1.107123047E+02               0
GRID*             171053               00.0000000000E+003.5934212125E+01+
*       -1.093116327E+02               0
GRID*             171054               00.0000000000E+003.1672766371E+01+
*       -1.106618587E+02               0
GRID*             171055               00.0000000000E+003.3164516143E+01+
*       -1.092811961E+02               0
GRID*             171056               00.0000000000E+002.8910583971E+01+
*       -1.105810431E+02               0
GRID*             171057               00.0000000000E+003.0419493130E+01+
*       -1.092191267E+02               0
GRID*             171058               00.0000000000E+002.6187877200E+01+
*       -1.104691038E+02               0
GRID*             171059               00.0000000000E+002.7706911457E+01+
*       -1.091254062E+02               0
GRID*             171060               00.0000000000E+002.3527158940E+01+
*       -1.103278136E+02               0
GRID*             171061               00.0000000000E+002.5040103211E+01+
*       -1.090026116E+02               0
GRID*             171062               00.0000000000E+002.0955412525E+01+
*       -1.101678995E+02               0
GRID*             171063               00.0000000000E+002.2434838976E+01+
*       -1.088580255E+02               0
GRID*             171064               00.0000000000E+001.8476074688E+01+
*       -1.100259509E+02               0
GRID*             171065               00.0000000000E+001.9899908186E+01+
*       -1.087067668E+02               0
GRID*             171066               00.0000000000E+001.6076186939E+01+
*       -1.099127547E+02               0
GRID*             171067               00.0000000000E+001.7430720160E+01+
*       -1.085630456E+02               0
GRID*             171068               00.0000000000E+001.5009920143E+01+
*       -1.084318475E+02               0
GRID*             171069               00.0000000000E+001.5199755780E+01+
*       -1.055442306E+02               0
GRID*             171070               00.0000000000E+001.6325611123E+01+
*       -1.070600278E+02               0
GRID*             171071               00.0000000000E+001.5374816940E+01+
*       -1.026318446E+02               0
GRID*             171072               00.0000000000E+001.6543923286E+01+
*       -1.041771290E+02               0
GRID*             171073               00.0000000000E+001.5538774580E+01+
*       -9.970462805E+01               0
GRID*             171074               00.0000000000E+001.6744945338E+01+
*       -1.012709842E+02               0
GRID*             171075               00.0000000000E+001.5695233089E+01+
*       -9.676638486E+01               0
GRID*             171076               00.0000000000E+001.6935394455E+01+
*       -9.834982748E+01               0
GRID*             171077               00.0000000000E+001.5845854383E+01+
*       -9.381566022E+01               0
GRID*             171078               00.0000000000E+001.7119376299E+01+
*       -9.541465098E+01               0
GRID*             171079               00.0000000000E+001.5988676460E+01+
*       -9.084842527E+01               0
GRID*             171080               00.0000000000E+001.7297006942E+01+
*       -9.246140639E+01               0
GRID*             171081               00.0000000000E+001.6117617920E+01+
*       -8.786212344E+01               0
GRID*             171082               00.0000000000E+001.7462946995E+01+
*       -8.948526688E+01               0
GRID*             171083               00.0000000000E+001.6225564203E+01+
*       -8.485925033E+01               0
GRID*             171084               00.0000000000E+001.7607961598E+01+
*       -8.648586610E+01               0
GRID*             171085               00.0000000000E+001.6310097584E+01+
*       -8.184653141E+01               0
GRID*             171086               00.0000000000E+001.7725301411E+01+
*       -8.346932529E+01               0
GRID*             171087               00.0000000000E+001.6372909132E+01+
*       -7.883076710E+01               0
GRID*             171088               00.0000000000E+001.7814443898E+01+
*       -8.044469054E+01               0
GRID*             171089               00.0000000000E+001.6417572712E+01+
*       -7.581682420E+01               0
GRID*             171090               00.0000000000E+001.7878903517E+01+
*       -7.741958767E+01               0
GRID*             171091               00.0000000000E+001.7923483289E+01+
*       -7.439765490E+01               0
GRID*             171092               00.0000000000E+001.9401355258E+01+
*       -7.600000284E+01               0
GRID*             171093               00.0000000000E+002.0919015225E+01+
*       -7.457282724E+01               0
GRID*             171094               00.0000000000E+002.3933696827E+01+
*       -7.474588063E+01               0
GRID*             171095               00.0000000000E+002.2403818712E+01+
*       -7.618411151E+01               0
GRID*             171096               00.0000000000E+002.6971839187E+01+
*       -7.490728821E+01               0
GRID*             171097               00.0000000000E+002.5430790163E+01+
*       -7.636213772E+01               0
GRID*             171098               00.0000000000E+003.0035094586E+01+
*       -7.504480390E+01               0
GRID*             171099               00.0000000000E+002.8486395846E+01+
*       -7.652195677E+01               0
GRID*             171100               00.0000000000E+003.3120025028E+01+
*       -7.514492648E+01               0
GRID*             171101               00.0000000000E+003.1570131089E+01+
*       -7.664818711E+01               0
GRID*             171102               00.0000000000E+003.6216636409E+01+
*       -7.519774211E+01               0
GRID*             171103               00.0000000000E+003.4673894870E+01+
*       -7.672603218E+01               0
GRID*             171104               00.0000000000E+003.9312052137E+01+
*       -7.520456208E+01               0
GRID*             171105               00.0000000000E+003.7783365253E+01+
*       -7.675038787E+01               0
GRID*             171106               00.0000000000E+004.2395424039E+01+
*       -7.517191413E+01               0
GRID*             171107               00.0000000000E+004.0884095832E+01+
*       -7.672685592E+01               0
GRID*             171108               00.0000000000E+004.5458342262E+01+
*       -7.510795519E+01               0
GRID*             171109               00.0000000000E+004.3964769716E+01+
*       -7.666428219E+01               0
GRID*             171110               00.0000000000E+004.8494960820E+01+
*       -7.502440725E+01               0
GRID*             171111               00.0000000000E+004.7016644874E+01+
*       -7.657394689E+01               0
GRID*             171112               00.0000000000E+005.1505742260E+01+
*       -7.493907064E+01               0
GRID*             171113               00.0000000000E+005.0035949310E+01+
*       -7.647383440E+01               0
GRID*             171114               00.0000000000E+005.4499111661E+01+
*       -7.486637858E+01               0
GRID*             171115               00.0000000000E+005.3027911487E+01+
*       -7.638427573E+01               0
GRID*             171116               00.0000000000E+005.7489097854E+01+
*       -7.481295200E+01               0
GRID*             171117               00.0000000000E+005.6006541609E+01+
*       -7.631842599E+01               0
GRID*             171118               00.0000000000E+006.0491560190E+01+
*       -7.477572666E+01               0
GRID*             171119               00.0000000000E+005.8990817105E+01+
*       -7.627841434E+01               0
GRID*             171120               00.0000000000E+006.3518107453E+01+
*       -7.474128263E+01               0
GRID*             171121               00.0000000000E+006.1998445557E+01+
*       -7.625325451E+01               0
GRID*             171122               00.0000000000E+006.6569007274E+01+
*       -7.469169611E+01               0
GRID*             171123               00.0000000000E+006.5036820798E+01+
*       -7.622150332E+01               0
GRID*             171124               00.0000000000E+006.9634595680E+01+
*       -7.462077649E+01               0
GRID*             171125               00.0000000000E+006.8098945955E+01+
*       -7.616699685E+01               0
GRID*             171126               00.0000000000E+007.2704565694E+01+
*       -7.453102621E+01               0
GRID*             171127               00.0000000000E+007.1171350387E+01+
*       -7.608795556E+01               0
GRID*             171128               00.0000000000E+007.5771602068E+01+
*       -7.442862667E+01               0
GRID*             171129               00.0000000000E+007.4243177326E+01+
*       -7.599020370E+01               0
GRID*             171130               00.0000000000E+007.8831631247E+01+
*       -7.432020331E+01               0
GRID*             171131               00.0000000000E+007.7308170195E+01+
*       -7.588145699E+01               0
GRID*             171132               00.0000000000E+008.0364331595E+01+
*       -7.576745865E+01               0
GRID*             171133               00.0000000000E+008.0384078893E+01+
*       -7.877900963E+01               0
GRID*             171134               00.0000000000E+007.8848947050E+01+
*       -7.733422762E+01               0
GRID*             171135               00.0000000000E+008.0414390546E+01+
*       -8.179831607E+01               0
GRID*             171136               00.0000000000E+007.8875884580E+01+
*       -8.035685937E+01               0
GRID*             171137               00.0000000000E+008.0460767291E+01+
*       -8.482412418E+01               0
GRID*             171138               00.0000000000E+007.8918073992E+01+
*       -8.338831208E+01               0
GRID*             171139               00.0000000000E+008.0528747618E+01+
*       -8.785317064E+01               0
GRID*             171140               00.0000000000E+007.8982369640E+01+
*       -8.642582482E+01               0
GRID*             171141               00.0000000000E+008.0621653077E+01+
*       -9.088024459E+01               0
GRID*             171142               00.0000000000E+007.9074339523E+01+
*       -8.946390647E+01               0
GRID*             171143               00.0000000000E+008.0738208633E+01+
*       -9.389986787E+01               0
GRID*             171144               00.0000000000E+007.9194975184E+01+
*       -9.249551258E+01               0
GRID*             171145               00.0000000000E+008.0874401056E+01+
*       -9.690792623E+01               0
GRID*             171146               00.0000000000E+007.9340362260E+01+
*       -9.551441795E+01               0
GRID*             171147               00.0000000000E+008.1026356656E+01+
*       -9.990164623E+01               0
GRID*             171148               00.0000000000E+007.9504949651E+01+
*       -9.851630222E+01               0
GRID*             171149               00.0000000000E+008.1192193722E+01+
*       -1.028790855E+02               0
GRID*             171150               00.0000000000E+007.9684252047E+01+
*       -1.014980752E+02               0
GRID*             171151               00.0000000000E+007.9876808772E+01+
*       -1.044590179E+02               0
GRID*             171152               00.0000000000E+007.7048125528E+01+
*       -1.046693216E+02               0
GRID*             171153               00.0000000000E+007.8354316558E+01+
*       -1.030957017E+02               0
GRID*             171154               00.0000000000E+007.4208868199E+01+
*       -1.049108567E+02               0
GRID*             171155               00.0000000000E+007.5502903634E+01+
*       -1.033341251E+02               0
GRID*             171156               00.0000000000E+007.1363284749E+01+
*       -1.051917427E+02               0
GRID*             171157               00.0000000000E+007.2642738223E+01+
*       -1.036050426E+02               0
GRID*             171158               00.0000000000E+006.8515850144E+01+
*       -1.055138420E+02               0
GRID*             171159               00.0000000000E+006.9779814565E+01+
*       -1.039137980E+02               0
GRID*             171160               00.0000000000E+006.5669482042E+01+
*       -1.058722877E+02               0
GRID*             171161               00.0000000000E+006.6920455550E+01+
*       -1.042590831E+02               0
GRID*             171162               00.0000000000E+006.2823259248E+01+
*       -1.062520082E+02               0
GRID*             171163               00.0000000000E+006.4069491052E+01+
*       -1.046304012E+02               0
GRID*             171164               00.0000000000E+005.9973080528E+01+
*       -1.066259474E+02               0
GRID*             171165               00.0000000000E+006.1228081388E+01+
*       -1.050065931E+02               0
GRID*             171166               00.0000000000E+005.7118472298E+01+
*       -1.069630465E+02               0
GRID*             171167               00.0000000000E+005.8394630699E+01+
*       -1.053611014E+02               0
GRID*             171168               00.0000000000E+005.4265467680E+01+
*       -1.072459704E+02               0
GRID*             171169               00.0000000000E+005.5568258815E+01+
*       -1.056723308E+02               0
GRID*             171170               00.0000000000E+005.1419720182E+01+
*       -1.074703451E+02               0
GRID*             171171               00.0000000000E+005.2749493131E+01+
*       -1.059292368E+02               0
GRID*             171172               00.0000000000E+004.8583887828E+01+
*       -1.076398092E+02               0
GRID*             171173               00.0000000000E+004.9938666945E+01+
*       -1.061302697E+02               0
GRID*             171174               00.0000000000E+004.5758867471E+01+
*       -1.077620978E+02               0
GRID*             171175               00.0000000000E+004.7135698708E+01+
*       -1.062804760E+02               0
GRID*             171176               00.0000000000E+004.2946195004E+01+
*       -1.078458707E+02               0
GRID*             171177               00.0000000000E+004.4341581755E+01+
*       -1.063883226E+02               0
GRID*             171178               00.0000000000E+004.0149383508E+01+
*       -1.078974531E+02               0
GRID*             171179               00.0000000000E+004.1560024829E+01+
*       -1.064618060E+02               0
GRID*             171180               00.0000000000E+003.7372672035E+01+
*       -1.079192852E+02               0
GRID*             171181               00.0000000000E+003.8796891944E+01+
*       -1.065051427E+02               0
GRID*             171182               00.0000000000E+003.4618988928E+01+
*       -1.079099863E+02               0
GRID*             171183               00.0000000000E+003.6057448838E+01+
*       -1.065176388E+02               0
GRID*             171184               00.0000000000E+003.1889563693E+01+
*       -1.078660479E+02               0
GRID*             171185               00.0000000000E+003.3344036477E+01+
*       -1.064948382E+02               0
GRID*             171186               00.0000000000E+002.9186208025E+01+
*       -1.077854364E+02               0
GRID*             171187               00.0000000000E+003.0656278587E+01+
*       -1.064323576E+02               0
GRID*             171188               00.0000000000E+002.6515083584E+01+
*       -1.076709997E+02               0
GRID*             171189               00.0000000000E+002.7994380151E+01+
*       -1.063310299E+02               0
GRID*             171190               00.0000000000E+002.3887425046E+01+
*       -1.075290553E+02               0
GRID*             171191               00.0000000000E+002.5362405419E+01+
*       -1.061974434E+02               0
GRID*             171192               00.0000000000E+002.1314331044E+01+
*       -1.073700296E+02               0
GRID*             171193               00.0000000000E+002.2766917113E+01+
*       -1.060410594E+02               0
GRID*             171194               00.0000000000E+001.8797146019E+01+
*       -1.072095456E+02               0
GRID*             171195               00.0000000000E+002.0211568877E+01+
*       -1.058728083E+02               0
GRID*             171196               00.0000000000E+001.7692036983E+01+
*       -1.057065278E+02               0
GRID*             171197               00.0000000000E+001.7925456891E+01+
*       -1.028244882E+02               0
GRID*             171198               00.0000000000E+001.9073570588E+01+
*       -1.043538870E+02               0
GRID*             171199               00.0000000000E+001.8144950780E+01+
*       -9.992506446E+01               0
GRID*             171200               00.0000000000E+001.9325462333E+01+
*       -1.014785685E+02               0
GRID*             171201               00.0000000000E+001.8358539906E+01+
*       -9.701260129E+01               0
GRID*             171202               00.0000000000E+001.9568096230E+01+
*       -9.858783827E+01               0
GRID*             171203               00.0000000000E+001.8570798486E+01+
*       -9.408288996E+01               0
GRID*             171204               00.0000000000E+001.9809962093E+01+
*       -9.568084028E+01               0
GRID*             171205               00.0000000000E+001.8779562189E+01+
*       -9.112640247E+01               0
GRID*             171206               00.0000000000E+002.0053353733E+01+
*       -9.274788604E+01               0
GRID*             171207               00.0000000000E+001.8972457006E+01+
*       -8.813563572E+01               0
GRID*             171208               00.0000000000E+002.0289072200E+01+
*       -8.977677131E+01               0
GRID*             171209               00.0000000000E+001.9131892676E+01+
*       -8.511455047E+01               0
GRID*             171210               00.0000000000E+002.0496388084E+01+
*       -8.676432009E+01               0
GRID*             171211               00.0000000000E+001.9253329072E+01+
*       -8.207738526E+01               0
GRID*             171212               00.0000000000E+002.0659920337E+01+
*       -8.372261043E+01               0
GRID*             171213               00.0000000000E+001.9340845716E+01+
*       -7.903694630E+01               0
GRID*             171214               00.0000000000E+002.0779730889E+01+
*       -8.066964102E+01               0
GRID*             171215               00.0000000000E+002.0863297457E+01+
*       -7.761736147E+01               0
GRID*             171216               00.0000000000E+002.2332259187E+01+
*       -7.924878424E+01               0
GRID*             171217               00.0000000000E+002.3872780443E+01+
*       -7.781553427E+01               0
GRID*             171218               00.0000000000E+002.6914968536E+01+
*       -7.800503124E+01               0
GRID*             171219               00.0000000000E+002.5356958816E+01+
*       -7.945842779E+01               0
GRID*             171220               00.0000000000E+002.9995237163E+01+
*       -7.816944404E+01               0
GRID*             171221               00.0000000000E+002.8423809852E+01+
*       -7.965251850E+01               0
GRID*             171222               00.0000000000E+003.3110649660E+01+
*       -7.828542960E+01               0
GRID*             171223               00.0000000000E+003.1535755734E+01+
*       -7.980668652E+01               0
GRID*             171224               00.0000000000E+003.6243163146E+01+
*       -7.833100797E+01               0
GRID*             171225               00.0000000000E+003.4679917935E+01+
*       -7.989040539E+01               0
GRID*             171226               00.0000000000E+003.9370087894E+01+
*       -7.831549932E+01               0
GRID*             171227               00.0000000000E+003.7829885786E+01+
*       -7.989611942E+01               0
GRID*             171228               00.0000000000E+004.2477421532E+01+
*       -7.825210576E+01               0
GRID*             171229               00.0000000000E+004.0963413593E+01+
*       -7.984074916E+01               0
GRID*             171230               00.0000000000E+004.5554424006E+01+
*       -7.814940506E+01               0
GRID*             171231               00.0000000000E+004.4067075823E+01+
*       -7.973722863E+01               0
GRID*             171232               00.0000000000E+004.8588835308E+01+
*       -7.801988527E+01               0
GRID*             171233               00.0000000000E+004.7126614441E+01+
*       -7.959534343E+01               0
GRID*             171234               00.0000000000E+005.1578953697E+01+
*       -7.789759466E+01               0
GRID*             171235               00.0000000000E+005.0131839695E+01+
*       -7.944364553E+01               0
GRID*             171236               00.0000000000E+005.4538738649E+01+
*       -7.780684946E+01               0
GRID*             171237               00.0000000000E+005.3089780859E+01+
*       -7.932016839E+01               0
GRID*             171238               00.0000000000E+005.7491810948E+01+
*       -7.775856209E+01               0
GRID*             171239               00.0000000000E+005.6024007987E+01+
*       -7.924698556E+01               0
GRID*             171240               00.0000000000E+006.0466598020E+01+
*       -7.774866067E+01               0
GRID*             171241               00.0000000000E+005.8967591863E+01+
*       -7.922880841E+01               0
GRID*             171242               00.0000000000E+006.3486444797E+01+
*       -7.775136650E+01               0
GRID*             171243               00.0000000000E+006.1954597259E+01+
*       -7.924677265E+01               0
GRID*             171244               00.0000000000E+006.6549578536E+01+
*       -7.772295802E+01               0
GRID*             171245               00.0000000000E+006.4999202535E+01+
*       -7.925282119E+01               0
GRID*             171246               00.0000000000E+006.9631481561E+01+
*       -7.765756589E+01               0
GRID*             171247               00.0000000000E+006.8082114142E+01+
*       -7.921352705E+01               0
GRID*             171248               00.0000000000E+007.2713772610E+01+
*       -7.756405724E+01               0
GRID*             171249               00.0000000000E+007.1173903783E+01+
*       -7.913366757E+01               0
GRID*             171250               00.0000000000E+007.5787219163E+01+
*       -7.745353745E+01               0
GRID*             171251               00.0000000000E+007.4257814447E+01+
*       -7.902739098E+01               0
GRID*             171252               00.0000000000E+007.7327996018E+01+
*       -7.890630808E+01               0
GRID*             171253               00.0000000000E+007.7360530713E+01+
*       -8.194289720E+01               0
GRID*             171254               00.0000000000E+007.5812642151E+01+
*       -8.049234591E+01               0
GRID*             171255               00.0000000000E+007.7414197784E+01+
*       -8.499060917E+01               0
GRID*             171256               00.0000000000E+007.5856654505E+01+
*       -8.354519429E+01               0
GRID*             171257               00.0000000000E+007.7498887191E+01+
*       -8.804423154E+01               0
GRID*             171258               00.0000000000E+007.5930715334E+01+
*       -8.660901590E+01               0
GRID*             171259               00.0000000000E+007.7621030688E+01+
*       -9.109364782E+01               0
GRID*             171260               00.0000000000E+007.6045578356E+01+
*       -8.967397289E+01               0
GRID*             171261               00.0000000000E+007.7775830255E+01+
*       -9.412848230E+01               0
GRID*             171262               00.0000000000E+007.6201885760E+01+
*       -9.272661754E+01               0
GRID*             171263               00.0000000000E+007.7954144414E+01+
*       -9.714238810E+01               0
GRID*             171264               00.0000000000E+007.6389612409E+01+
*       -9.575645245E+01               0
GRID*             171265               00.0000000000E+007.8148214846E+01+
*       -1.001320414E+02               0
GRID*             171266               00.0000000000E+007.6597409609E+01+
*       -9.875812732E+01               0
GRID*             171267               00.0000000000E+007.6818279357E+01+
*       -1.017296679E+02               0
GRID*             171268               00.0000000000E+007.3940882115E+01+
*       -1.019896498E+02               0
GRID*             171269               00.0000000000E+007.5256257837E+01+
*       -1.003851927E+02               0
GRID*             171270               00.0000000000E+007.1057700675E+01+
*       -1.022867261E+02               0
GRID*             171271               00.0000000000E+007.2355844566E+01+
*       -1.006713334E+02               0
GRID*             171272               00.0000000000E+006.8177349098E+01+
*       -1.026247235E+02               0
GRID*             171273               00.0000000000E+006.9455235208E+01+
*       -1.009976516E+02               0
GRID*             171274               00.0000000000E+006.5310374659E+01+
*       -1.029996388E+02               0
GRID*             171275               00.0000000000E+006.6567268207E+01+
*       -1.013652792E+02               0
GRID*             171276               00.0000000000E+006.2465502615E+01+
*       -1.033944299E+02               0
GRID*             171277               00.0000000000E+006.3706386222E+01+
*       -1.017636675E+02               0
GRID*             171278               00.0000000000E+005.9642834701E+01+
*       -1.037781371E+02               0
GRID*             171279               00.0000000000E+006.0880255928E+01+
*       -1.021659739E+02               0
GRID*             171280               00.0000000000E+005.6837155418E+01+
*       -1.041232661E+02               0
GRID*             171281               00.0000000000E+005.8085359420E+01+
*       -1.025403018E+02               0
GRID*             171282               00.0000000000E+005.4043956396E+01+
*       -1.044139126E+02               0
GRID*             171283               00.0000000000E+005.5312852999E+01+
*       -1.028648479E+02               0
GRID*             171284               00.0000000000E+005.1259875459E+01+
*       -1.046448608E+02               0
GRID*             171285               00.0000000000E+005.2554338723E+01+
*       -1.031295366E+02               0
GRID*             171286               00.0000000000E+004.8481884006E+01+
*       -1.048189962E+02               0
GRID*             171287               00.0000000000E+004.9803092520E+01+
*       -1.033335873E+02               0
GRID*             171288               00.0000000000E+004.5708041764E+01+
*       -1.049453849E+02               0
GRID*             171289               00.0000000000E+004.7054227062E+01+
*       -1.034839051E+02               0
GRID*             171290               00.0000000000E+004.2940382746E+01+
*       -1.050362217E+02               0
GRID*             171291               00.0000000000E+004.4306842755E+01+
*       -1.035932839E+02               0
GRID*             171292               00.0000000000E+004.0186786368E+01+
*       -1.050996797E+02               0
GRID*             171293               00.0000000000E+004.1567144285E+01+
*       -1.036740954E+02               0
GRID*             171294               00.0000000000E+003.7457052495E+01+
*       -1.051367846E+02               0
GRID*             171295               00.0000000000E+003.8846946919E+01+
*       -1.037313217E+02               0
GRID*             171296               00.0000000000E+003.4757676921E+01+
*       -1.051410546E+02               0
GRID*             171297               00.0000000000E+003.6157280578E+01+
*       -1.037602004E+02               0
GRID*             171298               00.0000000000E+003.2088196757E+01+
*       -1.051013319E+02               0
GRID*             171299               00.0000000000E+003.3501837201E+01+
*       -1.037475484E+02               0
GRID*             171300               00.0000000000E+002.9441823656E+01+
*       -1.050106824E+02               0
GRID*             171301               00.0000000000E+003.0873741825E+01+
*       -1.036796568E+02               0
GRID*             171302               00.0000000000E+002.6813774468E+01+
*       -1.048777682E+02               0
GRID*             171303               00.0000000000E+002.8261217973E+01+
*       -1.035574207E+02               0
GRID*             171304               00.0000000000E+002.4206880951E+01+
*       -1.047154568E+02               0
GRID*             171305               00.0000000000E+002.5658250000E+01+
*       -1.033957816E+02               0
GRID*             171306               00.0000000000E+002.1626613458E+01+
*       -1.045360432E+02               0
GRID*             171307               00.0000000000E+002.3066577296E+01+
*       -1.032104406E+02               0
GRID*             171308               00.0000000000E+002.0488615169E+01+
*       -1.030171219E+02               0
GRID*             171309               00.0000000000E+002.0750520993E+01+
*       -1.001510096E+02               0
GRID*             171310               00.0000000000E+002.1913673830E+01+
*       -1.016895630E+02               0
GRID*             171311               00.0000000000E+002.1012839847E+01+
*       -9.727469878E+01               0
GRID*             171312               00.0000000000E+002.2195264609E+01+
*       -9.883787012E+01               0
GRID*             171313               00.0000000000E+002.1286243268E+01+
*       -9.437917504E+01               0
GRID*             171314               00.0000000000E+002.2489121022E+01+
*       -9.597303354E+01               0
GRID*             171315               00.0000000000E+002.1571622226E+01+
*       -9.144397458E+01               0
GRID*             171316               00.0000000000E+002.2804511760E+01+
*       -9.307526358E+01               0
GRID*             171317               00.0000000000E+002.1846635050E+01+
*       -8.844829337E+01               0
GRID*             171318               00.0000000000E+002.3129185076E+01+
*       -9.011549664E+01               0
GRID*             171319               00.0000000000E+002.2065596621E+01+
*       -8.539726262E+01               0
GRID*             171320               00.0000000000E+002.3415843588E+01+
*       -8.708123590E+01               0
GRID*             171321               00.0000000000E+002.2223701990E+01+
*       -8.232340702E+01               0
GRID*             171322               00.0000000000E+002.3629378274E+01+
*       -8.399805921E+01               0
GRID*             171323               00.0000000000E+002.3776230288E+01+
*       -8.090255024E+01               0
GRID*             171324               00.0000000000E+002.5237437473E+01+
*       -8.257919025E+01               0
GRID*             171325               00.0000000000E+002.6818166001E+01+
*       -8.113506780E+01               0
GRID*             171326               00.0000000000E+002.9919796872E+01+
*       -8.134856125E+01               0
GRID*             171327               00.0000000000E+002.8314153021E+01+
*       -8.283111054E+01               0
GRID*             171328               00.0000000000E+003.3084601358E+01+
*       -8.150060034E+01               0
GRID*             171329               00.0000000000E+003.1468642497E+01+
*       -8.304247507E+01               0
GRID*             171330               00.0000000000E+003.6275089233E+01+
*       -8.152596497E+01               0
GRID*             171331               00.0000000000E+003.4679772656E+01+
*       -8.313615992E+01               0
GRID*             171332               00.0000000000E+003.9445804484E+01+
*       -8.147206620E+01               0
GRID*             171333               00.0000000000E+003.7891007930E+01+
*       -8.310191176E+01               0
GRID*             171334               00.0000000000E+004.2586527564E+01+
*       -8.136731213E+01               0
GRID*             171335               00.0000000000E+004.1068918455E+01+
*       -8.299862917E+01               0
GRID*             171336               00.0000000000E+004.5689283267E+01+
*       -8.121215977E+01               0
GRID*             171337               00.0000000000E+004.4208735008E+01+
*       -8.284224327E+01               0
GRID*             171338               00.0000000000E+004.8722600462E+01+
*       -8.100240581E+01               0
GRID*             171339               00.0000000000E+004.7285269288E+01+
*       -8.261922214E+01               0
GRID*             171340               00.0000000000E+005.1678035389E+01+
*       -8.081957278E+01               0
GRID*             171341               00.0000000000E+005.0268796156E+01+
*       -8.237833306E+01               0
GRID*             171342               00.0000000000E+005.4581304073E+01+
*       -8.070087680E+01               0
GRID*             171343               00.0000000000E+005.3169558603E+01+
*       -8.220028119E+01               0
GRID*             171344               00.0000000000E+005.7470479946E+01+
*       -8.066250283E+01               0
GRID*             171345               00.0000000000E+005.6027776032E+01+
*       -8.211639408E+01               0
GRID*             171346               00.0000000000E+006.0395441477E+01+
*       -8.070549838E+01               0
GRID*             171347               00.0000000000E+005.8898329560E+01+
*       -8.213919280E+01               0
GRID*             171348               00.0000000000E+006.3410043478E+01+
*       -8.078981544E+01               0
GRID*             171349               00.0000000000E+006.1850887695E+01+
*       -8.224854117E+01               0
GRID*             171350               00.0000000000E+006.6509880281E+01+
*       -8.079072606E+01               0
GRID*             171351               00.0000000000E+006.4920721224E+01+
*       -8.232772032E+01               0
GRID*             171352               00.0000000000E+006.9626357223E+01+
*       -8.072443119E+01               0
GRID*             171353               00.0000000000E+006.8054123362E+01+
*       -8.230163020E+01               0
GRID*             171354               00.0000000000E+007.2729807330E+01+
*       -8.061865605E+01               0
GRID*             171355               00.0000000000E+007.1182260769E+01+
*       -8.220941967E+01               0
GRID*             171356               00.0000000000E+007.4284635034E+01+
*       -8.208361098E+01               0
GRID*             171357               00.0000000000E+007.4336619556E+01+
*       -8.515956321E+01               0
GRID*             171358               00.0000000000E+007.2764600084E+01+
*       -8.369797990E+01               0
GRID*             171359               00.0000000000E+007.4432759149E+01+
*       -8.824847197E+01               0
GRID*             171360               00.0000000000E+007.2838663370E+01+
*       -8.679901928E+01               0
GRID*             171361               00.0000000000E+007.4589670049E+01+
*       -9.132970769E+01               0
GRID*             171362               00.0000000000E+007.2976850841E+01+
*       -8.990420677E+01               0
GRID*             171363               00.0000000000E+007.4791181690E+01+
*       -9.438340059E+01               0
GRID*             171364               00.0000000000E+007.3178965978E+01+
*       -9.298649074E+01               0
GRID*             171365               00.0000000000E+007.5017410728E+01+
*       -9.740210081E+01               0
GRID*             171366               00.0000000000E+007.3418980009E+01+
*       -9.602904895E+01               0
GRID*             171367               00.0000000000E+007.3676258957E+01+
*       -9.902916615E+01               0
GRID*             171368               00.0000000000E+007.0747813876E+01+
*       -9.933988442E+01               0
GRID*             171369               00.0000000000E+007.2068228267E+01+
*       -9.769771720E+01               0
GRID*             171370               00.0000000000E+006.7824658258E+01+
*       -9.969947780E+01               0
GRID*             171371               00.0000000000E+006.9117236926E+01+
*       -9.804171060E+01               0
GRID*             171372               00.0000000000E+006.4928550059E+01+
*       -1.001094112E+02               0
GRID*             171373               00.0000000000E+006.6185940109E+01+
*       -9.844360977E+01               0
GRID*             171374               00.0000000000E+006.2084957642E+01+
*       -1.005511414E+02               0
GRID*             171375               00.0000000000E+006.3307121479E+01+
*       -9.889688505E+01               0
GRID*             171376               00.0000000000E+005.9294872932E+01+
*       -1.009722581E+02               0
GRID*             171377               00.0000000000E+006.0499574647E+01+
*       -9.935742553E+01               0
GRID*             171378               00.0000000000E+005.6542154337E+01+
*       -1.013409146E+02               0
GRID*             171379               00.0000000000E+005.7751667849E+01+
*       -9.977287092E+01               0
GRID*             171380               00.0000000000E+005.3811272029E+01+
*       -1.016438978E+02               0
GRID*             171381               00.0000000000E+005.5040573368E+01+
*       -1.001199645E+02               0
GRID*             171382               00.0000000000E+005.1091105531E+01+
*       -1.018781687E+02               0
GRID*             171383               00.0000000000E+005.2348038837E+01+
*       -1.003925299E+02               0
GRID*             171384               00.0000000000E+004.8372814791E+01+
*       -1.020478826E+02               0
GRID*             171385               00.0000000000E+004.9660827802E+01+
*       -1.005924640E+02               0
GRID*             171386               00.0000000000E+004.5649177425E+01+
*       -1.021662676E+02               0
GRID*             171387               00.0000000000E+004.6967765154E+01+
*       -1.007302451E+02               0
GRID*             171388               00.0000000000E+004.2920460894E+01+
*       -1.022562036E+02               0
GRID*             171389               00.0000000000E+004.4262795564E+01+
*       -1.008291873E+02               0
GRID*             171390               00.0000000000E+004.0201514122E+01+
*       -1.023310803E+02               0
GRID*             171391               00.0000000000E+004.1554830731E+01+
*       -1.009131886E+02               0
GRID*             171392               00.0000000000E+003.7512296078E+01+
*       -1.023906760E+02               0
GRID*             171393               00.0000000000E+003.8866863282E+01+
*       -1.009904346E+02               0
GRID*             171394               00.0000000000E+003.4867487376E+01+
*       -1.024198477E+02               0
GRID*             171395               00.0000000000E+003.6222502876E+01+
*       -1.010503233E+02               0
GRID*             171396               00.0000000000E+003.2265917614E+01+
*       -1.023901213E+02               0
GRID*             171397               00.0000000000E+003.3631567790E+01+
*       -1.010624206E+02               0
GRID*             171398               00.0000000000E+002.9684123526E+01+
*       -1.022766803E+02               0
GRID*             171399               00.0000000000E+003.1076299315E+01+
*       -1.009871449E+02               0
GRID*             171400               00.0000000000E+002.7098564524E+01+
*       -1.021053822E+02               0
GRID*             171401               00.0000000000E+002.8521470077E+01+
*       -1.008246418E+02               0
GRID*             171402               00.0000000000E+002.4506382385E+01+
*       -1.019031183E+02               0
GRID*             171403               00.0000000000E+002.5946696909E+01+
*       -1.006127189E+02               0
GRID*             171404               00.0000000000E+002.3353478918E+01+
*       -1.003822407E+02               0
GRID*             171405               00.0000000000E+002.3650546110E+01+
*       -9.755604241E+01               0
GRID*             171406               00.0000000000E+002.4808760419E+01+
*       -9.910041304E+01               0
GRID*             171407               00.0000000000E+002.3981281165E+01+
*       -9.471645886E+01               0
GRID*             171408               00.0000000000E+002.5142706253E+01+
*       -9.629946773E+01               0
GRID*             171409               00.0000000000E+002.4361173008E+01+
*       -9.182443015E+01               0
GRID*             171410               00.0000000000E+002.5537942412E+01+
*       -9.346562543E+01               0
GRID*             171411               00.0000000000E+002.4761652006E+01+
*       -8.882330401E+01               0
GRID*             171412               00.0000000000E+002.5993639938E+01+
*       -9.053223752E+01               0
GRID*             171413               00.0000000000E+002.5049121046E+01+
*       -8.571330047E+01               0
GRID*             171414               00.0000000000E+002.6394929464E+01+
*       -8.745536858E+01               0
GRID*             171415               00.0000000000E+002.6657180245E+01+
*       -8.429443151E+01               0
GRID*             171416               00.0000000000E+002.8121694045E+01+
*       -8.606358132E+01               0
GRID*             171417               00.0000000000E+002.9778666821E+01+
*       -8.460026036E+01               0
GRID*             171418               00.0000000000E+003.3031735104E+01+
*       -8.485494041E+01               0
GRID*             171419               00.0000000000E+003.1341759428E+01+
*       -8.641272569E+01               0
GRID*             171420               00.0000000000E+003.6325276507E+01+
*       -8.480211701E+01               0
GRID*             171421               00.0000000000E+003.4677238954E+01+
*       -8.652089749E+01               0
GRID*             171422               00.0000000000E+003.9547026982E+01+
*       -8.467653432E+01               0
GRID*             171423               00.0000000000E+003.7981295559E+01+
*       -8.637673957E+01               0
GRID*             171424               00.0000000000E+004.2727252902E+01+
*       -8.452686705E+01               0
GRID*             171425               00.0000000000E+004.1205361429E+01+
*       -8.620477220E+01               0
GRID*             171426               00.0000000000E+004.5886913333E+01+
*       -8.432213782E+01               0
GRID*             171427               00.0000000000E+004.4405431226E+01+
*       -8.600676160E+01               0
GRID*             171428               00.0000000000E+004.8925161847E+01+
*       -8.395038906E+01               0
GRID*             171429               00.0000000000E+004.7526805892E+01+
*       -8.565330473E+01               0
GRID*             171430               00.0000000000E+005.1820487483E+01+
*       -8.367151658E+01               0
GRID*             171431               00.0000000000E+005.0476853174E+01+
*       -8.524357258E+01               0
GRID*             171432               00.0000000000E+005.4630828220E+01+
*       -8.351075266E+01               0
GRID*             171433               00.0000000000E+005.3281757100E+01+
*       -8.498198805E+01               0
GRID*             171434               00.0000000000E+005.7409192562E+01+
*       -8.348270748E+01               0
GRID*             171435               00.0000000000E+005.6012244751E+01+
*       -8.487706607E+01               0
GRID*             171436               00.0000000000E+006.0232824490E+01+
*       -8.361661028E+01               0
GRID*             171437               00.0000000000E+005.8743687492E+01+
*       -8.496012496E+01               0
GRID*             171438               00.0000000000E+006.3241651879E+01+
*       -8.390943231E+01               0
GRID*             171439               00.0000000000E+006.1623588674E+01+
*       -8.527750141E+01               0
GRID*             171440               00.0000000000E+006.6449053886E+01+
*       -8.392678491E+01               0
GRID*             171441               00.0000000000E+006.4769984542E+01+
*       -8.550849690E+01               0
GRID*             171442               00.0000000000E+006.9631385025E+01+
*       -8.383416039E+01               0
GRID*             171443               00.0000000000E+006.8026315550E+01+
*       -8.545931510E+01               0
GRID*             171444               00.0000000000E+007.1213724340E+01+
*       -8.532272062E+01               0
GRID*             171445               00.0000000000E+007.1305958552E+01+
*       -8.846875383E+01               0
GRID*             171446               00.0000000000E+006.9681019522E+01+
*       -8.699245517E+01               0
GRID*             171447               00.0000000000E+007.1515526476E+01+
*       -9.160056434E+01               0
GRID*             171448               00.0000000000E+006.9844634187E+01+
*       -9.016511141E+01               0
GRID*             171449               00.0000000000E+007.1783053587E+01+
*       -9.467750404E+01               0
GRID*             171450               00.0000000000E+007.0119614084E+01+
*       -9.329157764E+01               0
GRID*             171451               00.0000000000E+007.0432301845E+01+
*       -9.634617229E+01               0
GRID*             171452               00.0000000000E+006.7443605319E+01+
*       -9.672680728E+01               0
GRID*             171453               00.0000000000E+006.8758670239E+01+
*       -9.503126897E+01               0
GRID*             171454               00.0000000000E+006.4491288553E+01+
*       -9.719114803E+01               0
GRID*             171455               00.0000000000E+006.5748953763E+01+
*       -9.547434553E+01               0
GRID*             171456               00.0000000000E+006.1647832214E+01+
*       -9.773282324E+01               0
GRID*             171457               00.0000000000E+006.2831999287E+01+
*       -9.602708621E+01               0
GRID*             171458               00.0000000000E+005.8906038409E+01+
*       -9.822254883E+01               0
GRID*             171459               00.0000000000E+006.0054295976E+01+
*       -9.659794654E+01               0
GRID*             171460               00.0000000000E+005.6220863060E+01+
*       -9.862679991E+01               0
GRID*             171461               00.0000000000E+005.7375233620E+01+
*       -9.707647783E+01               0
GRID*             171462               00.0000000000E+005.3562178938E+01+
*       -9.894404234E+01               0
GRID*             171463               00.0000000000E+005.4742468630E+01+
*       -9.745087776E+01               0
GRID*             171464               00.0000000000E+005.0913946878E+01+
*       -9.917700815E+01               0
GRID*             171465               00.0000000000E+005.2128086979E+01+
*       -9.772852062E+01               0
GRID*             171466               00.0000000000E+004.8263057371E+01+
*       -9.932945768E+01               0
GRID*             171467               00.0000000000E+004.9516176447E+01+
*       -9.791400180E+01               0
GRID*             171468               00.0000000000E+004.5591524843E+01+
*       -9.941772803E+01               0
GRID*             171469               00.0000000000E+004.6886817060E+01+
*       -9.801694057E+01               0
GRID*             171470               00.0000000000E+004.2889453615E+01+
*       -9.949436412E+01               0
GRID*             171471               00.0000000000E+004.4218182894E+01+
*       -9.808290484E+01               0
GRID*             171472               00.0000000000E+004.0186220729E+01+
*       -9.958268763E+01               0
GRID*             171473               00.0000000000E+004.1520843613E+01+
*       -9.816386318E+01               0
GRID*             171474               00.0000000000E+003.7521873091E+01+
*       -9.968228496E+01               0
GRID*             171475               00.0000000000E+003.8841230538E+01+
*       -9.827453801E+01               0
GRID*             171476               00.0000000000E+003.4931266166E+01+
*       -9.976713210E+01               0
GRID*             171477               00.0000000000E+003.6230636381E+01+
*       -9.839909380E+01               0
GRID*             171478               00.0000000000E+003.2421392472E+01+
*       -9.977427605E+01               0
GRID*             171479               00.0000000000E+003.3721090848E+01+
*       -9.847898754E+01               0
GRID*             171480               00.0000000000E+002.9930749638E+01+
*       -9.961080120E+01               0
GRID*             171481               00.0000000000E+003.1275842795E+01+
*       -9.839793238E+01               0
GRID*             171482               00.0000000000E+002.7393131359E+01+
*       -9.936759750E+01               0
GRID*             171483               00.0000000000E+002.8802410920E+01+
*       -9.815375687E+01               0
GRID*             171484               00.0000000000E+002.6255194869E+01+
*       -9.785529162E+01               0
GRID*             171485               00.0000000000E+002.6626971893E+01+
*       -9.510810802E+01               0
GRID*             171486               00.0000000000E+002.7739460510E+01+
*       -9.666393191E+01               0
GRID*             171487               00.0000000000E+002.7122019679E+01+
*       -9.231157045E+01               0
GRID*             171488               00.0000000000E+002.8211049159E+01+
*       -9.395405304E+01               0
GRID*             171489               00.0000000000E+002.7772857725E+01+
*       -8.931479206E+01               0
GRID*             171490               00.0000000000E+002.8901237466E+01+
*       -9.109412499E+01               0
GRID*             171491               00.0000000000E+002.9499622306E+01+
*       -8.792300480E+01               0
GRID*             171492               00.0000000000E+003.1088345547E+01+
*       -9.009656534E+01               0
GRID*             171493               00.0000000000E+003.2930482669E+01+
*       -8.858628623E+01               0
GRID*             171494               00.0000000000E+003.6443656563E+01+
*       -8.815690791E+01               0
GRID*             171495               00.0000000000E+003.4696900278E+01+
*       -9.022229665E+01               0
GRID*             171496               00.0000000000E+003.9681998523E+01+
*       -8.790308911E+01               0
GRID*             171497               00.0000000000E+003.8144359527E+01+
*       -8.968325745E+01               0
GRID*             171498               00.0000000000E+004.2877254907E+01+
*       -8.773393991E+01               0
GRID*             171499               00.0000000000E+004.1353892001E+01+
*       -8.943225682E+01               0
GRID*             171500               00.0000000000E+004.6200938778E+01+
*       -8.760512968E+01               0
GRID*             171501               00.0000000000E+004.4672762459E+01+
*       -8.933230800E+01               0
GRID*             171502               00.0000000000E+004.9252169505E+01+
*       -8.680650741E+01               0
GRID*             171503               00.0000000000E+004.7926302391E+01+
*       -8.875833236E+01               0
GRID*             171504               00.0000000000E+005.2033876021E+01+
*       -8.640314305E+01               0
GRID*             171505               00.0000000000E+005.0809192353E+01+
*       -8.796607789E+01               0
GRID*             171506               00.0000000000E+005.4701658054E+01+
*       -8.618714946E+01               0
GRID*             171507               00.0000000000E+005.3453776975E+01+
*       -8.760830446E+01               0
GRID*             171508               00.0000000000E+005.7297252819E+01+
*       -8.614433276E+01               0
GRID*             171509               00.0000000000E+005.5986666122E+01+
*       -8.745441615E+01               0
GRID*             171510               00.0000000000E+005.9891440134E+01+
*       -8.637262042E+01               0
GRID*             171511               00.0000000000E+005.8445005460E+01+
*       -8.755682823E+01               0
GRID*             171512               00.0000000000E+006.2831351236E+01+
*       -8.733453659E+01               0
GRID*             171513               00.0000000000E+006.1099202695E+01+
*       -8.842965561E+01               0
GRID*             171514               00.0000000000E+006.6401957037E+01+
*       -8.717967553E+01               0
GRID*             171515               00.0000000000E+006.4463323730E+01+
*       -8.900571522E+01               0
GRID*             171516               00.0000000000E+006.8056661009E+01+
*       -8.871281560E+01               0
GRID*             171517               00.0000000000E+006.8384895978E+01+
*       -9.193383899E+01               0
GRID*             171518               00.0000000000E+006.6596922799E+01+
*       -9.048154318E+01               0
GRID*             171519               00.0000000000E+006.7023952132E+01+
*       -9.367353032E+01               0
GRID*             171520               00.0000000000E+006.3936057606E+01+
*       -9.419686078E+01               0
GRID*             171521               00.0000000000E+006.5211055976E+01+
*       -9.239604556E+01               0
GRID*             171522               00.0000000000E+006.1103120543E+01+
*       -9.496917571E+01               0
GRID*             171523               00.0000000000E+006.2207178862E+01+
*       -9.313895027E+01               0
GRID*             171524               00.0000000000E+005.8453000394E+01+
*       -9.555993414E+01               0
GRID*             171525               00.0000000000E+005.9501824962E+01+
*       -9.393116331E+01               0
GRID*             171526               00.0000000000E+005.5863927247E+01+
*       -9.600003875E+01               0
GRID*             171527               00.0000000000E+005.6941694021E+01+
*       -9.448349506E+01               0
GRID*             171528               00.0000000000E+005.3292288701E+01+
*       -9.632742745E+01               0
GRID*             171529               00.0000000000E+005.4413747318E+01+
*       -9.487658844E+01               0
GRID*             171530               00.0000000000E+005.0728801713E+01+
*       -9.655494515E+01               0
GRID*             171531               00.0000000000E+005.1893003435E+01+
*       -9.515385199E+01               0
GRID*             171532               00.0000000000E+004.8164639843E+01+
*       -9.667512252E+01               0
GRID*             171533               00.0000000000E+004.9377265109E+01+
*       -9.531606588E+01               0
GRID*             171534               00.0000000000E+004.5558645559E+01+
*       -9.668262678E+01               0
GRID*             171535               00.0000000000E+004.6836468343E+01+
*       -9.534080874E+01               0
GRID*             171536               00.0000000000E+004.2856773729E+01+
*       -9.672409064E+01               0
GRID*             171537               00.0000000000E+004.4197236395E+01+
*       -9.532381259E+01               0
GRID*             171538               00.0000000000E+004.0129702864E+01+
*       -9.682903919E+01               0
GRID*             171539               00.0000000000E+004.1465632980E+01+
*       -9.538926665E+01               0
GRID*             171540               00.0000000000E+003.7453252920E+01+
*       -9.699829596E+01               0
GRID*             171541               00.0000000000E+003.8741725246E+01+
*       -9.555279714E+01               0
GRID*             171542               00.0000000000E+003.4907616909E+01+
*       -9.720577268E+01               0
GRID*             171543               00.0000000000E+003.6130233449E+01+
*       -9.580497484E+01               0
GRID*             171544               00.0000000000E+003.2552518949E+01+
*       -9.734403639E+01               0
GRID*             171545               00.0000000000E+003.3739045010E+01+
*       -9.607082153E+01               0
GRID*             171546               00.0000000000E+003.0225153799E+01+
*       -9.704469118E+01               0
GRID*             171547               00.0000000000E+003.1501829953E+01+
*       -9.599079519E+01               0
GRID*             171548               00.0000000000E+002.9162203388E+01+
*       -9.555486622E+01               0
GRID*             171549               00.0000000000E+002.9740911042E+01+
*       -9.298057470E+01               0
GRID*             171550               00.0000000000E+003.0692065270E+01+
*       -9.458138788E+01               0
GRID*             171551               00.0000000000E+003.1928019123E+01+
*       -9.198301504E+01               0
GRID*             171552               00.0000000000E+006.3077456907E+01+
*       -9.092021760E+01               0
GRID*             171553               00.0000000000E+003.2652298435E+01+
*       -9.531181317E+01               0
GRID*             171554               00.0000000000E+003.1842533753E+01+
*       -9.390240585E+01               0
GRID*             171555               00.0000000000E+003.5789844525E+01+
*       -9.320374069E+01               0
GRID*             171556               00.0000000000E+003.6811974223E+01+
*       -9.137807682E+01               0
GRID*             171557               00.0000000000E+003.3674770580E+01+
*       -9.204796052E+01               0
GRID*             171558               00.0000000000E+003.3589285210E+01+
*       -9.396735133E+01               0
GRID*             171559               00.0000000000E+005.9251843081E+01+
*       -8.859892773E+01               0
GRID*             171560               00.0000000000E+005.9396595575E+01+
*       -9.032281046E+01               0
GRID*             171561               00.0000000000E+006.1243955189E+01+
*       -9.015353834E+01               0
GRID*             171562               00.0000000000E+006.0373677145E+01+
*       -9.237227101E+01               0
GRID*             171563               00.0000000000E+005.7177918645E+01+
*       -8.854665967E+01               0
GRID*             171564               00.0000000000E+005.7984756267E+01+
*       -8.958875917E+01               0
GRID*             171565               00.0000000000E+005.7386818051E+01+
*       -9.075100565E+01               0
GRID*             171566               00.0000000000E+005.8798657360E+01+
*       -9.148505695E+01               0
GRID*             171567               00.0000000000E+005.7926805177E+01+
*       -9.304394924E+01               0
GRID*             171568               00.0000000000E+003.7244046190E+01+
*       -9.428235584E+01               0
GRID*             171569               00.0000000000E+004.0018707645E+01+
*       -9.401424816E+01               0
GRID*             171570               00.0000000000E+003.8521028588E+01+
*       -9.274380686E+01               0
GRID*             171571               00.0000000000E+003.9853413892E+01+
*       -9.104898750E+01               0
GRID*             171572               00.0000000000E+005.4830894255E+01+
*       -8.869160702E+01               0
GRID*             171573               00.0000000000E+005.6022146779E+01+
*       -8.978385053E+01               0
GRID*             171574               00.0000000000E+005.5096239741E+01+
*       -9.107626113E+01               0
GRID*             171575               00.0000000000E+005.6460911013E+01+
*       -9.204341625E+01               0
GRID*             171576               00.0000000000E+005.5475799858E+01+
*       -9.348296207E+01               0
GRID*             171577               00.0000000000E+004.2846929781E+01+
*       -9.389026403E+01               0
GRID*             171578               00.0000000000E+004.1400004445E+01+
*       -9.251524553E+01               0
GRID*             171579               00.0000000000E+004.2900482554E+01+
*       -9.089851485E+01               0
GRID*             171580               00.0000000000E+005.2342437257E+01+
*       -8.895244496E+01               0
GRID*             171581               00.0000000000E+005.3719554538E+01+
*       -9.003574752E+01               0
GRID*             171582               00.0000000000E+005.2685549001E+01+
*       -9.137209678E+01               0
GRID*             171583               00.0000000000E+005.4062234204E+01+
*       -9.241261038E+01               0
GRID*             171584               00.0000000000E+005.3000181664E+01+
*       -9.380623676E+01               0
GRID*             171585               00.0000000000E+004.9802162775E+01+
*       -8.934448444E+01               0
GRID*             171586               00.0000000000E+005.1335407680E+01+
*       -9.033085152E+01               0
GRID*             171587               00.0000000000E+005.0288440539E+01+
*       -9.164652968E+01               0
GRID*             171588               00.0000000000E+005.1638581861E+01+
*       -9.268777494E+01               0
GRID*             171589               00.0000000000E+005.0531403632E+01+
*       -9.403539018E+01               0
GRID*             171590               00.0000000000E+004.5619261781E+01+
*       -9.391240939E+01               0
GRID*             171591               00.0000000000E+004.4268955166E+01+
*       -9.247886082E+01               0
GRID*             171592               00.0000000000E+004.6041235071E+01+
*       -9.091265396E+01               0
GRID*             171593               00.0000000000E+004.7250659971E+01+
*       -9.006253908E+01               0
GRID*             171594               00.0000000000E+004.9126520355E+01+
*       -9.064869116E+01               0
GRID*             171595               00.0000000000E+004.9251812175E+01+
*       -9.284816596E+01               0
GRID*             171596               00.0000000000E+004.8089891990E+01+
*       -9.185032744E+01               0
GRID*             171597               00.0000000000E+004.8097673652E+01+
*       -9.412884167E+01               0
GRID*             171598               00.0000000000E+007.8917044033E+01+
*       -3.752340578E+01               0
GRID*             171599               00.0000000000E+008.0391768270E+01+
*       -3.928024273E+01               0
GRID*             171600               00.0000000000E+008.2121464202E+01+
*       -3.759613563E+01               0
GRID*             171601               00.0000000000E+008.0646739965E+01+
*       -3.583929867E+01               0
GRID*             171602               00.0000000000E+007.9427108463E+01+
*       -3.376896592E+01               0
GRID*             171603               00.0000000000E+008.2517789473E+01+
*       -3.421409306E+01               0
GRID*             171604               00.0000000000E+008.1298157971E+01+
*       -3.214376031E+01               0
GRID*             171605               00.0000000000E+007.8906714255E+01+
*       -2.814687361E+01               0
GRID*             171606               00.0000000000E+007.9628313912E+01+
*       -2.877833506E+01               0
GRID*             171607               00.0000000000E+008.0371601184E+01+
*       -2.778146106E+01               0
GRID*             171608               00.0000000000E+008.0715647792E+01+
*       -3.046764415E+01               0
GRID*             171609               00.0000000000E+008.3157035968E+01+
*       -3.101401869E+01               0
GRID*             171610               00.0000000000E+008.2574525789E+01+
*       -2.933790253E+01               0
GRID*             171611               00.0000000000E+008.0979486259E+01+
*       -2.878359633E+01               0
GRID*             171612               00.0000000000E+007.9364475445E+01+
*       -3.046238288E+01               0
GRID*             171613               00.0000000000E+008.6549329383E+01+
*       -3.945816709E+01               0
GRID*             171614               00.0000000000E+008.6692907568E+01+
*       -3.631139010E+01               0
GRID*             171615               00.0000000000E+008.5150642932E+01+
*       -3.776988772E+01               0
GRID*             171616               00.0000000000E+008.3521458899E+01+
*       -3.932305619E+01               0
GRID*             171617               00.0000000000E+008.3750648235E+01+
*       -3.604296715E+01               0
GRID*             171618               00.0000000000E+008.6929417374E+01+
*       -3.312195297E+01               0
GRID*             171619               00.0000000000E+008.5406097960E+01+
*       -3.452454482E+01               0
GRID*             171620               00.0000000000E+008.4173239199E+01+
*       -3.269567073E+01               0
GRID*             171621               00.0000000000E+008.5779720416E+01+
*       -3.117161812E+01               0
GRID*             171622               00.0000000000E+008.7257570566E+01+
*       -2.987103796E+01               0
GRID*             171623               00.0000000000E+008.5446877997E+01+
*       -2.830419843E+01               0
GRID*             171624               00.0000000000E+008.6704728527E+01+
*       -2.851841657E+01               0
GRID*             171625               00.0000000000E+008.4763517185E+01+
*       -2.948996607E+01               0
GRID*             171626               00.0000000000E+007.7138507394E+01+
*       -3.942529447E+01               0
GRID*             171627               00.0000000000E+007.7214067522E+01+
*       -3.587138750E+01               0
GRID*             171628               00.0000000000E+007.5435530883E+01+
*       -3.777327619E+01               0
GRID*             171629               00.0000000000E+007.2138811010E+01+
*       -3.869430783E+01               0
GRID*             171630               00.0000000000E+007.3867091321E+01+
*       -3.984847064E+01               0
GRID*             171631               00.0000000000E+007.3707250572E+01+
*       -3.661911338E+01               0
GRID*             171632               00.0000000000E+006.9088538293E+01+
*       -3.918505932E+01               0
GRID*             171633               00.0000000000E+007.0709551209E+01+
*       -4.035116030E+01               0
GRID*             171634               00.0000000000E+007.0517798095E+01+
*       -3.752820685E+01               0
GRID*             171635               00.0000000000E+006.6087369644E+01+
*       -3.952072318E+01               0
GRID*             171636               00.0000000000E+006.7651195681E+01+
*       -4.072640985E+01               0
GRID*             171637               00.0000000000E+006.7524712256E+01+
*       -3.797937265E+01               0
GRID*             171638               00.0000000000E+006.3089423472E+01+
*       -3.976899033E+01               0
GRID*             171639               00.0000000000E+006.4628059078E+01+
*       -4.100878281E+01               0
GRID*             171640               00.0000000000E+006.4548734038E+01+
*       -3.828093070E+01               0
GRID*             171641               00.0000000000E+006.0083252792E+01+
*       -3.995642029E+01               0
GRID*             171642               00.0000000000E+006.1612276663E+01+
*       -4.122406846E+01               0
GRID*             171643               00.0000000000E+006.1560399601E+01+
*       -3.850134216E+01               0
GRID*             171644               00.0000000000E+005.7066622605E+01+
*       -4.009583415E+01               0
GRID*             171645               00.0000000000E+005.8593445387E+01+
*       -4.138717977E+01               0
GRID*             171646               00.0000000000E+005.8556430010E+01+
*       -3.866507466E+01               0
GRID*             171647               00.0000000000E+005.4039922324E+01+
*       -4.019433261E+01               0
GRID*             171648               00.0000000000E+005.5568240285E+01+
*       -4.150670075E+01               0
GRID*             171649               00.0000000000E+005.5538304644E+01+
*       -3.878346601E+01               0
GRID*             171650               00.0000000000E+005.1004306251E+01+
*       -4.025610137E+01               0
GRID*             171651               00.0000000000E+005.2536113613E+01+
*       -4.158777679E+01               0
GRID*             171652               00.0000000000E+005.2508114961E+01+
*       -3.886265719E+01               0
GRID*             171653               00.0000000000E+004.7961250199E+01+
*       -4.028351356E+01               0
GRID*             171654               00.0000000000E+004.9497692154E+01+
*       -4.163349500E+01               0
GRID*             171655               00.0000000000E+004.9467864296E+01+
*       -3.890611993E+01               0
GRID*             171656               00.0000000000E+004.4912577033E+01+
*       -4.027760305E+01               0
GRID*             171657               00.0000000000E+004.6454270335E+01+
*       -4.164552558E+01               0
GRID*             171658               00.0000000000E+004.6419556897E+01+
*       -3.891559103E+01               0
GRID*             171659               00.0000000000E+004.1860644228E+01+
*       -4.023829678E+01               0
GRID*             171660               00.0000000000E+004.3407733853E+01+
*       -4.162444648E+01               0
GRID*             171661               00.0000000000E+004.3365487409E+01+
*       -3.889145336E+01               0
GRID*             171662               00.0000000000E+003.8808532672E+01+
*       -4.016455945E+01               0
GRID*             171663               00.0000000000E+004.0360634866E+01+
*       -4.156995099E+01               0
GRID*             171664               00.0000000000E+004.0308542034E+01+
*       -3.883290524E+01               0
GRID*             171665               00.0000000000E+003.5760046908E+01+
*       -4.005452948E+01               0
GRID*             171666               00.0000000000E+003.7316221921E+01+
*       -4.148105758E+01               0
GRID*             171667               00.0000000000E+003.7252357659E+01+
*       -3.873803136E+01               0
GRID*             171668               00.0000000000E+003.2719581047E+01+
*       -3.990554797E+01               0
GRID*             171669               00.0000000000E+003.4278266009E+01+
*       -4.135636895E+01               0
GRID*             171670               00.0000000000E+003.4201361946E+01+
*       -3.860370851E+01               0
GRID*             171671               00.0000000000E+002.9692109562E+01+
*       -3.971407336E+01               0
GRID*             171672               00.0000000000E+003.1250764592E+01+
*       -4.119439599E+01               0
GRID*             171673               00.0000000000E+003.1160926017E+01+
*       -3.842522534E+01               0
GRID*             171674               00.0000000000E+002.6682793434E+01+
*       -3.947632400E+01               0
GRID*             171675               00.0000000000E+002.8237585180E+01+
*       -4.099430034E+01               0
GRID*             171676               00.0000000000E+002.8137317816E+01+
*       -3.819609702E+01               0
GRID*             171677               00.0000000000E+002.3694930223E+01+
*       -3.919171213E+01               0
GRID*             171678               00.0000000000E+002.5241673292E+01+
*       -4.075808167E+01               0
GRID*             171679               00.0000000000E+002.5136050365E+01+
*       -3.790995447E+01               0
GRID*             171680               00.0000000000E+002.0730409179E+01+
*       -3.887567964E+01               0
GRID*             171681               00.0000000000E+002.2264231952E+01+
*       -4.049590214E+01               0
GRID*             171682               00.0000000000E+002.2161107450E+01+
*       -3.757148963E+01               0
GRID*             171683               00.0000000000E+001.7791114012E+01+
*       -3.858888549E+01               0
GRID*             171684               00.0000000000E+001.9304076226E+01+
*       -4.023365513E+01               0
GRID*             171685               00.0000000000E+001.9217446965E+01+
*       -3.723091001E+01               0
GRID*             171686               00.0000000000E+001.4852458567E+01+
*       -3.831329009E+01               0
GRID*             171687               00.0000000000E+001.6353815416E+01+
*       -3.999762631E+01               0
GRID*             171688               00.0000000000E+001.6289757164E+01+
*       -3.690454927E+01               0
GRID*             171689               00.0000000000E+001.3408270521E+01+
*       -3.983162311E+01               0
GRID*             171690               00.0000000000E+001.3360237574E+01+
*       -3.671934108E+01               0
GRID*             171691               00.0000000000E+001.3277422377E+01+
*       -3.336674417E+01               0
GRID*             171692               00.0000000000E+001.4792774325E+01+
*       -3.496864778E+01               0
GRID*             171693               00.0000000000E+001.2566676313E+01+
*       -3.024814870E+01               0
GRID*             171694               00.0000000000E+001.4218570415E+01+
*       -3.161716837E+01               0
GRID*             171695               00.0000000000E+001.2506069942E+01+
*       -2.732842674E+01               0
GRID*             171696               00.0000000000E+001.3638435297E+01+
*       -2.859267321E+01               0
GRID*             171697               00.0000000000E+001.5268174072E+01+
*       -2.832926938E+01               0
GRID*             171698               00.0000000000E+001.4556613517E+01+
*       -2.977194154E+01               0
GRID*             171699               00.0000000000E+001.6838812659E+01+
*       -2.819844739E+01               0
GRID*             171700               00.0000000000E+001.6256988734E+01+
*       -2.937771572E+01               0
GRID*             171701               00.0000000000E+001.8367749528E+01+
*       -2.803595003E+01               0
GRID*             171702               00.0000000000E+001.7856561329E+01+
*       -2.908439637E+01               0
GRID*             171703               00.0000000000E+001.9682441845E+01+
*       -2.772371015E+01               0
GRID*             171704               00.0000000000E+001.9200189084E+01+
*       -2.860965948E+01               0
GRID*             171705               00.0000000000E+002.1101494057E+01+
*       -2.805330938E+01               0
GRID*             171706               00.0000000000E+002.0433933613E+01+
*       -2.862701955E+01               0
GRID*             171707               00.0000000000E+002.2897893111E+01+
*       -2.833353649E+01               0
GRID*             171708               00.0000000000E+002.2149384879E+01+
*       -2.923684626E+01               0
GRID*             171709               00.0000000000E+002.5867916983E+01+
*       -2.887882567E+01               0
GRID*             171710               00.0000000000E+002.4630468910E+01+
*       -2.978598255E+01               0
GRID*             171711               00.0000000000E+002.8981226792E+01+
*       -2.908456609E+01               0
GRID*             171712               00.0000000000E+002.7600350662E+01+
*       -3.019688278E+01               0
GRID*             171713               00.0000000000E+003.2214897977E+01+
*       -2.925916701E+01               0
GRID*             171714               00.0000000000E+003.0717500761E+01+
*       -3.044000334E+01               0
GRID*             171715               00.0000000000E+003.5422102964E+01+
*       -2.939420826E+01               0
GRID*             171716               00.0000000000E+003.3881796946E+01+
*       -3.061510887E+01               0
GRID*             171717               00.0000000000E+003.8589345977E+01+
*       -2.949415977E+01               0
GRID*             171718               00.0000000000E+003.7035946076E+01+
*       -3.074252598E+01               0
GRID*             171719               00.0000000000E+004.1723749903E+01+
*       -2.956267479E+01               0
GRID*             171720               00.0000000000E+004.0168245841E+01+
*       -3.083213134E+01               0
GRID*             171721               00.0000000000E+004.4832936188E+01+
*       -2.960244559E+01               0
GRID*             171722               00.0000000000E+004.3279195497E+01+
*       -3.088902261E+01               0
GRID*             171723               00.0000000000E+004.7921383724E+01+
*       -2.961548662E+01               0
GRID*             171724               00.0000000000E+004.6371062115E+01+
*       -3.091617046E+01               0
GRID*             171725               00.0000000000E+005.0991211479E+01+
*       -2.960319433E+01               0
GRID*             171726               00.0000000000E+004.9445250842E+01+
*       -3.091533563E+01               0
GRID*             171727               00.0000000000E+005.4043126503E+01+
*       -2.956620873E+01               0
GRID*             171728               00.0000000000E+005.2502060776E+01+
*       -3.088727669E+01               0
GRID*             171729               00.0000000000E+005.7076440527E+01+
*       -2.950353184E+01               0
GRID*             171730               00.0000000000E+005.5540585822E+01+
*       -3.083164990E+01               0
GRID*             171731               00.0000000000E+006.0088906971E+01+
*       -2.941462652E+01               0
GRID*             171732               00.0000000000E+005.8558246085E+01+
*       -3.074748458E+01               0
GRID*             171733               00.0000000000E+006.3075952464E+01+
*       -2.930038696E+01               0
GRID*             171734               00.0000000000E+006.1549785275E+01+
*       -3.063431993E+01               0
GRID*             171735               00.0000000000E+006.6029228344E+01+
*       -2.916497214E+01               0
GRID*             171736               00.0000000000E+006.4505323074E+01+
*       -3.049385386E+01               0
GRID*             171737               00.0000000000E+006.8934086398E+01+
*       -2.901942173E+01               0
GRID*             171738               00.0000000000E+006.7407257044E+01+
*       -3.033321516E+01               0
GRID*             171739               00.0000000000E+007.1765141473E+01+
*       -2.888618192E+01               0
GRID*             171740               00.0000000000E+007.0228165798E+01+
*       -3.016958141E+01               0
GRID*             171741               00.0000000000E+007.4454666147E+01+
*       -2.878231816E+01               0
GRID*             171742               00.0000000000E+007.2934218665E+01+
*       -3.002070675E+01               0
GRID*             171743               00.0000000000E+007.7108975304E+01+
*       -2.840524136E+01               0
GRID*             171744               00.0000000000E+007.5536040170E+01+
*       -2.980597672E+01               0
GRID*             171745               00.0000000000E+007.7865688033E+01+
*       -2.940211535E+01               0
GRID*             171746               00.0000000000E+007.8188450601E+01+
*       -3.213692148E+01               0
GRID*             171747               00.0000000000E+007.6689663188E+01+
*       -3.107665395E+01               0
GRID*             171748               00.0000000000E+007.5975409660E+01+
*       -3.423934306E+01               0
GRID*             171749               00.0000000000E+001.7711119149E+01+
*       -3.553679746E+01               0
GRID*             171750               00.0000000000E+001.6214136310E+01+
*       -3.360089597E+01               0
GRID*             171751               00.0000000000E+001.6852421836E+01+
*       -3.145885644E+01               0
GRID*             171752               00.0000000000E+001.7422645017E+01+
*       -3.034322914E+01               0
GRID*             171753               00.0000000000E+001.5686765553E+01+
*       -3.049334301E+01               0
GRID*             171754               00.0000000000E+001.5348722450E+01+
*       -3.233856985E+01               0
GRID*             171755               00.0000000000E+001.7717835696E+01+
*       -3.272118257E+01               0
GRID*             171756               00.0000000000E+002.0604276977E+01+
*       -3.587417663E+01               0
GRID*             171757               00.0000000000E+001.9097949161E+01+
*       -3.418006408E+01               0
GRID*             171758               00.0000000000E+001.9023268530E+01+
*       -3.128612264E+01               0
GRID*             171759               00.0000000000E+002.0403381995E+01+
*       -3.274500415E+01               0
GRID*             171760               00.0000000000E+002.0690929371E+01+
*       -3.004464994E+01               0
GRID*             171761               00.0000000000E+001.9457184842E+01+
*       -3.002728986E+01               0
GRID*             171762               00.0000000000E+007.1540244479E+01+
*       -3.129677441E+01               0
GRID*             171763               00.0000000000E+007.2720540981E+01+
*       -3.243838015E+01               0
GRID*             171764               00.0000000000E+007.4114515168E+01+
*       -3.116231249E+01               0
GRID*             171765               00.0000000000E+007.5268138186E+01+
*       -3.243298973E+01               0
GRID*             171766               00.0000000000E+007.2613835860E+01+
*       -3.469026422E+01               0
GRID*             171767               00.0000000000E+007.1768079573E+01+
*       -3.605839381E+01               0
GRID*             171768               00.0000000000E+007.4553006859E+01+
*       -3.525098379E+01               0
GRID*             171769               00.0000000000E+007.3845735384E+01+
*       -3.344463046E+01               0
GRID*             171770               00.0000000000E+007.1488641457E+01+
*       -3.368401390E+01               0
GRID*             171771               00.0000000000E+007.0162512194E+01+
*       -3.504259388E+01               0
GRID*             171772               00.0000000000E+006.8912230716E+01+
*       -3.651240693E+01               0
GRID*             171773               00.0000000000E+007.0115439230E+01+
*       -3.261406828E+01               0
GRID*             171774               00.0000000000E+006.8789309967E+01+
*       -3.397264826E+01               0
GRID*             171775               00.0000000000E+006.8803360549E+01+
*       -3.148687528E+01               0
GRID*             171776               00.0000000000E+006.4466696212E+01+
*       -3.304505003E+01               0
GRID*             171777               00.0000000000E+006.3009973661E+01+
*       -3.444397797E+01               0
GRID*             171778               00.0000000000E+006.4482481845E+01+
*       -3.563201351E+01               0
GRID*             171779               00.0000000000E+006.5939204396E+01+
*       -3.423308557E+01               0
GRID*             171780               00.0000000000E+006.1521022038E+01+
*       -3.321762756E+01               0
GRID*             171781               00.0000000000E+006.0036237595E+01+
*       -3.460864422E+01               0
GRID*             171782               00.0000000000E+006.1525189218E+01+
*       -3.583499464E+01               0
GRID*             171783               00.0000000000E+005.8535254473E+01+
*       -3.335248313E+01               0
GRID*             171784               00.0000000000E+005.7033764263E+01+
*       -3.473221142E+01               0
GRID*             171785               00.0000000000E+005.8534747385E+01+
*       -3.598837251E+01               0
GRID*             171786               00.0000000000E+005.5522532004E+01+
*       -3.345155107E+01               0
GRID*             171787               00.0000000000E+005.4010462660E+01+
*       -3.481893738E+01               0
GRID*             171788               00.0000000000E+005.5521694919E+01+
*       -3.609959774E+01               0
GRID*             171789               00.0000000000E+005.2489581923E+01+
*       -3.351727753E+01               0
GRID*             171790               00.0000000000E+005.0970658799E+01+
*       -3.487185266E+01               0
GRID*             171791               00.0000000000E+005.2491539536E+01+
*       -3.617351251E+01               0
GRID*             171792               00.0000000000E+004.9440016685E+01+
*       -3.355153707E+01               0
GRID*             171793               00.0000000000E+004.7916970434E+01+
*       -3.489274489E+01               0
GRID*             171794               00.0000000000E+004.9447612548E+01+
*       -3.621306048E+01               0
GRID*             171795               00.0000000000E+004.6375918227E+01+
*       -3.355516892E+01               0
GRID*             171796               00.0000000000E+004.4851281160E+01+
*       -3.488207349E+01               0
GRID*             171797               00.0000000000E+004.6392333366E+01+
*       -3.621964946E+01               0
GRID*             171798               00.0000000000E+004.3298660445E+01+
*       -3.352778471E+01               0
GRID*             171799               00.0000000000E+004.1775334424E+01+
*       -3.483901462E+01               0
GRID*             171800               00.0000000000E+004.3327955138E+01+
*       -3.619330340E+01               0
GRID*             171801               00.0000000000E+004.0209372670E+01+
*       -3.346770547E+01               0
GRID*             171802               00.0000000000E+003.8691090490E+01+
*       -3.476139311E+01               0
GRID*             171803               00.0000000000E+004.0257052244E+01+
*       -3.613270226E+01               0
GRID*             171804               00.0000000000E+003.7109519348E+01+
*       -3.337159988E+01               0
GRID*             171805               00.0000000000E+003.5601306978E+01+
*       -3.464522556E+01               0
GRID*             171806               00.0000000000E+003.7182878121E+01+
*       -3.603501879E+01               0
GRID*             171807               00.0000000000E+003.4002705267E+01+
*       -3.323322940E+01               0
GRID*             171808               00.0000000000E+003.2511423541E+01+
*       -3.448322162E+01               0
GRID*             171809               00.0000000000E+003.4110025252E+01+
*       -3.589521778E+01               0
GRID*             171810               00.0000000000E+003.0899019302E+01+
*       -3.304011479E+01               0
GRID*             171811               00.0000000000E+002.9433417722E+01+
*       -3.426121908E+01               0
GRID*             171812               00.0000000000E+003.1045821960E+01+
*       -3.570432591E+01               0
GRID*             171813               00.0000000000E+002.7821109122E+01+
*       -3.276518931E+01               0
GRID*             171814               00.0000000000E+002.6389103575E+01+
*       -3.395046680E+01               0
GRID*             171815               00.0000000000E+002.8001412174E+01+
*       -3.544649657E+01               0
GRID*             171816               00.0000000000E+002.4787068899E+01+
*       -3.233376405E+01               0
GRID*             171817               00.0000000000E+002.3384437267E+01+
*       -3.347805362E+01               0
GRID*             171818               00.0000000000E+002.4986471942E+01+
*       -3.509475637E+01               0
GRID*             171819               00.0000000000E+006.7382503157E+01+
*       -3.536888270E+01               0
GRID*             171820               00.0000000000E+006.5994984697E+01+
*       -3.683584843E+01               0
GRID*             171821               00.0000000000E+006.3036231186E+01+
*       -3.707709579E+01               0
GRID*             171822               00.0000000000E+006.0049357633E+01+
*       -3.725924101E+01               0
GRID*             171823               00.0000000000E+005.7041819761E+01+
*       -3.739420616E+01               0
GRID*             171824               00.0000000000E+005.4018179802E+01+
*       -3.748885758E+01               0
GRID*             171825               00.0000000000E+005.0981474695E+01+
*       -3.754731212E+01               0
GRID*             171826               00.0000000000E+004.7934002149E+01+
*       -3.757186828E+01               0
GRID*             171827               00.0000000000E+004.4877888114E+01+
*       -3.756337221E+01               0
GRID*             171828               00.0000000000E+004.1815554434E+01+
*       -3.752138455E+01               0
GRID*             171829               00.0000000000E+003.8750039844E+01+
*       -3.744422296E+01               0
GRID*             171830               00.0000000000E+003.5685195935E+01+
*       -3.732882718E+01               0
GRID*             171831               00.0000000000E+003.2626191263E+01+
*       -3.717009910E+01               0
GRID*             171832               00.0000000000E+002.9580556714E+01+
*       -3.695945214E+01               0
GRID*             171833               00.0000000000E+002.6558173275E+01+
*       -3.668314144E+01               0
GRID*             171834               00.0000000000E+002.3564349032E+01+
*       -3.632156940E+01               0
GRID*             171835               00.0000000000E+002.2007518559E+01+
*       -3.462425639E+01               0
GRID*             171836               00.0000000000E+002.1780300703E+01+
*       -3.159880138E+01               0
GRID*             171837               00.0000000000E+002.3238756211E+01+
*       -3.079099770E+01               0
GRID*             171838               00.0000000000E+002.6178781598E+01+
*       -3.132874890E+01               0
GRID*             171839               00.0000000000E+002.9242678187E+01+
*       -3.163332319E+01               0
GRID*             171840               00.0000000000E+003.2373841877E+01+
*       -3.184679494E+01               0
GRID*             171841               00.0000000000E+003.5510660337E+01+
*       -3.200154333E+01               0
GRID*             171842               00.0000000000E+003.8634805087E+01+
*       -3.211258253E+01               0
GRID*             171843               00.0000000000E+004.1742813424E+01+
*       -3.218725428E+01               0
GRID*             171844               00.0000000000E+004.4835042518E+01+
*       -3.222955304E+01               0
GRID*             171845               00.0000000000E+004.7911937824E+01+
*       -3.224178634E+01               0
GRID*             171846               00.0000000000E+005.0973329703E+01+
*       -3.222508636E+01               0
GRID*             171847               00.0000000000E+005.4018312996E+01+
*       -3.217946785E+01               0
GRID*             171848               00.0000000000E+005.7044804829E+01+
*       -3.210373312E+01               0
GRID*             171849               00.0000000000E+006.0048695729E+01+
*       -3.199623460E+01               0
GRID*             171850               00.0000000000E+006.3022111584E+01+
*       -3.185571289E+01               0
GRID*             171851               00.0000000000E+006.5949907702E+01+
*       -3.168319100E+01               0
GRID*             171852               00.0000000000E+006.7346011206E+01+
*       -3.283685112E+01               0
GRID*             171853               00.0000000000E+008.5006080698E+01+
*       -4.094783682E+01               0
GRID*             171854               00.0000000000E+008.6474240286E+01+
*       -4.255841570E+01               0
GRID*             171855               00.0000000000E+008.6437802866E+01+
*       -4.561867953E+01               0
GRID*             171856               00.0000000000E+008.4934357003E+01+
*       -4.406468039E+01               0
GRID*             171857               00.0000000000E+008.6422359212E+01+
*       -4.864943022E+01               0
GRID*             171858               00.0000000000E+008.4901925622E+01+
*       -4.713373438E+01               0
GRID*             171859               00.0000000000E+008.6417677311E+01+
*       -5.165998941E+01               0
GRID*             171860               00.0000000000E+008.4889956157E+01+
*       -5.016934224E+01               0
GRID*             171861               00.0000000000E+008.6418194047E+01+
*       -5.465738309E+01               0
GRID*             171862               00.0000000000E+008.4888059596E+01+
*       -5.318286824E+01               0
GRID*             171863               00.0000000000E+008.6421052163E+01+
*       -5.764655648E+01               0
GRID*             171864               00.0000000000E+008.4890819174E+01+
*       -5.618240772E+01               0
GRID*             171865               00.0000000000E+008.6424894376E+01+
*       -6.063089697E+01               0
GRID*             171866               00.0000000000E+008.4895568148E+01+
*       -5.917350242E+01               0
GRID*             171867               00.0000000000E+008.6429152855E+01+
*       -6.361274205E+01               0
GRID*             171868               00.0000000000E+008.4901096608E+01+
*       -6.215994153E+01               0
GRID*             171869               00.0000000000E+008.4907384522E+01+
*       -6.514379131E+01               0
GRID*             171870               00.0000000000E+008.1855005337E+01+
*       -6.523032748E+01               0
GRID*             171871               00.0000000000E+008.3376855237E+01+
*       -6.369476039E+01               0
GRID*             171872               00.0000000000E+007.8797201921E+01+
*       -6.532308432E+01               0
GRID*             171873               00.0000000000E+008.0320101668E+01+
*       -6.378290027E+01               0
GRID*             171874               00.0000000000E+007.5735404059E+01+
*       -6.542000090E+01               0
GRID*             171875               00.0000000000E+007.7259085728E+01+
*       -6.387689746E+01               0
GRID*             171876               00.0000000000E+007.2672208949E+01+
*       -6.551764711E+01               0
GRID*             171877               00.0000000000E+007.4195885690E+01+
*       -6.397425433E+01               0
GRID*             171878               00.0000000000E+006.9610665647E+01+
*       -6.561223070E+01               0
GRID*             171879               00.0000000000E+007.1133168614E+01+
*       -6.407158696E+01               0
GRID*             171880               00.0000000000E+006.6553600766E+01+
*       -6.570062056E+01               0
GRID*             171881               00.0000000000E+006.8073529986E+01+
*       -6.416548186E+01               0
GRID*             171882               00.0000000000E+006.3503057965E+01+
*       -6.578103291E+01               0
GRID*             171883               00.0000000000E+006.5018978309E+01+
*       -6.425321875E+01               0
GRID*             171884               00.0000000000E+006.0459787165E+01+
*       -6.585317287E+01               0
GRID*             171885               00.0000000000E+006.1970554784E+01+
*       -6.433313952E+01               0
GRID*             171886               00.0000000000E+005.7422870606E+01+
*       -6.591769950E+01               0
GRID*             171887               00.0000000000E+005.8928085011E+01+
*       -6.440453803E+01               0
GRID*             171888               00.0000000000E+005.4389851749E+01+
*       -6.597508711E+01               0
GRID*             171889               00.0000000000E+005.5890178435E+01+
*       -6.446709110E+01               0
GRID*             171890               00.0000000000E+005.1357458633E+01+
*       -6.602459973E+01               0
GRID*             171891               00.0000000000E+005.2854587723E+01+
*       -6.452010918E+01               0
GRID*             171892               00.0000000000E+004.8322606372E+01+
*       -6.606386045E+01               0
GRID*             171893               00.0000000000E+004.9818856246E+01+
*       -6.456200315E+01               0
GRID*             171894               00.0000000000E+004.5283294147E+01+
*       -6.608916603E+01               0
GRID*             171895               00.0000000000E+004.6781029257E+01+
*       -6.459020667E+01               0
GRID*             171896               00.0000000000E+004.2239131391E+01+
*       -6.609631450E+01               0
GRID*             171897               00.0000000000E+004.3740195715E+01+
*       -6.460155054E+01               0
GRID*             171898               00.0000000000E+003.9191366933E+01+
*       -6.608154867E+01               0
GRID*             171899               00.0000000000E+004.0696711776E+01+
*       -6.459288987E+01               0
GRID*             171900               00.0000000000E+003.6142516246E+01+
*       -6.604222037E+01               0
GRID*             171901               00.0000000000E+003.7652084855E+01+
*       -6.456173346E+01               0
GRID*             171902               00.0000000000E+003.3095795541E+01+
*       -6.597730505E+01               0
GRID*             171903               00.0000000000E+003.4608610798E+01+
*       -6.450676756E+01               0
GRID*             171904               00.0000000000E+003.0054465342E+01+
*       -6.588789475E+01               0
GRID*             171905               00.0000000000E+003.1568884107E+01+
*       -6.442831227E+01               0
GRID*             171906               00.0000000000E+002.7021165194E+01+
*       -6.577744709E+01               0
GRID*             171907               00.0000000000E+002.8535281145E+01+
*       -6.432866311E+01               0
GRID*             171908               00.0000000000E+002.3997438463E+01+
*       -6.565141697E+01               0
GRID*             171909               00.0000000000E+002.5509522425E+01+
*       -6.421209057E+01               0
GRID*             171910               00.0000000000E+002.0983589546E+01+
*       -6.551633810E+01               0
GRID*             171911               00.0000000000E+002.2492411234E+01+
*       -6.408428852E+01               0
GRID*             171912               00.0000000000E+001.7978812291E+01+
*       -6.537856731E+01               0
GRID*             171913               00.0000000000E+001.9483775342E+01+
*       -6.395130126E+01               0
GRID*             171914               00.0000000000E+001.4981456144E+01+
*       -6.524296837E+01               0
GRID*             171915               00.0000000000E+001.6482570060E+01+
*       -6.381818601E+01               0
GRID*             171916               00.0000000000E+001.3487037561E+01+
*       -6.368747556E+01               0
GRID*             171917               00.0000000000E+001.3487301062E+01+
*       -6.071019502E+01               0
GRID*             171918               00.0000000000E+001.4983764688E+01+
*       -6.226259099E+01               0
GRID*             171919               00.0000000000E+001.3485181958E+01+
*       -5.773652023E+01               0
GRID*             171920               00.0000000000E+001.4982420166E+01+
*       -5.928602569E+01               0
GRID*             171921               00.0000000000E+001.3480985297E+01+
*       -5.476576383E+01               0
GRID*             171922               00.0000000000E+001.4978099146E+01+
*       -5.631399259E+01               0
GRID*             171923               00.0000000000E+001.3474790226E+01+
*       -5.179662416E+01               0
GRID*             171924               00.0000000000E+001.4971020692E+01+
*       -5.334520783E+01               0
GRID*             171925               00.0000000000E+001.3466218400E+01+
*       -4.882655811E+01               0
GRID*             171926               00.0000000000E+001.4960933226E+01+
*       -5.037730984E+01               0
GRID*             171927               00.0000000000E+001.3453973607E+01+
*       -4.585064894E+01               0
GRID*             171928               00.0000000000E+001.4946711251E+01+
*       -4.740581183E+01               0
GRID*             171929               00.0000000000E+001.3435423614E+01+
*       -4.285925385E+01               0
GRID*             171930               00.0000000000E+001.4925897892E+01+
*       -4.442198016E+01               0
GRID*             171931               00.0000000000E+001.4896537161E+01+
*       -4.140690443E+01               0
GRID*             171932               00.0000000000E+001.7851003054E+01+
*       -4.160590800E+01               0
GRID*             171933               00.0000000000E+001.6393724800E+01+
*       -4.301518612E+01               0
GRID*             171934               00.0000000000E+002.0810117867E+01+
*       -4.183629505E+01               0
GRID*             171935               00.0000000000E+001.9357044696E+01+
*       -4.320854793E+01               0
GRID*             171936               00.0000000000E+002.3782642658E+01+
*       -4.208119658E+01               0
GRID*             171937               00.0000000000E+002.2328528573E+01+
*       -4.342158949E+01               0
GRID*             171938               00.0000000000E+002.6771184532E+01+
*       -4.231283042E+01               0
GRID*             171939               00.0000000000E+002.5312153898E+01+
*       -4.363594534E+01               0
GRID*             171940               00.0000000000E+002.9775887171E+01+
*       -4.251659261E+01               0
GRID*             171941               00.0000000000E+002.8309486523E+01+
*       -4.383512269E+01               0
GRID*             171942               00.0000000000E+003.2795081722E+01+
*       -4.268703790E+01               0
GRID*             171943               00.0000000000E+003.1320204301E+01+
*       -4.400923452E+01               0
GRID*             171944               00.0000000000E+003.5825760525E+01+
*       -4.282289723E+01               0
GRID*             171945               00.0000000000E+003.4342576238E+01+
*       -4.415356619E+01               0
GRID*             171946               00.0000000000E+003.8864472508E+01+
*       -4.292448659E+01               0
GRID*             171947               00.0000000000E+003.7374011111E+01+
*       -4.426632624E+01               0
GRID*             171948               00.0000000000E+004.1907757155E+01+
*       -4.299260141E+01               0
GRID*             171949               00.0000000000E+004.0411594797E+01+
*       -4.434713700E+01               0
GRID*             171950               00.0000000000E+004.4952457652E+01+
*       -4.302802791E+01               0
GRID*             171951               00.0000000000E+004.3452480954E+01+
*       -4.439618284E+01               0
GRID*             171952               00.0000000000E+004.7995993620E+01+
*       -4.303120380E+01               0
GRID*             171953               00.0000000000E+004.6494180936E+01+
*       -4.441370613E+01               0
GRID*             171954               00.0000000000E+005.1036447066E+01+
*       -4.300196208E+01               0
GRID*             171955               00.0000000000E+004.9534748532E+01+
*       -4.439967089E+01               0
GRID*             171956               00.0000000000E+005.4072536485E+01+
*       -4.293934704E+01               0
GRID*             171957               00.0000000000E+005.2572869938E+01+
*       -4.435353233E+01               0
GRID*             171958               00.0000000000E+005.7103651965E+01+
*       -4.284143062E+01               0
GRID*             171959               00.0000000000E+005.5607948165E+01+
*       -4.427407691E+01               0
GRID*             171960               00.0000000000E+006.0130113313E+01+
*       -4.270504818E+01               0
GRID*             171961               00.0000000000E+005.8640319891E+01+
*       -4.415929902E+01               0
GRID*             171962               00.0000000000E+006.3153969080E+01+
*       -4.252530817E+01               0
GRID*             171963               00.0000000000E+006.1671805731E+01+
*       -4.400628789E+01               0
GRID*             171964               00.0000000000E+006.6180984186E+01+
*       -4.229462750E+01               0
GRID*             171965               00.0000000000E+006.4706894188E+01+
*       -4.381115287E+01               0
GRID*             171966               00.0000000000E+006.9225055816E+01+
*       -4.200120521E+01               0
GRID*             171967               00.0000000000E+006.7754844321E+01+
*       -4.356942286E+01               0
GRID*             171968               00.0000000000E+007.2316630357E+01+
*       -4.162918038E+01               0
GRID*             171969               00.0000000000E+007.0832134964E+01+
*       -4.327922528E+01               0
GRID*             171970               00.0000000000E+007.5510510163E+01+
*       -4.117489141E+01               0
GRID*             171971               00.0000000000E+007.3960049200E+01+
*       -4.295560116E+01               0
GRID*             171972               00.0000000000E+007.8761751818E+01+
*       -4.093292128E+01               0
GRID*             171973               00.0000000000E+007.7133754588E+01+
*       -4.268251822E+01               0
GRID*             171974               00.0000000000E+008.1931435682E+01+
*       -4.088522907E+01               0
GRID*             171975               00.0000000000E+008.0301419230E+01+
*       -4.253790761E+01               0
GRID*             171976               00.0000000000E+008.3416057481E+01+
*       -4.251000971E+01               0
GRID*             171977               00.0000000000E+008.1851746825E+01+
*       -4.406681369E+01               0
GRID*             171978               00.0000000000E+008.3370046347E+01+
*       -4.562148437E+01               0
GRID*             171979               00.0000000000E+008.3353600350E+01+
*       -4.868280597E+01               0
GRID*             171980               00.0000000000E+008.1821721074E+01+
*       -4.717055596E+01               0
GRID*             171981               00.0000000000E+008.3351172962E+01+
*       -5.171203051E+01               0
GRID*             171982               00.0000000000E+008.1814817155E+01+
*       -5.022549424E+01               0
GRID*             171983               00.0000000000E+008.3355025053E+01+
*       -5.472123312E+01               0
GRID*             171984               00.0000000000E+008.1818138419E+01+
*       -5.325039539E+01               0
GRID*             171985               00.0000000000E+008.3361418655E+01+
*       -5.771834222E+01               0
GRID*             171986               00.0000000000E+008.1825624533E+01+
*       -5.625716762E+01               0
GRID*             171987               00.0000000000E+008.3368681938E+01+
*       -6.070858785E+01               0
GRID*             171988               00.0000000000E+008.1834532445E+01+
*       -5.925342765E+01               0
GRID*             171989               00.0000000000E+008.1844440567E+01+
*       -6.224340672E+01               0
GRID*             171990               00.0000000000E+007.8783412580E+01+
*       -6.233420100E+01               0
GRID*             171991               00.0000000000E+008.0307751478E+01+
*       -6.079470744E+01               0
GRID*             171992               00.0000000000E+007.5719112137E+01+
*       -6.243127800E+01               0
GRID*             171993               00.0000000000E+007.7243438988E+01+
*       -6.088858154E+01               0
GRID*             171994               00.0000000000E+007.2654200894E+01+
*       -6.253150762E+01               0
GRID*             171995               00.0000000000E+007.4177427340E+01+
*       -6.098853129E+01               0
GRID*             171996               00.0000000000E+006.9591413557E+01+
*       -6.263109226E+01               0
GRID*             171997               00.0000000000E+007.1112445837E+01+
*       -6.109101292E+01               0
GRID*             171998               00.0000000000E+006.6532971325E+01+
*       -6.272643104E+01               0
GRID*             171999               00.0000000000E+006.8050854897E+01+
*       -6.119204145E+01               0
GRID*             172000               00.0000000000E+006.3480237988E+01+
*       -6.281474624E+01               0
GRID*             172001               00.0000000000E+006.4994231004E+01+
*       -6.128795854E+01               0
GRID*             172002               00.0000000000E+006.0433520767E+01+
*       -6.289429362E+01               0
GRID*             172003               00.0000000000E+006.1943203971E+01+
*       -6.137590034E+01               0
GRID*             172004               00.0000000000E+005.7392020130E+01+
*       -6.296410145E+01               0
GRID*             172005               00.0000000000E+005.8897455886E+01+
*       -6.145385704E+01               0
GRID*             172006               00.0000000000E+005.4354030231E+01+
*       -6.302336635E+01               0
GRID*             172007               00.0000000000E+005.5855871926E+01+
*       -6.152037670E+01               0
GRID*             172008               00.0000000000E+005.1317410488E+01+
*       -6.307085760E+01               0
GRID*             172009               00.0000000000E+005.2816852996E+01+
*       -6.157411476E+01               0
GRID*             172010               00.0000000000E+004.8280192708E+01+
*       -6.310461864E+01               0
GRID*             172011               00.0000000000E+004.9778746950E+01+
*       -6.161347308E+01               0
GRID*             172012               00.0000000000E+004.5241127473E+01+
*       -6.312207681E+01               0
GRID*             172013               00.0000000000E+004.6740290924E+01+
*       -6.163648878E+01               0
GRID*             172014               00.0000000000E+004.2200010807E+01+
*       -6.312047034E+01               0
GRID*             172015               00.0000000000E+004.3700942565E+01+
*       -6.164099661E+01               0
GRID*             172016               00.0000000000E+003.9157716040E+01+
*       -6.309739501E+01               0
GRID*             172017               00.0000000000E+004.0661015071E+01+
*       -6.162497548E+01               0
GRID*             172018               00.0000000000E+003.6115967056E+01+
*       -6.305129360E+01               0
GRID*             172019               00.0000000000E+003.7621598240E+01+
*       -6.158695515E+01               0
GRID*             172020               00.0000000000E+003.3076956887E+01+
*       -6.298189326E+01               0
GRID*             172021               00.0000000000E+003.4584313145E+01+
*       -6.152641930E+01               0
GRID*             172022               00.0000000000E+003.0042905958E+01+
*       -6.289062040E+01               0
GRID*             172023               00.0000000000E+003.1550978739E+01+
*       -6.144420139E+01               0
GRID*             172024               00.0000000000E+002.7015640031E+01+
*       -6.278084479E+01               0
GRID*             172025               00.0000000000E+002.8523264844E+01+
*       -6.134280208E+01               0
GRID*             172026               00.0000000000E+002.3996274037E+01+
*       -6.265765050E+01               0
GRID*             172027               00.0000000000E+002.5502391642E+01+
*       -6.122640472E+01               0
GRID*             172028               00.0000000000E+002.0985056961E+01+
*       -6.252696931E+01               0
GRID*             172029               00.0000000000E+002.2488919763E+01+
*       -6.110033129E+01               0
GRID*             172030               00.0000000000E+001.7981368219E+01+
*       -6.239432499E+01               0
GRID*             172031               00.0000000000E+001.9482649838E+01+
*       -6.096999304E+01               0
GRID*             172032               00.0000000000E+001.6482562846E+01+
*       -6.083872997E+01               0
GRID*             172033               00.0000000000E+001.6478550487E+01+
*       -5.786462335E+01               0
GRID*             172034               00.0000000000E+001.7978693168E+01+
*       -5.941732763E+01               0
GRID*             172035               00.0000000000E+001.6471063443E+01+
*       -5.489609987E+01               0
GRID*             172036               00.0000000000E+001.7971514784E+01+
*       -5.644673063E+01               0
GRID*             172037               00.0000000000E+001.6460074398E+01+
*       -5.193143722E+01               0
GRID*             172038               00.0000000000E+001.7960117149E+01+
*       -5.348232925E+01               0
GRID*             172039               00.0000000000E+001.6444817008E+01+
*       -4.896760878E+01               0
GRID*             172040               00.0000000000E+001.7943958179E+01+
*       -5.052173616E+01               0
GRID*             172041               00.0000000000E+001.6423286136E+01+
*       -4.599920012E+01               0
GRID*             172042               00.0000000000E+001.7921391892E+01+
*       -4.756099707E+01               0
GRID*             172043               00.0000000000E+001.7891113044E+01+
*       -4.459240608E+01               0
GRID*             172044               00.0000000000E+002.0862252861E+01+
*       -4.478490351E+01               0
GRID*             172045               00.0000000000E+001.9396321209E+01+
*       -4.616876166E+01               0
GRID*             172046               00.0000000000E+002.3843003969E+01+
*       -4.498662017E+01               0
GRID*             172047               00.0000000000E+002.2376728257E+01+
*       -4.634993418E+01               0
GRID*             172048               00.0000000000E+002.6835630301E+01+
*       -4.518128174E+01               0
GRID*             172049               00.0000000000E+002.5366480373E+01+
*       -4.653195657E+01               0
GRID*             172050               00.0000000000E+002.9840670540E+01+
*       -4.535722739E+01               0
GRID*             172051               00.0000000000E+002.8366814318E+01+
*       -4.670338645E+01               0
GRID*             172052               00.0000000000E+003.2857243646E+01+
*       -4.550779700E+01               0
GRID*             172053               00.0000000000E+003.1377709885E+01+
*       -4.685578987E+01               0
GRID*             172054               00.0000000000E+003.5883431267E+01+
*       -4.562969168E+01               0
GRID*             172055               00.0000000000E+003.4398098675E+01+
*       -4.698392249E+01               0
GRID*             172056               00.0000000000E+003.8916785563E+01+
*       -4.572153403E+01               0
GRID*             172057               00.0000000000E+003.7426205719E+01+
*       -4.708489946E+01               0
GRID*             172058               00.0000000000E+004.1954732359E+01+
*       -4.578293818E+01               0
GRID*             172059               00.0000000000E+004.0459923125E+01+
*       -4.715733521E+01               0
GRID*             172060               00.0000000000E+004.4994887738E+01+
*       -4.581392844E+01               0
GRID*             172061               00.0000000000E+004.3497139143E+01+
*       -4.720068379E+01               0
GRID*             172062               00.0000000000E+004.8035295726E+01+
*       -4.581454430E+01               0
GRID*             172063               00.0000000000E+004.6536002529E+01+
*       -4.721476661E+01               0
GRID*             172064               00.0000000000E+005.1074567830E+01+
*       -4.578456962E+01               0
GRID*             172065               00.0000000000E+004.9575115025E+01+
*       -4.719944303E+01               0
GRID*             172066               00.0000000000E+005.4111968413E+01+
*       -4.572336358E+01               0
GRID*             172067               00.0000000000E+005.2613666305E+01+
*       -4.715440087E+01               0
GRID*             172068               00.0000000000E+005.7147540261E+01+
*       -4.562977687E+01               0
GRID*             172069               00.0000000000E+005.5651560509E+01+
*       -4.707906354E+01               0
GRID*             172070               00.0000000000E+006.0182390654E+01+
*       -4.550215200E+01               0
GRID*             172071               00.0000000000E+005.8689611024E+01+
*       -4.697262984E+01               0
GRID*             172072               00.0000000000E+006.3219307767E+01+
*       -4.533842920E+01               0
GRID*             172073               00.0000000000E+006.1729892691E+01+
*       -4.683429331E+01               0
GRID*             172074               00.0000000000E+006.6263881153E+01+
*       -4.513649766E+01               0
GRID*             172075               00.0000000000E+006.4776294733E+01+
*       -4.666377399E+01               0
GRID*             172076               00.0000000000E+006.9326038845E+01+
*       -4.489551486E+01               0
GRID*             172077               00.0000000000E+006.7835075677E+01+
*       -4.646258966E+01               0
GRID*             172078               00.0000000000E+007.2420569260E+01+
*       -4.462094300E+01               0
GRID*             172079               00.0000000000E+007.0914473140E+01+
*       -4.623723258E+01               0
GRID*             172080               00.0000000000E+007.5560279703E+01+
*       -4.434080157E+01               0
GRID*             172081               00.0000000000E+007.4020799763E+01+
*       -4.600614341E+01               0
GRID*             172082               00.0000000000E+007.8720998812E+01+
*       -4.415045733E+01               0
GRID*             172083               00.0000000000E+007.7147523927E+01+
*       -4.580874068E+01               0
GRID*             172084               00.0000000000E+008.0271326407E+01+
*       -4.567936341E+01               0
GRID*             172085               00.0000000000E+007.8716522345E+01+
*       -4.726257291E+01               0
GRID*             172086               00.0000000000E+008.0266917012E+01+
*       -4.875376546E+01               0
GRID*             172087               00.0000000000E+008.0273404766E+01+
*       -5.178963709E+01               0
GRID*             172088               00.0000000000E+007.8725504624E+01+
*       -5.031790831E+01               0
GRID*             172089               00.0000000000E+008.0283987753E+01+
*       -5.480270910E+01               0
GRID*             172090               00.0000000000E+007.8739254100E+01+
*       -5.334195081E+01               0
GRID*             172091               00.0000000000E+008.0295631433E+01+
*       -5.780257841E+01               0
GRID*             172092               00.0000000000E+007.8753994652E+01+
*       -5.634811989E+01               0
GRID*             172093               00.0000000000E+007.8768850467E+01+
*       -5.934385820E+01               0
GRID*             172094               00.0000000000E+007.5700687385E+01+
*       -5.944336877E+01               0
GRID*             172095               00.0000000000E+007.7226098863E+01+
*       -5.789864543E+01               0
GRID*             172096               00.0000000000E+007.2632478318E+01+
*       -5.954924805E+01               0
GRID*             172097               00.0000000000E+007.4155738362E+01+
*       -5.800408553E+01               0
GRID*             172098               00.0000000000E+006.9567089111E+01+
*       -5.965692752E+01               0
GRID*             172099               00.0000000000E+007.1087121592E+01+
*       -5.811516265E+01               0
GRID*             172100               00.0000000000E+006.6506489933E+01+
*       -5.976171270E+01               0
GRID*             172101               00.0000000000E+006.8022724147E+01+
*       -5.822659877E+01               0
GRID*             172102               00.0000000000E+006.3451616479E+01+
*       -5.985958058E+01               0
GRID*             172103               00.0000000000E+006.4963875408E+01+
*       -5.833333474E+01               0
GRID*             172104               00.0000000000E+006.0402424905E+01+
*       -5.994753402E+01               0
GRID*             172105               00.0000000000E+006.1910837413E+01+
*       -5.843121426E+01               0
GRID*             172106               00.0000000000E+005.7358068798E+01+
*       -6.002348933E+01               0
GRID*             172107               00.0000000000E+005.8863037817E+01+
*       -5.851716631E+01               0
GRID*             172108               00.0000000000E+005.4317170458E+01+
*       -6.008588156E+01               0
GRID*             172109               00.0000000000E+005.5819367330E+01+
*       -5.858899419E+01               0
GRID*             172110               00.0000000000E+005.1278178504E+01+
*       -6.013323709E+01               0
GRID*             172111               00.0000000000E+005.2778495965E+01+
*       -5.864500389E+01               0
GRID*             172112               00.0000000000E+004.8239758251E+01+
*       -6.016391132E+01               0
GRID*             172113               00.0000000000E+004.9739189805E+01+
*       -5.868367533E+01               0
GRID*             172114               00.0000000000E+004.5201124602E+01+
*       -6.017607699E+01               0
GRID*             172115               00.0000000000E+004.6700591929E+01+
*       -5.870349953E+01               0
GRID*             172116               00.0000000000E+004.2162233450E+01+
*       -6.016793129E+01               0
GRID*             172117               00.0000000000E+004.3662415487E+01+
*       -5.870301167E+01               0
GRID*             172118               00.0000000000E+003.9123788659E+01+
*       -6.013802216E+01               0
GRID*             172119               00.0000000000E+004.0625007038E+01+
*       -5.868097797E+01               0
GRID*             172120               00.0000000000E+003.6087080178E+01+
*       -6.008560445E+01               0
GRID*             172121               00.0000000000E+003.7589270596E+01+
*       -5.863667147E+01               0
GRID*             172122               00.0000000000E+003.3053713367E+01+
*       -6.001101341E+01               0
GRID*             172123               00.0000000000E+003.4556480399E+01+
*       -5.857019857E+01               0
GRID*             172124               00.0000000000E+003.0025298199E+01+
*       -5.991604326E+01               0
GRID*             172125               00.0000000000E+003.1528032827E+01+
*       -5.848285528E+01               0
GRID*             172126               00.0000000000E+002.7003153848E+01+
*       -5.980418068E+01               0
GRID*             172127               00.0000000000E+002.8505187203E+01+
*       -5.837742186E+01               0
GRID*             172128               00.0000000000E+002.3988070512E+01+
*       -5.968040048E+01               0
GRID*             172129               00.0000000000E+002.5488832718E+01+
*       -5.825817644E+01               0
GRID*             172130               00.0000000000E+002.0980162668E+01+
*       -5.955017791E+01               0
GRID*             172131               00.0000000000E+002.2479313417E+01+
*       -5.813024710E+01               0
GRID*             172132               00.0000000000E+001.9476205998E+01+
*       -5.799751250E+01               0
GRID*             172133               00.0000000000E+001.9464944977E+01+
*       -5.503274082E+01               0
GRID*             172134               00.0000000000E+002.0969636190E+01+
*       -5.658352269E+01               0
GRID*             172135               00.0000000000E+001.9448712402E+01+
*       -5.207520655E+01               0
GRID*             172136               00.0000000000E+002.0953540230E+01+
*       -5.362561812E+01               0
GRID*             172137               00.0000000000E+001.9426345199E+01+
*       -4.912232938E+01               0
GRID*             172138               00.0000000000E+002.0931099422E+01+
*       -5.067579977E+01               0
GRID*             172139               00.0000000000E+002.0901274516E+01+
*       -4.773009397E+01               0
GRID*             172140               00.0000000000E+002.3889151811E+01+
*       -4.790353000E+01               0
GRID*             172141               00.0000000000E+002.2413698070E+01+
*       -4.928368979E+01               0
GRID*             172142               00.0000000000E+002.6886387028E+01+
*       -4.807184537E+01               0
GRID*             172143               00.0000000000E+002.5409058466E+01+
*       -4.944341881E+01               0
GRID*             172144               00.0000000000E+002.9893477103E+01+
*       -4.822587537E+01               0
GRID*             172145               00.0000000000E+002.8413049812E+01+
*       -4.959433430E+01               0
GRID*             172146               00.0000000000E+003.2909904321E+01+
*       -4.835930498E+01               0
GRID*             172147               00.0000000000E+003.1425671540E+01+
*       -4.972939048E+01               0
GRID*             172148               00.0000000000E+003.5934362769E+01+
*       -4.846823474E+01               0
GRID*             172149               00.0000000000E+003.4446168415E+01+
*       -4.984361723E+01               0
GRID*             172150               00.0000000000E+003.8965081297E+01+
*       -4.855050942E+01               0
GRID*             172151               00.0000000000E+003.7473238347E+01+
*       -4.993384470E+01               0
GRID*             172152               00.0000000000E+004.2000141584E+01+
*       -4.860510612E+01               0
GRID*             172153               00.0000000000E+004.0505299756E+01+
*       -4.999828033E+01               0
GRID*             172154               00.0000000000E+004.5037756234E+01+
*       -4.863164612E+01               0
GRID*             172155               00.0000000000E+004.3540758674E+01+
*       -5.003606845E+01               0
GRID*             172156               00.0000000000E+004.8076489371E+01+
*       -4.863002791E+01               0
GRID*             172157               00.0000000000E+004.6578243076E+01+
*       -5.004690742E+01               0
GRID*             172158               00.0000000000E+005.1115412969E+01+
*       -4.860017311E+01               0
GRID*             172159               00.0000000000E+004.9616787315E+01+
*       -5.003075799E+01               0
GRID*             172160               00.0000000000E+005.4154220059E+01+
*       -4.854188785E+01               0
GRID*             172161               00.0000000000E+005.2655966722E+01+
*       -4.998766010E+01               0
GRID*             172162               00.0000000000E+005.7193342337E+01+
*       -4.845485530E+01               0
GRID*             172163               00.0000000000E+005.5696001886E+01+
*       -4.991767961E+01               0
GRID*             172164               00.0000000000E+006.0234134174E+01+
*       -4.833879369E+01               0
GRID*             172165               00.0000000000E+005.8737865486E+01+
*       -4.982101915E+01               0
GRID*             172166               00.0000000000E+006.3279172940E+01+
*       -4.819384324E+01               0
GRID*             172167               00.0000000000E+006.1783414423E+01+
*       -4.969834363E+01               0
GRID*             172168               00.0000000000E+006.6332623280E+01+
*       -4.802133464E+01               0
GRID*             172169               00.0000000000E+006.4835501487E+01+
*       -4.955140390E+01               0
GRID*             172170               00.0000000000E+006.9400295675E+01+
*       -4.782538109E+01               0
GRID*             172171               00.0000000000E+006.7897843278E+01+
*       -4.938412607E+01               0
GRID*             172172               00.0000000000E+007.2488290172E+01+
*       -4.761626205E+01               0
GRID*             172173               00.0000000000E+007.0974112706E+01+
*       -4.920441056E+01               0
GRID*             172174               00.0000000000E+007.5598022017E+01+
*       -4.741626582E+01               0
GRID*             172175               00.0000000000E+007.4065512426E+01+
*       -4.902638446E+01               0
GRID*             172176               00.0000000000E+007.7167020435E+01+
*       -4.887009805E+01               0
GRID*             172177               00.0000000000E+007.5629267653E+01+
*       -5.044844102E+01               0
GRID*             172178               00.0000000000E+007.7187751841E+01+
*       -5.189625129E+01               0
GRID*             172179               00.0000000000E+007.7207559155E+01+
*       -5.490304005E+01               0
GRID*             172180               00.0000000000E+007.5656056896E+01+
*       -5.345734053E+01               0
GRID*             172181               00.0000000000E+007.5679663366E+01+
*       -5.645356559E+01               0
GRID*             172182               00.0000000000E+007.2606395640E+01+
*       -5.656914603E+01               0
GRID*             172183               00.0000000000E+007.4130320644E+01+
*       -5.501862608E+01               0
GRID*             172184               00.0000000000E+006.9537263014E+01+
*       -5.668915771E+01               0
GRID*             172185               00.0000000000E+007.1056537063E+01+
*       -5.514314109E+01               0
GRID*             172186               00.0000000000E+006.6474140109E+01+
*       -5.680705347E+01               0
GRID*             172187               00.0000000000E+006.7988678977E+01+
*       -5.526961241E+01               0
GRID*             172188               00.0000000000E+006.3417521584E+01+
*       -5.691723365E+01               0
GRID*             172189               00.0000000000E+006.4927786286E+01+
*       -5.539095237E+01               0
GRID*             172190               00.0000000000E+006.0366878447E+01+
*       -5.701554853E+01               0
GRID*             172191               00.0000000000E+006.1873562618E+01+
*       -5.550156792E+01               0
GRID*             172192               00.0000000000E+005.7321085131E+01+
*       -5.709915096E+01               0
GRID*             172193               00.0000000000E+005.8824925761E+01+
*       -5.559753317E+01               0
GRID*             172194               00.0000000000E+005.4278778857E+01+
*       -5.716608371E+01               0
GRID*             172195               00.0000000000E+005.5780496658E+01+
*       -5.567624048E+01               0
GRID*             172196               00.0000000000E+005.1238658821E+01+
*       -5.721485026E+01               0
GRID*             172197               00.0000000000E+005.2738941713E+01+
*       -5.573593009E+01               0
GRID*             172198               00.0000000000E+004.8199739606E+01+
*       -5.724411951E+01               0
GRID*             172199               00.0000000000E+004.9699208622E+01+
*       -5.577529445E+01               0
GRID*             172200               00.0000000000E+004.5161540985E+01+
*       -5.725262543E+01               0
GRID*             172201               00.0000000000E+004.6660688661E+01+
*       -5.579324541E+01               0
GRID*             172202               00.0000000000E+004.2124180132E+01+
*       -5.723924730E+01               0
GRID*             172203               00.0000000000E+004.3623305629E+01+
*       -5.578886107E+01               0
GRID*             172204               00.0000000000E+003.9088344308E+01+
*       -5.720321454E+01               0
GRID*             172205               00.0000000000E+004.0587517402E+01+
*       -5.576148387E+01               0
GRID*             172206               00.0000000000E+003.6055151528E+01+
*       -5.714438542E+01               0
GRID*             172207               00.0000000000E+003.7554225240E+01+
*       -5.571092849E+01               0
GRID*             172208               00.0000000000E+003.3025934699E+01+
*       -5.706358173E+01               0
GRID*             172209               00.0000000000E+003.4524605828E+01+
*       -5.563776857E+01               0
GRID*             172210               00.0000000000E+003.0001994856E+01+
*       -5.696294218E+01               0
GRID*             172211               00.0000000000E+003.1499896728E+01+
*       -5.554366863E+01               0
GRID*             172212               00.0000000000E+002.6984362004E+01+
*       -5.684615874E+01               0
GRID*             172213               00.0000000000E+002.8481169656E+01+
*       -5.543167906E+01               0
GRID*             172214               00.0000000000E+002.3973590625E+01+
*       -5.671840296E+01               0
GRID*             172215               00.0000000000E+002.5469119911E+01+
*       -5.530638526E+01               0
GRID*             172216               00.0000000000E+002.2463913399E+01+
*       -5.517167854E+01               0
GRID*             172217               00.0000000000E+002.2442354069E+01+
*       -5.222359446E+01               0
GRID*             172218               00.0000000000E+002.3952727238E+01+
*       -5.376965488E+01               0
GRID*             172219               00.0000000000E+002.3924952717E+01+
*       -5.083148447E+01               0
GRID*             172220               00.0000000000E+002.6926782872E+01+
*       -5.098119072E+01               0
GRID*             172221               00.0000000000E+002.5442677123E+01+
*       -5.236925639E+01               0
GRID*             172222               00.0000000000E+002.9936846679E+01+
*       -5.111847420E+01               0
GRID*             172223               00.0000000000E+002.8450579739E+01+
*       -5.250533063E+01               0
GRID*             172224               00.0000000000E+003.2954724354E+01+
*       -5.123787261E+01               0
GRID*             172225               00.0000000000E+003.1465899493E+01+
*       -5.262695634E+01               0
GRID*             172226               00.0000000000E+003.5979406023E+01+
*       -5.133550612E+01               0
GRID*             172227               00.0000000000E+003.4487961961E+01+
*       -5.272976150E+01               0
GRID*             172228               00.0000000000E+003.9009508581E+01+
*       -5.140898084E+01               0
GRID*             172229               00.0000000000E+003.7515676256E+01+
*       -5.281064225E+01               0
GRID*             172230               00.0000000000E+004.2043528775E+01+
*       -5.145705355E+01               0
GRID*             172231               00.0000000000E+004.0547737600E+01+
*       -5.286775406E+01               0
GRID*             172232               00.0000000000E+004.5080086597E+01+
*       -5.147925813E+01               0
GRID*             172233               00.0000000000E+004.3582856697E+01+
*       -5.290024323E+01               0
GRID*             172234               00.0000000000E+004.8118130380E+01+
*       -5.147558190E+01               0
GRID*             172235               00.0000000000E+004.6619973901E+01+
*       -5.290793261E+01               0
GRID*             172236               00.0000000000E+005.1157087536E+01+
*       -5.144622837E+01               0
GRID*             172237               00.0000000000E+004.9658430601E+01+
*       -5.289105228E+01               0
GRID*             172238               00.0000000000E+005.4196961780E+01+
*       -5.139149092E+01               0
GRID*             172239               00.0000000000E+005.2698082594E+01+
*       -5.285005919E+01               0
GRID*             172240               00.0000000000E+005.7238395013E+01+
*       -5.131176862E+01               0
GRID*             172241               00.0000000000E+005.5739354907E+01+
*       -5.278557993E+01               0
GRID*             172242               00.0000000000E+006.0282719348E+01+
*       -5.120776458E+01               0
GRID*             172243               00.0000000000E+005.8783248876E+01+
*       -5.269851406E+01               0
GRID*             172244               00.0000000000E+006.3331999688E+01+
*       -5.108091141E+01               0
GRID*             172245               00.0000000000E+006.1831304613E+01+
*       -5.259033236E+01               0
GRID*             172246               00.0000000000E+006.6388979496E+01+
*       -5.093408364E+01               0
GRID*             172247               00.0000000000E+006.4885477697E+01+
*       -5.246359115E+01               0
GRID*             172248               00.0000000000E+006.9456666169E+01+
*       -5.077270844E+01               0
GRID*             172249               00.0000000000E+006.7947802387E+01+
*       -5.232266601E+01               0
GRID*             172250               00.0000000000E+007.2537076208E+01+
*       -5.060634623E+01               0
GRID*             172251               00.0000000000E+007.1019629671E+01+
*       -5.217464411E+01               0
GRID*             172252               00.0000000000E+007.4100831435E+01+
*       -5.202840279E+01               0
GRID*             172253               00.0000000000E+007.2575095183E+01+
*       -5.358968834E+01               0
GRID*             172254               00.0000000000E+006.9501071550E+01+
*       -5.372809686E+01               0
GRID*             172255               00.0000000000E+006.6435409814E+01+
*       -5.386418157E+01               0
GRID*             172256               00.0000000000E+006.3377854169E+01+
*       -5.399036196E+01               0
GRID*             172257               00.0000000000E+006.0327013062E+01+
*       -5.410153832E+01               0
GRID*             172258               00.0000000000E+005.7281161574E+01+
*       -5.419450891E+01               0
GRID*             172259               00.0000000000E+005.4238689991E+01+
*       -5.426731150E+01               0
GRID*             172260               00.0000000000E+005.1198334316E+01+
*       -5.431867778E+01               0
GRID*             172261               00.0000000000E+004.8159304907E+01+
*       -5.434766895E+01               0
GRID*             172262               00.0000000000E+004.5121357655E+01+
*       -5.435350908E+01               0
GRID*             172263               00.0000000000E+004.2084804672E+01+
*       -5.433559522E+01               0
GRID*             172264               00.0000000000E+003.9050450330E+01+
*       -5.429364271E+01               0
GRID*             172265               00.0000000000E+003.6019451167E+01+
*       -5.422792803E+01               0
GRID*             172266               00.0000000000E+003.2993116622E+01+
*       -5.413960204E+01               0
GRID*             172267               00.0000000000E+002.9972679598E+01+
*       -5.403102293E+01               0
GRID*             172268               00.0000000000E+002.6959069797E+01+
*       -5.390598677E+01               0
GRID*             172269               00.0000000000E+001.5086058388E+01+
*       -1.501834701E+01               0
GRID*             172270               00.0000000000E+001.3232619232E+01+
*       -1.431317719E+01               0
GRID*             172271               00.0000000000E+001.2068170928E+01+
*       -1.610556649E+01               0
GRID*             172272               00.0000000000E+001.3458328765E+01+
*       -1.570694489E+01               0
GRID*             172273               00.0000000000E+001.2717990925E+01+
*       -1.921077903E+01               0
GRID*             172274               00.0000000000E+001.2695644975E+01+
*       -2.146905544E+01               0
GRID*             172275               00.0000000000E+001.2646052451E+01+
*       -2.521324920E+01               0
GRID*             172276               00.0000000000E+001.2485509794E+01+
*       -2.332959383E+01               0
GRID*             172277               00.0000000000E+001.3033121581E+01+
*       -2.408479341E+01               0
GRID*             172278               00.0000000000E+001.3052384423E+01+
*       -2.264480004E+01               0
GRID*             172279               00.0000000000E+001.2079178538E+01+
*       -2.439804299E+01               0
GRID*             172280               00.0000000000E+001.2148033188E+01+
*       -2.221385586E+01               0
GRID*             172281               00.0000000000E+008.7614541604E+01+
*       -1.139706872E+02               0
GRID*             172282               00.0000000000E+008.7954873868E+01+
*       -1.123551431E+02               0
GRID*             172283               00.0000000000E+008.6757452479E+01+
*       -1.131267731E+02               0
GRID*             172284               00.0000000000E+008.6112753963E+01+
*       -1.140706043E+02               0
GRID*             172285               00.0000000000E+008.5938963424E+01+
*       -1.122077006E+02               0
GRID*             172286               00.0000000000E+004.8794436432E+01+
*       -1.163955486E+02               0
GRID*             172287               00.0000000000E+005.1807525333E+01+
*       -1.162947945E+02               0
GRID*             172288               00.0000000000E+004.5818602893E+01+
*       -1.164542659E+02               0
GRID*             172289               00.0000000000E+004.2870014044E+01+
*       -1.164791142E+02               0
GRID*             172290               00.0000000000E+003.9940979370E+01+
*       -1.164746895E+02               0
GRID*             172291               00.0000000000E+003.7025256014E+01+
*       -1.164436915E+02               0
GRID*             172292               00.0000000000E+003.4117460403E+01+
*       -1.163875617E+02               0
GRID*             172293               00.0000000000E+003.1213406542E+01+
*       -1.163062224E+02               0
GRID*             172294               00.0000000000E+002.8312147060E+01+
*       -1.161966545E+02               0
GRID*             172295               00.0000000000E+002.5416011832E+01+
*       -1.160494661E+02               0
GRID*             172296               00.0000000000E+002.2553157914E+01+
*       -1.158395297E+02               0
GRID*             172297               00.0000000000E+001.9965790406E+01+
*       -1.154666567E+02               0
GRID*             172298               00.0000000000E+002.0945607895E+01+
*       -1.169583277E+02               0
GRID*             172299               00.0000000000E+006.6823585164E+01+
*       -1.142824656E+02               0
GRID*             172300               00.0000000000E+006.9544570061E+01+
*       -1.138942253E+02               0
GRID*             172301               00.0000000000E+006.4064576231E+01+
*       -1.148028005E+02               0
GRID*             172302               00.0000000000E+006.1136903929E+01+
*       -1.154863941E+02               0
GRID*             172303               00.0000000000E+005.7991035224E+01+
*       -1.158901590E+02               0
GRID*             172304               00.0000000000E+005.4870224175E+01+
*       -1.161368829E+02               0
GRID*             172305               00.0000000000E+007.5003064103E+01+
*       -1.133428876E+02               0
GRID*             172306               00.0000000000E+007.7711880794E+01+
*       -1.131533311E+02               0
GRID*             172307               00.0000000000E+007.2272125042E+01+
*       -1.135900475E+02               0
GRID*             172308               00.0000000000E+008.0370529504E+01+
*       -1.130656759E+02               0
GRID*             172309               00.0000000000E+008.3001359998E+01+
*       -1.132134093E+02               0
GRID*             172310               00.0000000000E+008.4551091951E+01+
*       -1.141122538E+02               0
GRID*             172311               00.0000000000E+008.5273559313E+01+
*       -1.132084901E+02               0
GRID*             172312               00.0000000000E+008.3896609967E+01+
*       -1.125754759E+02               0
GRID*             172313               00.0000000000E+004.1090657615E+01+
*       -1.851485942E+02               0
GRID*             172314               00.0000000000E+008.1902963024E+01+
*       -1.767888222E+01               0
GRID*             172315               00.0000000000E+008.2502057827E+01+
*       -1.697167626E+01               0
GRID*             172316               00.0000000000E+008.1316476303E+01+
*       -1.694374932E+01               0
GRID*             172317               00.0000000000E+001.4338470397E+01+
*       -3.132753148E+02               0
GRID*             172318               00.0000000000E+001.4512841183E+01+
*       -3.143491885E+02               0
GRID*             172319               00.0000000000E+002.0007487171E+01+
*       -2.191898472E+02               0
GRID*             172320               00.0000000000E+001.9940776609E+01+
*       -2.204935012E+02               0
GRID*             172321               00.0000000000E+003.1814298954E+01+
*       -1.913479762E+02               0
GRID*             172322               00.0000000000E+003.8876987018E+01+
*       -1.741485487E+02               0
GRID*             172323               00.0000000000E+003.6780130093E+01+
*       -1.773994200E+02               0
GRID*             172324               00.0000000000E+003.7492282542E+01+
*       -1.760943737E+02               0
GRID*             172325               00.0000000000E+005.5845202680E+01+
*       -1.799276428E+02               0
GRID*             172326               00.0000000000E+005.7392002856E+01+
*       -1.810123006E+02               0
GRID*             172327               00.0000000000E+005.9185445809E+01+
*       -1.819945207E+02               0
GRID*             172328               00.0000000000E+002.0078256696E+01+
*       -1.194222005E+02               0
GRID*             172329               00.0000000000E+002.0000850833E+01+
*       -1.207265802E+02               0
GRID*             172330               00.0000000000E+001.4386726013E+01+
*       -1.602101929E+01               0
GRID*             172331               00.0000000000E+001.3011081891E+01+
*       -1.673914384E+01               0
GRID*             172332               00.0000000000E+007.6263964030E+01+
*       -1.816820200E+01               0
GRID*             172333               00.0000000000E+002.6130608909E+01+
*       -2.208503119E+01               0
GRID*             172334               00.0000000000E+002.6115963872E+01+
*       -2.335354776E+01               0
GRID*             172335               00.0000000000E+003.4676031785E+01+
*       -9.472635969E+01               0
GRID*             172336               00.0000000000E+004.6880467090E+01+
*       -9.270044232E+01               0
GRID*             172337               00.0000000000E+008.3466640714E+01+
*       -2.833576726E+01               0
GRID*             172338               00.0000000000E+008.1757886602E+01+
*       -2.815213489E+01               0
GRID*             172339               00.0000000000E+001.2514779832E+01+
*       -1.804195020E+01               0
GRID*             172340               00.0000000000E+003.3689528558E+01+
*       -1.906949283E+02               0
GRID*             172341               00.0000000000E+008.6789187646E+01+
*       -3.214335005E+02               0
GRID*             172342               00.0000000000E+008.7373096922E+01+
*       -3.218679099E+02               0
GRID*             172343               00.0000000000E+008.7390048723E+01+
*       -3.208124540E+02               0
GRID*             172344               00.0000000000E+001.8098832145E+01+
*       -3.249604734E+02               0
GRID*             172345               00.0000000000E+001.7508705060E+01+
*       -3.256620610E+02               0
GRID*             172346               00.0000000000E+001.8686343579E+01+
*       -3.256675485E+02               0
GRID*             172347               00.0000000000E+001.3198402689E+01+
*       -3.184875683E+02               0
GRID*             172348               00.0000000000E+001.2594126279E+01+
*       -3.178869793E+02               0
GRID*             172349               00.0000000000E+001.2586705461E+01+
*       -3.190393275E+02               0
GRID*             172350               00.0000000000E+001.3255547991E+01+
*       -3.140650688E+02               0
GRID*             172351               00.0000000000E+001.3281382389E+01+
*       -3.125363553E+02               0
GRID*             172352               00.0000000000E+001.3768007995E+01+
*       -3.148176143E+02               0
GRID*             153373               0-2.500000000E+001.8100002289E+01+
*       -1.814999819E+01               0
GRID*             153374               0-2.500000000E+001.6599999428E+01+
*       -1.814999819E+01               0
GRID*             153375               0-2.500000000E+001.5099996567E+01+
*       -1.814999819E+01               0
GRID*             153376               0-2.500000000E+001.3599995136E+01+
*       -1.814999819E+01               0
GRID*             153377               0-2.500000000E+001.3599995136E+01+
*       -1.964999962E+01               0
GRID*             153378               0-2.500000000E+001.3599995852E+01+
*       -2.114999962E+01               0
GRID*             153379               0-2.500000000E+001.3599996567E+01+
*       -2.264999962E+01               0
GRID*             153380               0-2.500000000E+001.3599995852E+01+
*       -2.414999962E+01               0
GRID*             153381               0-2.500000000E+001.3599995136E+01+
*       -2.564999962E+01               0
GRID*             153382               0-2.500000000E+001.3599995136E+01+
*       -2.715000105E+01               0
GRID*             153383               0-2.500000000E+001.5099996567E+01+
*       -2.715000105E+01               0
GRID*             153384               0-2.500000000E+001.6599999428E+01+
*       -2.715000105E+01               0
GRID*             153385               0-2.500000000E+001.8100002289E+01+
*       -2.715000105E+01               0
GRID*             153386               0-2.500000000E+001.9600002289E+01+
*       -2.715000033E+01               0
GRID*             153387               0-2.500000000E+002.1100002289E+01+
*       -2.714999962E+01               0
GRID*             153388               0-2.500000000E+002.2600002289E+01+
*       -2.714999962E+01               0
GRID*             153389               0-2.500000000E+002.2600002289E+01+
*       -2.564999962E+01               0
GRID*             153390               0-2.500000000E+002.2600002289E+01+
*       -2.414999962E+01               0
GRID*             153391               0-2.500000000E+002.2600002289E+01+
*       -2.264999962E+01               0
GRID*             153392               0-2.500000000E+002.2600002289E+01+
*       -2.114999962E+01               0
GRID*             153393               0-2.500000000E+002.2600002289E+01+
*       -1.964999962E+01               0
GRID*             153394               0-2.500000000E+002.2600002289E+01+
*       -1.814999962E+01               0
GRID*             153395               0-2.500000000E+002.1100002289E+01+
*       -1.814999962E+01               0
GRID*             153396               0-2.500000000E+001.9600002289E+01+
*       -1.814999890E+01               0
GRID*             153397               0-2.500000000E+001.3599995136E+01+
*       -3.230000000E+02               0
GRID*             153398               0-2.500000000E+001.3599995136E+01+
*       -3.245000014E+02               0
GRID*             153399               0-2.500000000E+001.5099996567E+01+
*       -3.245000014E+02               0
GRID*             153400               0-2.500000000E+001.6599999428E+01+
*       -3.245000014E+02               0
GRID*             153401               0-2.500000000E+001.8100002289E+01+
*       -3.245000014E+02               0
GRID*             153402               0-2.500000000E+001.9600002289E+01+
*       -3.245000007E+02               0
GRID*             153403               0-2.500000000E+002.1100002289E+01+
*       -3.245000000E+02               0
GRID*             153404               0-2.500000000E+002.2600002289E+01+
*       -3.245000000E+02               0
GRID*             153405               0-2.500000000E+002.2600002289E+01+
*       -3.230000000E+02               0
GRID*             153406               0-2.500000000E+002.2600002289E+01+
*       -3.215000000E+02               0
GRID*             153407               0-2.500000000E+002.2600002289E+01+
*       -3.200000000E+02               0
GRID*             153408               0-2.500000000E+002.2600002289E+01+
*       -3.185000000E+02               0
GRID*             153409               0-2.500000000E+002.2600002289E+01+
*       -3.170000000E+02               0
GRID*             153410               0-2.500000000E+002.2600002289E+01+
*       -3.155000000E+02               0
GRID*             153411               0-2.500000000E+002.1100002289E+01+
*       -3.155000000E+02               0
GRID*             153412               0-2.500000000E+001.9600002289E+01+
*       -3.154999993E+02               0
GRID*             153413               0-2.500000000E+001.8100002289E+01+
*       -3.154999986E+02               0
GRID*             153414               0-2.500000000E+001.6599999428E+01+
*       -3.154999986E+02               0
GRID*             153415               0-2.500000000E+001.5099996567E+01+
*       -3.154999986E+02               0
GRID*             153416               0-2.500000000E+001.3599995136E+01+
*       -3.154999986E+02               0
GRID*             153417               0-2.500000000E+001.3599995136E+01+
*       -3.170000000E+02               0
GRID*             153418               0-2.500000000E+001.3599995852E+01+
*       -3.185000000E+02               0
GRID*             153419               0-2.500000000E+001.3599996567E+01+
*       -3.200000000E+02               0
GRID*             153420               0-2.500000000E+001.3599995852E+01+
*       -3.215000000E+02               0
GRID*             153421               0-2.500000000E+008.6400001526E+01+
*       -3.200000000E+02               0
GRID*             153422               0-2.500000000E+008.6400001526E+01+
*       -3.185000000E+02               0
GRID*             153423               0-2.500000000E+008.6400001526E+01+
*       -3.170000000E+02               0
GRID*             153424               0-2.500000000E+008.6400001526E+01+
*       -3.155000000E+02               0
GRID*             153425               0-2.500000000E+008.4900001526E+01+
*       -3.155000000E+02               0
GRID*             153426               0-2.500000000E+008.3400001526E+01+
*       -3.155000000E+02               0
GRID*             153427               0-2.500000000E+008.1900001526E+01+
*       -3.155000000E+02               0
GRID*             153428               0-2.500000000E+008.0400001526E+01+
*       -3.155000000E+02               0
GRID*             153429               0-2.500000000E+007.8900001526E+01+
*       -3.155000000E+02               0
GRID*             153430               0-2.500000000E+007.7400001526E+01+
*       -3.155000000E+02               0
GRID*             153431               0-2.500000000E+007.7400001526E+01+
*       -3.170000000E+02               0
GRID*             153432               0-2.500000000E+007.7400001526E+01+
*       -3.185000000E+02               0
GRID*             153433               0-2.500000000E+007.7400001526E+01+
*       -3.200000000E+02               0
GRID*             153434               0-2.500000000E+007.7400001526E+01+
*       -3.215000000E+02               0
GRID*             153435               0-2.500000000E+007.7400001526E+01+
*       -3.230000000E+02               0
GRID*             153436               0-2.500000000E+007.7400001526E+01+
*       -3.245000000E+02               0
GRID*             153437               0-2.500000000E+007.8900001526E+01+
*       -3.245000000E+02               0
GRID*             153438               0-2.500000000E+008.0400001526E+01+
*       -3.245000000E+02               0
GRID*             153439               0-2.500000000E+008.1900001526E+01+
*       -3.245000000E+02               0
GRID*             153440               0-2.500000000E+008.3400001526E+01+
*       -3.245000000E+02               0
GRID*             153441               0-2.500000000E+008.4900001526E+01+
*       -3.245000000E+02               0
GRID*             153442               0-2.500000000E+008.6400001526E+01+
*       -3.245000000E+02               0
GRID*             153443               0-2.500000000E+008.6400001526E+01+
*       -3.230000000E+02               0
GRID*             153444               0-2.500000000E+008.6400001526E+01+
*       -3.215000000E+02               0
GRID*             153445               0-2.500000000E+008.6400001526E+01+
*       -1.964999962E+01               0
GRID*             153446               0-2.500000000E+008.6400001526E+01+
*       -1.814999962E+01               0
GRID*             153447               0-2.500000000E+008.4900001526E+01+
*       -1.814999962E+01               0
GRID*             153448               0-2.500000000E+008.3400001526E+01+
*       -1.814999962E+01               0
GRID*             153449               0-2.500000000E+008.1900001526E+01+
*       -1.814999962E+01               0
GRID*             153450               0-2.500000000E+008.0400001526E+01+
*       -1.814999962E+01               0
GRID*             153451               0-2.500000000E+007.8900001526E+01+
*       -1.814999962E+01               0
GRID*             153452               0-2.500000000E+007.7400001526E+01+
*       -1.814999962E+01               0
GRID*             153453               0-2.500000000E+007.7400001526E+01+
*       -1.964999962E+01               0
GRID*             153454               0-2.500000000E+007.7400001526E+01+
*       -2.114999962E+01               0
GRID*             153455               0-2.500000000E+007.7400001526E+01+
*       -2.264999962E+01               0
GRID*             153456               0-2.500000000E+007.7400001526E+01+
*       -2.414999962E+01               0
GRID*             153457               0-2.500000000E+007.7400001526E+01+
*       -2.564999962E+01               0
GRID*             153458               0-2.500000000E+007.7400001526E+01+
*       -2.714999962E+01               0
GRID*             153459               0-2.500000000E+007.8900001526E+01+
*       -2.714999962E+01               0
GRID*             153460               0-2.500000000E+008.0400001526E+01+
*       -2.714999962E+01               0
GRID*             153461               0-2.500000000E+008.1900001526E+01+
*       -2.714999962E+01               0
GRID*             153462               0-2.500000000E+008.3400001526E+01+
*       -2.714999962E+01               0
GRID*             153463               0-2.500000000E+008.4900001526E+01+
*       -2.714999962E+01               0
GRID*             153464               0-2.500000000E+008.6400001526E+01+
*       -2.714999962E+01               0
GRID*             153465               0-2.500000000E+008.6400001526E+01+
*       -2.564999962E+01               0
GRID*             153466               0-2.500000000E+008.6400001526E+01+
*       -2.414999962E+01               0
GRID*             153467               0-2.500000000E+008.6400001526E+01+
*       -2.264999962E+01               0
GRID*             153468               0-2.500000000E+008.6400001526E+01+
*       -2.114999962E+01               0
GRID*             153469               0-2.500000000E+008.7870341068E+01+
*       -1.284619035E+01               0
GRID*             153470               0-2.500000000E+008.7632578886E+01+
*       -1.586043797E+01               0
GRID*             153471               0-2.500000000E+008.8009429677E+01+
*       -1.884622038E+01               0
GRID*             153472               0-2.500000000E+008.8185666041E+01+
*       -2.189152208E+01               0
GRID*             153473               0-2.500000000E+008.8384651963E+01+
*       -2.481345791E+01               0
GRID*             153474               0-2.500000000E+008.8963967658E+01+
*       -2.763242501E+01               0
GRID*             153475               0-2.500000000E+008.8521386664E+01+
*       -3.028367868E+01               0
GRID*             153476               0-2.500000000E+008.8293148386E+01+
*       -3.335906693E+01               0
GRID*             153477               0-2.500000000E+008.8139305579E+01+
*       -3.645852955E+01               0
GRID*             153478               0-2.500000000E+008.8043882460E+01+
*       -3.954080940E+01               0
GRID*             153479               0-2.500000000E+008.7991095482E+01+
*       -4.259668253E+01               0
GRID*             153480               0-2.500000000E+008.7964276815E+01+
*       -4.562814715E+01               0
GRID*             153481               0-2.500000000E+008.7952196096E+01+
*       -4.864060359E+01               0
GRID*             153482               0-2.500000000E+008.7947964637E+01+
*       -5.163955120E+01               0
GRID*             153483               0-2.500000000E+008.7947658887E+01+
*       -5.462945731E+01               0
GRID*             153484               0-2.500000000E+008.7949195185E+01+
*       -5.761360638E+01               0
GRID*             153485               0-2.500000000E+008.7951561597E+01+
*       -6.059429568E+01               0
GRID*             153486               0-2.500000000E+008.7954339650E+01+
*       -6.357309930E+01               0
GRID*             153487               0-2.500000000E+008.7957483835E+01+
*       -6.655102596E+01               0
GRID*             153488               0-2.500000000E+008.7960490422E+01+
*       -6.952961897E+01               0
GRID*             153489               0-2.500000000E+008.7964176047E+01+
*       -7.250896454E+01               0
GRID*             153490               0-2.500000000E+008.7968973785E+01+
*       -7.548973137E+01               0
GRID*             153491               0-2.500000000E+008.7975731821E+01+
*       -7.847215724E+01               0
GRID*             153492               0-2.500000000E+008.7985537766E+01+
*       -8.145622936E+01               0
GRID*             153493               0-2.500000000E+008.7999594369E+01+
*       -8.444169219E+01               0
GRID*             153494               0-2.500000000E+008.8019041376E+01+
*       -8.742804180E+01               0
GRID*             153495               0-2.500000000E+008.8044699237E+01+
*       -9.041460571E+01               0
GRID*             153496               0-2.500000000E+008.8076789217E+01+
*       -9.340074177E+01               0
GRID*             153497               0-2.500000000E+008.8114932998E+01+
*       -9.638605130E+01               0
GRID*             153498               0-2.500000000E+008.8158734069E+01+
*       -9.937052726E+01               0
GRID*             153499               0-2.500000000E+008.8208717211E+01+
*       -1.023552431E+02               0
GRID*             153500               0-2.500000000E+008.8266959095E+01+
*       -1.053461129E+02               0
GRID*             153501               0-2.500000000E+008.8336805832E+01+
*       -1.083732740E+02               0
GRID*             153502               0-2.500000000E+008.8418986727E+01+
*       -1.116165852E+02               0
GRID*             153503               0-2.500000000E+008.9253815545E+01+
*       -1.144161864E+02               0
GRID*             153504               0-2.500000000E+008.7738322200E+01+
*       -1.148476733E+02               0
GRID*             153505               0-2.500000000E+008.6201363977E+01+
*       -1.149813634E+02               0
GRID*             153506               0-2.500000000E+008.4579209224E+01+
*       -1.149673724E+02               0
GRID*             153507               0-2.500000000E+008.2732474740E+01+
*       -1.145330020E+02               0
GRID*             153508               0-2.500000000E+008.2827914939E+01+
*       -1.167105563E+02               0
GRID*             153509               0-2.500000000E+008.2988474781E+01+
*       -1.185596420E+02               0
GRID*             153510               0-2.500000000E+008.3201027214E+01+
*       -1.202287207E+02               0
GRID*             153511               0-2.500000000E+008.3429001271E+01+
*       -1.217428617E+02               0
GRID*             153512               0-2.500000000E+008.3269068565E+01+
*       -1.233700988E+02               0
GRID*             153513               0-2.500000000E+008.3114453431E+01+
*       -1.254913193E+02               0
GRID*             153514               0-2.500000000E+008.4783514827E+01+
*       -1.250730106E+02               0
GRID*             153515               0-2.500000000E+008.6331034797E+01+
*       -1.250366729E+02               0
GRID*             153516               0-2.500000000E+008.7827916154E+01+
*       -1.251653934E+02               0
GRID*             153517               0-2.500000000E+008.9308096616E+01+
*       -1.256069996E+02               0
GRID*             153518               0-2.500000000E+008.8538718424E+01+
*       -1.284493629E+02               0
GRID*             153519               0-2.500000000E+008.8461238045E+01+
*       -1.318017225E+02               0
GRID*             153520               0-2.500000000E+008.8391404104E+01+
*       -1.349120967E+02               0
GRID*             153521               0-2.500000000E+008.8332477797E+01+
*       -1.379772820E+02               0
GRID*             153522               0-2.500000000E+008.8282451848E+01+
*       -1.410304156E+02               0
GRID*             153523               0-2.500000000E+008.8239468558E+01+
*       -1.440791060E+02               0
GRID*             153524               0-2.500000000E+008.8202234824E+01+
*       -1.471256709E+02               0
GRID*             153525               0-2.500000000E+008.8169834607E+01+
*       -1.501710798E+02               0
GRID*             153526               0-2.500000000E+008.8141581265E+01+
*       -1.532159048E+02               0
GRID*             153527               0-2.500000000E+008.8116956182E+01+
*       -1.562605936E+02               0
GRID*             153528               0-2.500000000E+008.8095601376E+01+
*       -1.593055485E+02               0
GRID*             153529               0-2.500000000E+008.8077336779E+01+
*       -1.623511316E+02               0
GRID*             153530               0-2.500000000E+008.8062180451E+01+
*       -1.653976338E+02               0
GRID*             153531               0-2.500000000E+008.8050353557E+01+
*       -1.684452253E+02               0
GRID*             153532               0-2.500000000E+008.8042253297E+01+
*       -1.714939043E+02               0
GRID*             153533               0-2.500000000E+008.8038381938E+01+
*       -1.745434659E+02               0
GRID*             153534               0-2.500000000E+008.8039235991E+01+
*       -1.775935174E+02               0
GRID*             153535               0-2.500000000E+008.8045188445E+01+
*       -1.806435556E+02               0
GRID*             153536               0-2.500000000E+008.8056425111E+01+
*       -1.836930934E+02               0
GRID*             153537               0-2.500000000E+008.8072981610E+01+
*       -1.867417879E+02               0
GRID*             153538               0-2.500000000E+008.8094821295E+01+
*       -1.897895191E+02               0
GRID*             153539               0-2.500000000E+008.8121825492E+01+
*       -1.928364295E+02               0
GRID*             153540               0-2.500000000E+008.8153776907E+01+
*       -1.958829559E+02               0
GRID*             153541               0-2.500000000E+008.8190696228E+01+
*       -1.989299150E+02               0
GRID*             153542               0-2.500000000E+008.8233566963E+01+
*       -2.019792582E+02               0
GRID*             153543               0-2.500000000E+008.8284923980E+01+
*       -2.050380545E+02               0
GRID*             153544               0-2.500000000E+008.8348629203E+01+
*       -2.081388145E+02               0
GRID*             153545               0-2.500000000E+008.8425716397E+01+
*       -2.114744033E+02               0
GRID*             153546               0-2.500000000E+008.9258136059E+01+
*       -2.143526267E+02               0
GRID*             153547               0-2.500000000E+008.7738005296E+01+
*       -2.147764670E+02               0
GRID*             153548               0-2.500000000E+008.6196452413E+01+
*       -2.148967987E+02               0
GRID*             153549               0-2.500000000E+008.4566207224E+01+
*       -2.148498490E+02               0
GRID*             153550               0-2.500000000E+008.2720265257E+01+
*       -2.143451778E+02               0
GRID*             153551               0-2.500000000E+008.2820211422E+01+
*       -2.165943912E+02               0
GRID*             153552               0-2.500000000E+008.2986939086E+01+
*       -2.184769487E+02               0
GRID*             153553               0-2.500000000E+008.3201305800E+01+
*       -2.201601963E+02               0
GRID*             153554               0-2.500000000E+008.3421216425E+01+
*       -2.216811525E+02               0
GRID*             153555               0-2.500000000E+008.3252858789E+01+
*       -2.232916058E+02               0
GRID*             153556               0-2.500000000E+008.3099277445E+01+
*       -2.253501812E+02               0
GRID*             153557               0-2.500000000E+008.4778096946E+01+
*       -2.249759184E+02               0
GRID*             153558               0-2.500000000E+008.6325613113E+01+
*       -2.249620878E+02               0
GRID*             153559               0-2.500000000E+008.7822102118E+01+
*       -2.250992680E+02               0
GRID*             153560               0-2.500000000E+008.9300703350E+01+
*       -2.255458250E+02               0
GRID*             153561               0-2.500000000E+008.8526495451E+01+
*       -2.283184704E+02               0
GRID*             153562               0-2.500000000E+008.8442910036E+01+
*       -2.315862304E+02               0
GRID*             153563               0-2.500000000E+008.8369536402E+01+
*       -2.346265988E+02               0
GRID*             153564               0-2.500000000E+008.8307054397E+01+
*       -2.376268208E+02               0
GRID*             153565               0-2.500000000E+008.8253680830E+01+
*       -2.406175864E+02               0
GRID*             153566               0-2.500000000E+008.8207902926E+01+
*       -2.436052116E+02               0
GRID*             153567               0-2.500000000E+008.8168682308E+01+
*       -2.465911828E+02               0
GRID*             153568               0-2.500000000E+008.8135280184E+01+
*       -2.495758580E+02               0
GRID*             153569               0-2.500000000E+008.8107114543E+01+
*       -2.525592741E+02               0
GRID*             153570               0-2.500000000E+008.8083672609E+01+
*       -2.555413478E+02               0
GRID*             153571               0-2.500000000E+008.8064463588E+01+
*       -2.585219297E+02               0
GRID*             153572               0-2.500000000E+008.8049002883E+01+
*       -2.615008406E+02               0
GRID*             153573               0-2.500000000E+008.8036820390E+01+
*       -2.644779322E+02               0
GRID*             153574               0-2.500000000E+008.8027478022E+01+
*       -2.674531375E+02               0
GRID*             153575               0-2.500000000E+008.8020581137E+01+
*       -2.704264648E+02               0
GRID*             153576               0-2.500000000E+008.8015780690E+01+
*       -2.733979616E+02               0
GRID*             153577               0-2.500000000E+008.8012780105E+01+
*       -2.763677954E+02               0
GRID*             153578               0-2.500000000E+008.8011164900E+01+
*       -2.793347869E+02               0
GRID*             153579               0-2.500000000E+008.8010863848E+01+
*       -2.823000019E+02               0
GRID*             153580               0-2.500000000E+008.8011708646E+01+
*       -2.852630838E+02               0
GRID*             153581               0-2.500000000E+008.8013635648E+01+
*       -2.882243655E+02               0
GRID*             153582               0-2.500000000E+008.8016664315E+01+
*       -2.911847403E+02               0
GRID*             153583               0-2.500000000E+008.8021108597E+01+
*       -2.941462315E+02               0
GRID*             153584               0-2.500000000E+008.8028030997E+01+
*       -2.971130392E+02               0
GRID*             153585               0-2.500000000E+008.8039759303E+01+
*       -3.000935449E+02               0
GRID*             153586               0-2.500000000E+008.8060774904E+01+
*       -3.031045523E+02               0
GRID*             153587               0-2.500000000E+008.8105361715E+01+
*       -3.061766644E+02               0
GRID*             153588               0-2.500000000E+008.8214219712E+01+
*       -3.093493011E+02               0
GRID*             153589               0-2.500000000E+008.8559094268E+01+
*       -3.124692209E+02               0
GRID*             153590               0-2.500000000E+008.8582807599E+01+
*       -3.156749927E+02               0
GRID*             153591               0-2.500000000E+008.9195705890E+01+
*       -3.183691708E+02               0
GRID*             153592               0-2.500000000E+008.8872814171E+01+
*       -3.212038952E+02               0
GRID*             153593               0-2.500000000E+008.9058264096E+01+
*       -3.238443140E+02               0
GRID*             153594               0-2.500000000E+008.7804017734E+01+
*       -3.264511691E+02               0
GRID*             153595               0-2.500000000E+008.4718114213E+01+
*       -3.268548686E+02               0
GRID*             153596               0-2.500000000E+008.1965054348E+01+
*       -3.276457842E+02               0
GRID*             153597               0-2.500000000E+007.9256926037E+01+
*       -3.271294284E+02               0
GRID*             153598               0-2.500000000E+007.6453296017E+01+
*       -3.273613387E+02               0
GRID*             153599               0-2.500000000E+007.3155589296E+01+
*       -3.276828511E+02               0
GRID*             153600               0-2.500000000E+006.9999438030E+01+
*       -3.277681644E+02               0
GRID*             153601               0-2.500000000E+006.6896575296E+01+
*       -3.277771279E+02               0
GRID*             153602               0-2.500000000E+006.3819352816E+01+
*       -3.277610883E+02               0
GRID*             153603               0-2.500000000E+006.0756344589E+01+
*       -3.277400751E+02               0
GRID*             153604               0-2.500000000E+005.7702573748E+01+
*       -3.277215180E+02               0
GRID*             153605               0-2.500000000E+005.4655596275E+01+
*       -3.277080309E+02               0
GRID*             153606               0-2.500000000E+005.1614058333E+01+
*       -3.277005235E+02               0
GRID*             153607               0-2.500000000E+004.8577209542E+01+
*       -3.276992983E+02               0
GRID*             153608               0-2.500000000E+004.5544721331E+01+
*       -3.277043729E+02               0
GRID*             153609               0-2.500000000E+004.2516577859E+01+
*       -3.277154719E+02               0
GRID*             153610               0-2.500000000E+003.9492946149E+01+
*       -3.277317093E+02               0
GRID*             153611               0-2.500000000E+003.6473897822E+01+
*       -3.277506722E+02               0
GRID*             153612               0-2.500000000E+003.3458455628E+01+
*       -3.277660744E+02               0
GRID*             153613               0-2.500000000E+003.0440013815E+01+
*       -3.277616425E+02               0
GRID*             153614               0-2.500000000E+002.7380405665E+01+
*       -3.276931540E+02               0
GRID*             153615               0-2.500000000E+002.4036308373E+01+
*       -3.274092156E+02               0
GRID*             153616               0-2.500000000E+002.1067360884E+01+
*       -3.278557625E+02               0
GRID*             153617               0-2.500000000E+001.8100142531E+01+
*       -3.274808085E+02               0
GRID*             153618               0-2.500000000E+001.5128209877E+01+
*       -3.277685793E+02               0
GRID*             153619               0-2.500000000E+001.2259855679E+01+
*       -3.269722755E+02               0
GRID*             153620               0-2.500000000E+001.1684460766E+01+
*       -3.240287825E+02               0
GRID*             153621               0-2.500000000E+001.0843143070E+01+
*       -3.212693138E+02               0
GRID*             153622               0-2.500000000E+001.1100883680E+01+
*       -3.183331323E+02               0
GRID*             153623               0-2.500000000E+001.0873813935E+01+
*       -3.153658649E+02               0
GRID*             153624               0-2.500000000E+001.1821844836E+01+
*       -3.126573111E+02               0
GRID*             153625               0-2.500000000E+001.1904883870E+01+
*       -3.093423024E+02               0
GRID*             153626               0-2.500000000E+001.1973431930E+01+
*       -3.062561776E+02               0
GRID*             153627               0-2.500000000E+001.2023142429E+01+
*       -3.032239560E+02               0
GRID*             153628               0-2.500000000E+001.2051541990E+01+
*       -3.002108255E+02               0
GRID*             153629               0-2.500000000E+001.2064180146E+01+
*       -2.972116400E+02               0
GRID*             153630               0-2.500000000E+001.2067091022E+01+
*       -2.942236260E+02               0
GRID*             153631               0-2.500000000E+001.2064788636E+01+
*       -2.912438864E+02               0
GRID*             153632               0-2.500000000E+001.2060068870E+01+
*       -2.882697412E+02               0
GRID*             153633               0-2.500000000E+001.2054426199E+01+
*       -2.852990970E+02               0
GRID*             153634               0-2.500000000E+001.2048527017E+01+
*       -2.823305212E+02               0
GRID*             153635               0-2.500000000E+001.2042581620E+01+
*       -2.793631298E+02               0
GRID*             153636               0-2.500000000E+001.2036576841E+01+
*       -2.763964502E+02               0
GRID*             153637               0-2.500000000E+001.2031450942E+01+
*       -2.734285522E+02               0
GRID*             153638               0-2.500000000E+001.2026603495E+01+
*       -2.704600851E+02               0
GRID*             153639               0-2.500000000E+001.2021909151E+01+
*       -2.674910422E+02               0
GRID*             153640               0-2.500000000E+001.2017340946E+01+
*       -2.645213155E+02               0
GRID*             153641               0-2.500000000E+001.2012899016E+01+
*       -2.615507373E+02               0
GRID*             153642               0-2.500000000E+001.2008589079E+01+
*       -2.585790165E+02               0
GRID*             153643               0-2.500000000E+001.2004392917E+01+
*       -2.556056378E+02               0
GRID*             153644               0-2.500000000E+001.2000208750E+01+
*       -2.526297197E+02               0
GRID*             153645               0-2.500000000E+001.1995730911E+01+
*       -2.496498254E+02               0
GRID*             153646               0-2.500000000E+001.1990132975E+01+
*       -2.466636354E+02               0
GRID*             153647               0-2.500000000E+001.1981330737E+01+
*       -2.436673062E+02               0
GRID*             153648               0-2.500000000E+001.1964941051E+01+
*       -2.406548488E+02               0
GRID*             153649               0-2.500000000E+001.1932798041E+01+
*       -2.376188508E+02               0
GRID*             153650               0-2.500000000E+001.1869129826E+01+
*       -2.345557494E+02               0
GRID*             153651               0-2.500000000E+001.1743456659E+01+
*       -2.314868438E+02               0
GRID*             153652               0-2.500000000E+001.1519879546E+01+
*       -2.285335380E+02               0
GRID*             153653               0-2.500000000E+001.1474040438E+01+
*       -2.257196665E+02               0
GRID*             153654               0-2.500000000E+001.3544184190E+01+
*       -2.254814163E+02               0
GRID*             153655               0-2.500000000E+001.5431882284E+01+
*       -2.252236228E+02               0
GRID*             153656               0-2.500000000E+001.7291793986E+01+
*       -2.249641889E+02               0
GRID*             153657               0-2.500000000E+001.7058004644E+01+
*       -2.231186349E+02               0
GRID*             153658               0-2.500000000E+001.6845242746E+01+
*       -2.214458295E+02               0
GRID*             153659               0-2.500000000E+001.6666561919E+01+
*       -2.199303075E+02               0
GRID*             153660               0-2.500000000E+001.6910991088E+01+
*       -2.183623644E+02               0
GRID*             153661               0-2.500000000E+001.7279304977E+01+
*       -2.164445195E+02               0
GRID*             153662               0-2.500000000E+001.7794342192E+01+
*       -2.138695688E+02               0
GRID*             153663               0-2.500000000E+001.5553161571E+01+
*       -2.139673878E+02               0
GRID*             153664               0-2.500000000E+001.3495960148E+01+
*       -2.140007523E+02               0
GRID*             153665               0-2.500000000E+001.1399405923E+01+
*       -2.139947452E+02               0
GRID*             153666               0-2.500000000E+001.1333974555E+01+
*       -2.110034981E+02               0
GRID*             153667               0-2.500000000E+001.1375721711E+01+
*       -2.080067386E+02               0
GRID*             153668               0-2.500000000E+001.1436714806E+01+
*       -2.049992666E+02               0
GRID*             153669               0-2.500000000E+001.1497201553E+01+
*       -2.019845749E+02               0
GRID*             153670               0-2.500000000E+001.1553480204E+01+
*       -1.989669777E+02               0
GRID*             153671               0-2.500000000E+001.1606135288E+01+
*       -1.959486565E+02               0
GRID*             153672               0-2.500000000E+001.1656662909E+01+
*       -1.929295493E+02               0
GRID*             153673               0-2.500000000E+001.1706022515E+01+
*       -1.899080941E+02               0
GRID*             153674               0-2.500000000E+001.1753907688E+01+
*       -1.868822121E+02               0
GRID*             153675               0-2.500000000E+001.1798825558E+01+
*       -1.838503819E+02               0
GRID*             153676               0-2.500000000E+001.1838929410E+01+
*       -1.808124273E+02               0
GRID*             153677               0-2.500000000E+001.1873056836E+01+
*       -1.777694318E+02               0
GRID*             153678               0-2.500000000E+001.1900896034E+01+
*       -1.747230174E+02               0
GRID*             153679               0-2.500000000E+001.1922812430E+01+
*       -1.716747942E+02               0
GRID*             153680               0-2.500000000E+001.1939647551E+01+
*       -1.686260615E+02               0
GRID*             153681               0-2.500000000E+001.1952461320E+01+
*       -1.655776502E+02               0
GRID*             153682               0-2.500000000E+001.1962292134E+01+
*       -1.625298797E+02               0
GRID*             153683               0-2.500000000E+001.1969994315E+01+
*       -1.594825819E+02               0
GRID*             153684               0-2.500000000E+001.1976153838E+01+
*       -1.564351290E+02               0
GRID*             153685               0-2.500000000E+001.1981043714E+01+
*       -1.533864042E+02               0
GRID*             153686               0-2.500000000E+001.1984560612E+01+
*       -1.503346849E+02               0
GRID*             153687               0-2.500000000E+001.1985972479E+01+
*       -1.472773234E+02               0
GRID*             153688               0-2.500000000E+001.1983175143E+01+
*       -1.442099727E+02               0
GRID*             153689               0-2.500000000E+001.1971512076E+01+
*       -1.411256816E+02               0
GRID*             153690               0-2.500000000E+001.1942082830E+01+
*       -1.380153484E+02               0
GRID*             153691               0-2.500000000E+001.1877652525E+01+
*       -1.348731682E+02               0
GRID*             153692               0-2.500000000E+001.1745222305E+01+
*       -1.317201358E+02               0
GRID*             153693               0-2.500000000E+001.1508733005E+01+
*       -1.286858568E+02               0
GRID*             153694               0-2.500000000E+001.1460379035E+01+
*       -1.257985087E+02               0
GRID*             153695               0-2.500000000E+001.3531632304E+01+
*       -1.255795678E+02               0
GRID*             153696               0-2.500000000E+001.5429983531E+01+
*       -1.253529280E+02               0
GRID*             153697               0-2.500000000E+001.7313018881E+01+
*       -1.251517843E+02               0
GRID*             153698               0-2.500000000E+001.7077145941E+01+
*       -1.232352842E+02               0
GRID*             153699               0-2.500000000E+001.6859335260E+01+
*       -1.215278073E+02               0
GRID*             153700               0-2.500000000E+001.6690404202E+01+
*       -1.199972245E+02               0
GRID*             153701               0-2.500000000E+001.6949911766E+01+
*       -1.184380707E+02               0
GRID*             153702               0-2.500000000E+001.7329888841E+01+
*       -1.165628151E+02               0
GRID*             153703               0-2.500000000E+001.7865277728E+01+
*       -1.141025774E+02               0
GRID*             153704               0-2.500000000E+001.5594884505E+01+
*       -1.141260577E+02               0
GRID*             153705               0-2.500000000E+001.3528523010E+01+
*       -1.141155804E+02               0
GRID*             153706               0-2.500000000E+001.1422462441E+01+
*       -1.140805381E+02               0
GRID*             153707               0-2.500000000E+001.1363439825E+01+
*       -1.111625722E+02               0
GRID*             153708               0-2.500000000E+001.1413073597E+01+
*       -1.082340502E+02               0
GRID*             153709               0-2.500000000E+001.1483889657E+01+
*       -1.052917809E+02               0
GRID*             153710               0-2.500000000E+001.1555378960E+01+
*       -1.023393785E+02               0
GRID*             153711               0-2.500000000E+001.1623058685E+01+
*       -9.938070382E+01               0
GRID*             153712               0-2.500000000E+001.1686490886E+01+
*       -9.641754050E+01               0
GRID*             153713               0-2.500000000E+001.1745733080E+01+
*       -9.344984094E+01               0
GRID*             153714               0-2.500000000E+001.1800092365E+01+
*       -9.047681497E+01               0
GRID*             153715               0-2.500000000E+001.1848136710E+01+
*       -8.749812894E+01               0
GRID*             153716               0-2.500000000E+001.1888477238E+01+
*       -8.451461931E+01               0
GRID*             153717               0-2.500000000E+001.1920644766E+01+
*       -8.152806155E+01               0
GRID*             153718               0-2.500000000E+001.1945127436E+01+
*       -7.854035665E+01               0
GRID*             153719               0-2.500000000E+001.1962969825E+01+
*       -7.555297084E+01               0
GRID*             153720               0-2.500000000E+001.1975368176E+01+
*       -7.256678031E+01               0
GRID*             153721               0-2.500000000E+001.1983417280E+01+
*       -6.958209562E+01               0
GRID*             153722               0-2.500000000E+001.1988132695E+01+
*       -6.660042227E+01               0
GRID*             153723               0-2.500000000E+001.1990429903E+01+
*       -6.362282754E+01               0
GRID*             153724               0-2.500000000E+001.1990717966E+01+
*       -6.064733165E+01               0
GRID*             153725               0-2.500000000E+001.1989407740E+01+
*       -5.767404747E+01               0
GRID*             153726               0-2.500000000E+001.1986728477E+01+
*       -5.470253546E+01               0
GRID*             153727               0-2.500000000E+001.1982781185E+01+
*       -5.173182485E+01               0
GRID*             153728               0-2.500000000E+001.1977369615E+01+
*       -4.875992001E+01               0
GRID*             153729               0-2.500000000E+001.1969591897E+01+
*       -4.578287044E+01               0
GRID*             153730               0-2.500000000E+001.1957406761E+01+
*       -4.279297482E+01               0
GRID*             153731               0-2.500000000E+001.1936907186E+01+
*       -3.977497022E+01               0
GRID*             153732               0-2.500000000E+001.1895191869E+01+
*       -3.670037797E+01               0
GRID*             153733               0-2.500000000E+001.1794579383E+01+
*       -3.353449697E+01               0
GRID*             153734               0-2.500000000E+001.1456477169E+01+
*       -3.046095203E+01               0
GRID*             153735               0-2.500000000E+001.1412144747E+01+
*       -2.750685242E+01               0
GRID*             153736               0-2.500000000E+001.1692109766E+01+
*       -2.477649877E+01               0
GRID*             153737               0-2.500000000E+001.1791294098E+01+
*       -2.178811126E+01               0
GRID*             153738               0-2.500000000E+001.1835986713E+01+
*       -1.877155845E+01               0
GRID*             153739               0-2.500000000E+001.1307751025E+01+
*       -1.604518724E+01               0
GRID*             153740               0-2.500000000E+001.2377171765E+01+
*       -1.337841033E+01               0
GRID*             153741               0-2.500000000E+001.5478412583E+01+
*       -1.262218878E+01               0
GRID*             153742               0-2.500000000E+001.8218444890E+01+
*       -1.249944493E+01               0
GRID*             153743               0-2.500000000E+002.0970863220E+01+
*       -1.266925450E+01               0
GRID*             153744               0-2.500000000E+002.3821754857E+01+
*       -1.265399922E+01               0
GRID*             153745               0-2.500000000E+002.6834861375E+01+
*       -1.260178686E+01               0
GRID*             153746               0-2.500000000E+002.9909214156E+01+
*       -1.259901155E+01               0
GRID*             153747               0-2.500000000E+003.3008762036E+01+
*       -1.260974522E+01               0
GRID*             153748               0-2.500000000E+003.6105133702E+01+
*       -1.262304328E+01               0
GRID*             153749               0-2.500000000E+003.9189833028E+01+
*       -1.263487525E+01               0
GRID*             153750               0-2.500000000E+004.2262685591E+01+
*       -1.264390276E+01               0
GRID*             153751               0-2.500000000E+004.5325891307E+01+
*       -1.264977859E+01               0
GRID*             153752               0-2.500000000E+004.8381859279E+01+
*       -1.265266293E+01               0
GRID*             153753               0-2.500000000E+005.1432734798E+01+
*       -1.265311476E+01               0
GRID*             153754               0-2.500000000E+005.4480507229E+01+
*       -1.265187640E+01               0
GRID*             153755               0-2.500000000E+005.7527304392E+01+
*       -1.264923002E+01               0
GRID*             153756               0-2.500000000E+006.0576449547E+01+
*       -1.264581926E+01               0
GRID*             153757               0-2.500000000E+006.3633990072E+01+
*       -1.264279294E+01               0
GRID*             153758               0-2.500000000E+006.6711764351E+01+
*       -1.264145066E+01               0
GRID*             153759               0-2.500000000E+006.9833136367E+01+
*       -1.264099896E+01               0
GRID*             153760               0-2.500000000E+007.3030504643E+01+
*       -1.262313630E+01               0
GRID*             153761               0-2.500000000E+007.6091938097E+01+
*       -1.238501002E+01               0
GRID*             153762               0-2.500000000E+007.8982853480E+01+
*       -1.234182097E+01               0
GRID*             153763               0-2.500000000E+008.1929304764E+01+
*       -1.250192359E+01               0
GRID*             153764               0-2.500000000E+008.4901447258E+01+
*       -1.253511480E+01               0
GRID*             153765               0-2.500000000E+008.1947559218E+01+
*       -1.509140174E+01               0
GRID*             153766               0-2.500000000E+002.0716871780E+01+
*       -1.549204860E+01               0
GRID*             153767               0-2.500000000E+001.9650161935E+01+
*       -1.167082045E+02               0
GRID*             153768               0-2.500000000E+002.2241053856E+01+
*       -1.172084510E+02               0
GRID*             153769               0-2.500000000E+002.5202727467E+01+
*       -1.174446368E+02               0
GRID*             153770               0-2.500000000E+002.8160358292E+01+
*       -1.176042327E+02               0
GRID*             153771               0-2.500000000E+003.1099739076E+01+
*       -1.177245109E+02               0
GRID*             153772               0-2.500000000E+003.4031410864E+01+
*       -1.178166251E+02               0
GRID*             153773               0-2.500000000E+003.6961552472E+01+
*       -1.178837270E+02               0
GRID*             153774               0-2.500000000E+003.9897065820E+01+
*       -1.179261333E+02               0
GRID*             153775               0-2.500000000E+004.2844919152E+01+
*       -1.179429566E+02               0
GRID*             153776               0-2.500000000E+004.5812786318E+01+
*       -1.179323233E+02               0
GRID*             153777               0-2.500000000E+004.8810315540E+01+
*       -1.178906809E+02               0
GRID*             153778               0-2.500000000E+005.1851102077E+01+
*       -1.178108780E+02               0
GRID*             153779               0-2.500000000E+005.4955096075E+01+
*       -1.176779668E+02               0
GRID*             153780               0-2.500000000E+005.8145399788E+01+
*       -1.174543304E+02               0
GRID*             153781               0-2.500000000E+006.1397748048E+01+
*       -1.170398284E+02               0
GRID*             153782               0-2.500000000E+006.4332942401E+01+
*       -1.162013714E+02               0
GRID*             153783               0-2.500000000E+006.7042857342E+01+
*       -1.156322522E+02               0
GRID*             153784               0-2.500000000E+006.9721153045E+01+
*       -1.152389578E+02               0
GRID*             153785               0-2.500000000E+007.2421116761E+01+
*       -1.149393678E+02               0
GRID*             153786               0-2.500000000E+007.5130899334E+01+
*       -1.146916919E+02               0
GRID*             153787               0-2.500000000E+007.7805522119E+01+
*       -1.144916074E+02               0
GRID*             153788               0-2.500000000E+008.0372533700E+01+
*       -1.143886881E+02               0
GRID*             153789               0-2.500000000E+001.9191825288E+01+
*       -1.232341703E+02               0
GRID*             153790               0-2.500000000E+002.1746364266E+01+
*       -1.230147216E+02               0
GRID*             153791               0-2.500000000E+002.4726971262E+01+
*       -1.231280248E+02               0
GRID*             153792               0-2.500000000E+002.7737294885E+01+
*       -1.233009682E+02               0
GRID*             153793               0-2.500000000E+003.0735470871E+01+
*       -1.234654441E+02               0
GRID*             153794               0-2.500000000E+003.3724917741E+01+
*       -1.236058523E+02               0
GRID*             153795               0-2.500000000E+003.6709588107E+01+
*       -1.237205785E+02               0
GRID*             153796               0-2.500000000E+003.9695688557E+01+
*       -1.238115377E+02               0
GRID*             153797               0-2.500000000E+004.2690183974E+01+
*       -1.238815009E+02               0
GRID*             153798               0-2.500000000E+004.5700994682E+01+
*       -1.239336817E+02               0
GRID*             153799               0-2.500000000E+004.8737932339E+01+
*       -1.239721950E+02               0
GRID*             153800               0-2.500000000E+005.1814482735E+01+
*       -1.240034702E+02               0
GRID*             153801               0-2.500000000E+005.4950287893E+01+
*       -1.240410734E+02               0
GRID*             153802               0-2.500000000E+005.8169270820E+01+
*       -1.241175758E+02               0
GRID*             153803               0-2.500000000E+006.1459802909E+01+
*       -1.243263015E+02               0
GRID*             153804               0-2.500000000E+006.4458191232E+01+
*       -1.249521557E+02               0
GRID*             153805               0-2.500000000E+006.7225658281E+01+
*       -1.253325184E+02               0
GRID*             153806               0-2.500000000E+006.9959227751E+01+
*       -1.255107909E+02               0
GRID*             153807               0-2.500000000E+007.2734343716E+01+
*       -1.255585428E+02               0
GRID*             153808               0-2.500000000E+007.5568187239E+01+
*       -1.255241668E+02               0
GRID*             153809               0-2.500000000E+007.8429094267E+01+
*       -1.254643961E+02               0
GRID*             153810               0-2.500000000E+008.0962224903E+01+
*       -1.256337210E+02               0
GRID*             153811               0-2.500000000E+001.9576443067E+01+
*       -2.164759275E+02               0
GRID*             153812               0-2.500000000E+002.2142700467E+01+
*       -2.168133285E+02               0
GRID*             153813               0-2.500000000E+002.5055927041E+01+
*       -2.168760442E+02               0
GRID*             153814               0-2.500000000E+002.7968044433E+01+
*       -2.168812170E+02               0
GRID*             153815               0-2.500000000E+003.0871790022E+01+
*       -2.168634021E+02               0
GRID*             153816               0-2.500000000E+003.3777088026E+01+
*       -2.168335703E+02               0
GRID*             153817               0-2.500000000E+003.6689422411E+01+
*       -2.167959692E+02               0
GRID*             153818               0-2.500000000E+003.9615597724E+01+
*       -2.167519174E+02               0
GRID*             153819               0-2.500000000E+004.2562732334E+01+
*       -2.167017524E+02               0
GRID*             153820               0-2.500000000E+004.5538549864E+01+
*       -2.166451301E+02               0
GRID*             153821               0-2.500000000E+004.8552308503E+01+
*       -2.165802708E+02               0
GRID*             153822               0-2.500000000E+005.1616564089E+01+
*       -2.165020154E+02               0
GRID*             153823               0-2.500000000E+005.4749401563E+01+
*       -2.163970944E+02               0
GRID*             153824               0-2.500000000E+005.7971711475E+01+
*       -2.162305510E+02               0
GRID*             153825               0-2.500000000E+006.1260380999E+01+
*       -2.159047618E+02               0
GRID*             153826               0-2.500000000E+006.4241479010E+01+
*       -2.151638266E+02               0
GRID*             153827               0-2.500000000E+006.6989081003E+01+
*       -2.146855335E+02               0
GRID*             153828               0-2.500000000E+006.9692240349E+01+
*       -2.143977435E+02               0
GRID*             153829               0-2.500000000E+007.2407026733E+01+
*       -2.142203450E+02               0
GRID*             153830               0-2.500000000E+007.5125280597E+01+
*       -2.141083249E+02               0
GRID*             153831               0-2.500000000E+007.7805412060E+01+
*       -2.140504546E+02               0
GRID*             153832               0-2.500000000E+008.0373718789E+01+
*       -2.140832768E+02               0
GRID*             153833               0-2.500000000E+001.9142723357E+01+
*       -2.230291534E+02               0
GRID*             153834               0-2.500000000E+002.1656305633E+01+
*       -2.226620982E+02               0
GRID*             153835               0-2.500000000E+002.4599305227E+01+
*       -2.225899926E+02               0
GRID*             153836               0-2.500000000E+002.7582256811E+01+
*       -2.225978658E+02               0
GRID*             153837               0-2.500000000E+003.0553844360E+01+
*       -2.226190531E+02               0
GRID*             153838               0-2.500000000E+003.3518517815E+01+
*       -2.226366925E+02               0
GRID*             153839               0-2.500000000E+003.6481328716E+01+
*       -2.226491934E+02               0
GRID*             153840               0-2.500000000E+003.9449265599E+01+
*       -2.226588679E+02               0
GRID*             153841               0-2.500000000E+004.2430033492E+01+
*       -2.226692411E+02               0
GRID*             153842               0-2.500000000E+004.5432346315E+01+
*       -2.226844488E+02               0
GRID*             153843               0-2.500000000E+004.8466857234E+01+
*       -2.227095312E+02               0
GRID*             153844               0-2.500000000E+005.1547865171E+01+
*       -2.227518990E+02               0
GRID*             153845               0-2.500000000E+005.4695548421E+01+
*       -2.228258139E+02               0
GRID*             153846               0-2.500000000E+005.7933760859E+01+
*       -2.229659775E+02               0
GRID*             153847               0-2.500000000E+006.1246068728E+01+
*       -2.232692887E+02               0
GRID*             153848               0-2.500000000E+006.4255149998E+01+
*       -2.240020026E+02               0
GRID*             153849               0-2.500000000E+006.7037325731E+01+
*       -2.244749350E+02               0
GRID*             153850               0-2.500000000E+006.9794412150E+01+
*       -2.247535402E+02               0
GRID*             153851               0-2.500000000E+007.2600247797E+01+
*       -2.249150227E+02               0
GRID*             153852               0-2.500000000E+007.5470923962E+01+
*       -2.250098563E+02               0
GRID*             153853               0-2.500000000E+007.8368877769E+01+
*       -2.250988881E+02               0
GRID*             153854               0-2.500000000E+008.0923218285E+01+
*       -2.254063172E+02               0
GRID*             153855               0-2.500000000E+008.7668614687E+01+
*       -3.235772769E+02               0
GRID*             153856               0-2.500000000E+008.1948345665E+01+
*       -3.259948893E+02               0
GRID*             153857               0-2.500000000E+008.0406226168E+01+
*       -3.259834985E+02               0
GRID*             153858               0-2.500000000E+008.3500087579E+01+
*       -3.258614719E+02               0
GRID*             153859               0-2.500000000E+002.5825491324E+01+
*       -3.141302095E+02               0
GRID*             153860               0-2.500000000E+002.8669493726E+01+
*       -3.135390899E+02               0
GRID*             153861               0-2.500000000E+003.1476105578E+01+
*       -3.131344196E+02               0
GRID*             153862               0-2.500000000E+003.4319452147E+01+
*       -3.128058639E+02               0
GRID*             153863               0-2.500000000E+003.7208586138E+01+
*       -3.125367577E+02               0
GRID*             153864               0-2.500000000E+004.0136462811E+01+
*       -3.123253579E+02               0
GRID*             153865               0-2.500000000E+004.3094757691E+01+
*       -3.121704158E+02               0
GRID*             153866               0-2.500000000E+004.6077311023E+01+
*       -3.120701203E+02               0
GRID*             153867               0-2.500000000E+004.9080180429E+01+
*       -3.120229692E+02               0
GRID*             153868               0-2.500000000E+005.2101010726E+01+
*       -3.120284477E+02               0
GRID*             153869               0-2.500000000E+005.5138460247E+01+
*       -3.120874007E+02               0
GRID*             153870               0-2.500000000E+005.8191779347E+01+
*       -3.122023394E+02               0
GRID*             153871               0-2.500000000E+006.1260601214E+01+
*       -3.123780457E+02               0
GRID*             153872               0-2.500000000E+006.4345423287E+01+
*       -3.126233419E+02               0
GRID*             153873               0-2.500000000E+006.7449868037E+01+
*       -3.129561996E+02               0
GRID*             153874               0-2.500000000E+007.0587019016E+01+
*       -3.134176990E+02               0
GRID*             153875               0-2.500000000E+007.3805146373E+01+
*       -3.141178143E+02               0
GRID*             153876               0-2.500000000E+002.4791622817E+01+
*       -3.252355088E+02               0
GRID*             153877               0-2.500000000E+002.7676044861E+01+
*       -3.255220273E+02               0
GRID*             153878               0-2.500000000E+003.0640205573E+01+
*       -3.255888354E+02               0
GRID*             153879               0-2.500000000E+003.3621080513E+01+
*       -3.255745393E+02               0
GRID*             153880               0-2.500000000E+003.6612769654E+01+
*       -3.255353551E+02               0
GRID*             153881               0-2.500000000E+003.9614381951E+01+
*       -3.254941381E+02               0
GRID*             153882               0-2.500000000E+004.2625289920E+01+
*       -3.254602157E+02               0
GRID*             153883               0-2.500000000E+004.5644916162E+01+
*       -3.254373167E+02               0
GRID*             153884               0-2.500000000E+004.8672910855E+01+
*       -3.254268653E+02               0
GRID*             153885               0-2.500000000E+005.1709334125E+01+
*       -3.254293473E+02               0
GRID*             153886               0-2.500000000E+005.4754815800E+01+
*       -3.254448161E+02               0
GRID*             153887               0-2.500000000E+005.7810729098E+01+
*       -3.254729242E+02               0
GRID*             153888               0-2.500000000E+006.0879511425E+01+
*       -3.255123748E+02               0
GRID*             153889               0-2.500000000E+006.3965617313E+01+
*       -3.255588707E+02               0
GRID*             153890               0-2.500000000E+006.7078599913E+01+
*       -3.255990344E+02               0
GRID*             153891               0-2.500000000E+007.0243416592E+01+
*       -3.255937151E+02               0
GRID*             153892               0-2.500000000E+007.3542056903E+01+
*       -3.254197086E+02               0
GRID*             153893               0-2.500000000E+002.1006653244E+01+
*       -3.260757423E+02               0
GRID*             153894               0-2.500000000E+001.9275025156E+01+
*       -3.259141516E+02               0
GRID*             153895               0-2.500000000E+002.2623652182E+01+
*       -3.260387289E+02               0
GRID*             153896               0-2.500000000E+002.5103255524E+01+
*       -3.233515934E+02               0
GRID*             153897               0-2.500000000E+002.7912989210E+01+
*       -3.234913496E+02               0
GRID*             153898               0-2.500000000E+003.0826193419E+01+
*       -3.234901096E+02               0
GRID*             153899               0-2.500000000E+003.3776306236E+01+
*       -3.234306714E+02               0
GRID*             153900               0-2.500000000E+003.6746383781E+01+
*       -3.233568837E+02               0
GRID*             153901               0-2.500000000E+003.9731802251E+01+
*       -3.232888395E+02               0
GRID*             153902               0-2.500000000E+004.2730770870E+01+
*       -3.232352451E+02               0
GRID*             153903               0-2.500000000E+004.5742256471E+01+
*       -3.231996919E+02               0
GRID*             153904               0-2.500000000E+004.8765701414E+01+
*       -3.231835877E+02               0
GRID*             153905               0-2.500000000E+005.1801124906E+01+
*       -3.231874756E+02               0
GRID*             153906               0-2.500000000E+005.4849284870E+01+
*       -3.232115616E+02               0
GRID*             153907               0-2.500000000E+005.7911871699E+01+
*       -3.232557601E+02               0
GRID*             153908               0-2.500000000E+006.0991883112E+01+
*       -3.233190680E+02               0
GRID*             153909               0-2.500000000E+006.4094756740E+01+
*       -3.233972053E+02               0
GRID*             153910               0-2.500000000E+006.7232045237E+01+
*       -3.234762197E+02               0
GRID*             153911               0-2.500000000E+007.0432120991E+01+
*       -3.235174750E+02               0
GRID*             153912               0-2.500000000E+007.3768965604E+01+
*       -3.234222832E+02               0
GRID*             153913               0-2.500000000E+002.5273784790E+01+
*       -3.215719856E+02               0
GRID*             153914               0-2.500000000E+002.8095723749E+01+
*       -3.215409578E+02               0
GRID*             153915               0-2.500000000E+003.0990120271E+01+
*       -3.214421654E+02               0
GRID*             153916               0-2.500000000E+003.3919089000E+01+
*       -3.213215688E+02               0
GRID*             153917               0-2.500000000E+003.6870852273E+01+
*       -3.212056722E+02               0
GRID*             153918               0-2.500000000E+003.9841656101E+01+
*       -3.211073982E+02               0
GRID*             153919               0-2.500000000E+004.2829620920E+01+
*       -3.210325836E+02               0
GRID*             153920               0-2.500000000E+004.5833416282E+01+
*       -3.209836621E+02               0
GRID*             153921               0-2.500000000E+004.8852211443E+01+
*       -3.209615955E+02               0
GRID*             153922               0-2.500000000E+005.1885840177E+01+
*       -3.209668547E+02               0
GRID*             153923               0-2.500000000E+005.4934961056E+01+
*       -3.209998668E+02               0
GRID*             153924               0-2.500000000E+005.8001220267E+01+
*       -3.210610877E+02               0
GRID*             153925               0-2.500000000E+006.1087569676E+01+
*       -3.211504852E+02               0
GRID*             153926               0-2.500000000E+006.4199364855E+01+
*       -3.212656524E+02               0
GRID*             153927               0-2.500000000E+006.7347912638E+01+
*       -3.213972847E+02               0
GRID*             153928               0-2.500000000E+007.0558883239E+01+
*       -3.215203134E+02               0
GRID*             153929               0-2.500000000E+007.3885822476E+01+
*       -3.215797835E+02               0
GRID*             153930               0-2.500000000E+002.5391455363E+01+
*       -3.198240117E+02               0
GRID*             153931               0-2.500000000E+002.8246002255E+01+
*       -3.196179879E+02               0
GRID*             153932               0-2.500000000E+003.1134566518E+01+
*       -3.194128544E+02               0
GRID*             153933               0-2.500000000E+003.4047218751E+01+
*       -3.192258470E+02               0
GRID*             153934               0-2.500000000E+003.6982728619E+01+
*       -3.190652590E+02               0
GRID*             153935               0-2.500000000E+003.9940274284E+01+
*       -3.189355537E+02               0
GRID*             153936               0-2.500000000E+004.2918256604E+01+
*       -3.188389615E+02               0
GRID*             153937               0-2.500000000E+004.5914945621E+01+
*       -3.187763643E+02               0
GRID*             153938               0-2.500000000E+004.8929060583E+01+
*       -3.187480727E+02               0
GRID*             153939               0-2.500000000E+005.1960059792E+01+
*       -3.187544037E+02               0
GRID*             153940               0-2.500000000E+005.5008265910E+01+
*       -3.187960285E+02               0
GRID*             153941               0-2.500000000E+005.8074940165E+01+
*       -3.188740948E+02               0
GRID*             153942               0-2.500000000E+006.1162496762E+01+
*       -3.189899959E+02               0
GRID*             153943               0-2.500000000E+006.4275558654E+01+
*       -3.191445106E+02               0
GRID*             153944               0-2.500000000E+006.7424370174E+01+
*       -3.193361085E+02               0
GRID*             153945               0-2.500000000E+007.0631810989E+01+
*       -3.195580363E+02               0
GRID*             153946               0-2.500000000E+007.3941349750E+01+
*       -3.197923275E+02               0
GRID*             153947               0-2.500000000E+002.5496448453E+01+
*       -3.180564543E+02               0
GRID*             153948               0-2.500000000E+002.8382806687E+01+
*       -3.176744914E+02               0
GRID*             153949               0-2.500000000E+003.1263649648E+01+
*       -3.173690046E+02               0
GRID*             153950               0-2.500000000E+003.4158906516E+01+
*       -3.171200517E+02               0
GRID*             153951               0-2.500000000E+003.7078540036E+01+
*       -3.169170890E+02               0
GRID*             153952               0-2.500000000E+004.0024006465E+01+
*       -3.167571109E+02               0
GRID*             153953               0-2.500000000E+004.2993264734E+01+
*       -3.166393382E+02               0
GRID*             153954               0-2.500000000E+004.5983712807E+01+
*       -3.165632795E+02               0
GRID*             153955               0-2.500000000E+004.8993342751E+01+
*       -3.165285921E+02               0
GRID*             153956               0-2.500000000E+005.2021043680E+01+
*       -3.165353894E+02               0
GRID*             153957               0-2.500000000E+005.5066605400E+01+
*       -3.165845352E+02               0
GRID*             153958               0-2.500000000E+005.8130655187E+01+
*       -3.166778477E+02               0
GRID*             153959               0-2.500000000E+006.1214775313E+01+
*       -3.168182592E+02               0
GRID*             153960               0-2.500000000E+006.4322557352E+01+
*       -3.170102038E+02               0
GRID*             153961               0-2.500000000E+006.7463031791E+01+
*       -3.172610149E+02               0
GRID*             153962               0-2.500000000E+007.0657859811E+01+
*       -3.175841018E+02               0
GRID*             153963               0-2.500000000E+007.3951658075E+01+
*       -3.180000550E+02               0
GRID*             153964               0-2.500000000E+002.5621600753E+01+
*       -3.162031058E+02               0
GRID*             153965               0-2.500000000E+002.8520870757E+01+
*       -3.156607922E+02               0
GRID*             153966               0-2.500000000E+003.1378432276E+01+
*       -3.152801324E+02               0
GRID*             153967               0-2.500000000E+003.4250657591E+01+
*       -3.149827382E+02               0
GRID*             153968               0-2.500000000E+003.7154187242E+01+
*       -3.147436501E+02               0
GRID*             153969               0-2.500000000E+004.0089241044E+01+
*       -3.145564834E+02               0
GRID*             153970               0-2.500000000E+004.3051630734E+01+
*       -3.144191749E+02               0
GRID*             153971               0-2.500000000E+004.6037189291E+01+
*       -3.143304049E+02               0
GRID*             153972               0-2.500000000E+004.9042916115E+01+
*       -3.142892815E+02               0
GRID*             153973               0-2.500000000E+005.2067007226E+01+
*       -3.142956628E+02               0
GRID*             153974               0-2.500000000E+005.5108617886E+01+
*       -3.143504768E+02               0
GRID*             153975               0-2.500000000E+005.8167631220E+01+
*       -3.144560194E+02               0
GRID*             153976               0-2.500000000E+006.1244682255E+01+
*       -3.146164774E+02               0
GRID*             153977               0-2.500000000E+006.4342128697E+01+
*       -3.148393960E+02               0
GRID*             153978               0-2.500000000E+006.7467269150E+01+
*       -3.151397819E+02               0
GRID*             153979               0-2.500000000E+007.0640198030E+01+
*       -3.155501641E+02               0
GRID*             153980               0-2.500000000E+007.3914272689E+01+
*       -3.161414988E+02               0
GRID*             153981               0-2.500000000E+001.2338214195E+01+
*       -3.155167982E+02               0
GRID*             153982               0-2.500000000E+001.5186860438E+01+
*       -3.260377912E+02               0
GRID*             153983               0-2.500000000E+001.6919748119E+01+
*       -3.259031766E+02               0
GRID*             153984               0-2.500000000E+001.3586019756E+01+
*       -3.259714343E+02               0
GRID*             153985               0-2.500000000E+001.2391443032E+01+
*       -3.172988219E+02               0
GRID*             153986               0-2.500000000E+001.2316214862E+01+
*       -3.213736984E+02               0
GRID*             153987               0-2.500000000E+001.2484394333E+01+
*       -3.229267343E+02               0
GRID*             153988               0-2.500000000E+001.2376601396E+01+
*       -3.196035185E+02               0
GRID*             153989               0-2.500000000E+008.6055179915E+01+
*       -2.286259316E+02               0
GRID*             153990               0-2.500000000E+008.3575843684E+01+
*       -2.279834225E+02               0
GRID*             153991               0-2.500000000E+008.0780293945E+01+
*       -2.280919220E+02               0
GRID*             153992               0-2.500000000E+007.8030199489E+01+
*       -2.279818773E+02               0
GRID*             153993               0-2.500000000E+007.5193492695E+01+
*       -2.278647196E+02               0
GRID*             153994               0-2.500000000E+007.2336993590E+01+
*       -2.277234731E+02               0
GRID*             153995               0-2.500000000E+006.9487731471E+01+
*       -2.275295417E+02               0
GRID*             153996               0-2.500000000E+006.6637622323E+01+
*       -2.272562046E+02               0
GRID*             153997               0-2.500000000E+006.3743821350E+01+
*       -2.268870316E+02               0
GRID*             153998               0-2.500000000E+006.0737223587E+01+
*       -2.264602110E+02               0
GRID*             153999               0-2.500000000E+005.7617211963E+01+
*       -2.261632710E+02               0
GRID*             154000               0-2.500000000E+005.4492506707E+01+
*       -2.259698994E+02               0
GRID*             154001               0-2.500000000E+005.1401741383E+01+
*       -2.258416039E+02               0
GRID*             154002               0-2.500000000E+004.8349183476E+01+
*       -2.257537602E+02               0
GRID*             154003               0-2.500000000E+004.5328440469E+01+
*       -2.256919837E+02               0
GRID*             154004               0-2.500000000E+004.2331059668E+01+
*       -2.256469671E+02               0
GRID*             154005               0-2.500000000E+003.9349042257E+01+
*       -2.256115524E+02               0
GRID*             154006               0-2.500000000E+003.6375560864E+01+
*       -2.255793549E+02               0
GRID*             154007               0-2.500000000E+003.3405598150E+01+
*       -2.255440882E+02               0
GRID*             154008               0-2.500000000E+003.0437709872E+01+
*       -2.254991639E+02               0
GRID*             154009               0-2.500000000E+002.7479124129E+01+
*       -2.254376899E+02               0
GRID*             154010               0-2.500000000E+002.4559344084E+01+
*       -2.253540503E+02               0
GRID*             154011               0-2.500000000E+002.1769480685E+01+
*       -2.252488707E+02               0
GRID*             154012               0-2.500000000E+001.9310796168E+01+
*       -2.251381534E+02               0
GRID*             154013               0-2.500000000E+008.6196113754E+01+
*       -2.267497755E+02               0
GRID*             154014               0-2.500000000E+008.7610816546E+01+
*       -2.268373568E+02               0
GRID*             154015               0-2.500000000E+008.4746683007E+01+
*       -2.266553628E+02               0
GRID*             154016               0-2.500000000E+001.5076224380E+01+
*       -2.762872450E+02               0
GRID*             154017               0-2.500000000E+001.8120491629E+01+
*       -2.761697827E+02               0
GRID*             154018               0-2.500000000E+002.1168598673E+01+
*       -2.760455678E+02               0
GRID*             154019               0-2.500000000E+002.4219690477E+01+
*       -2.759165861E+02               0
GRID*             154020               0-2.500000000E+002.7272515094E+01+
*       -2.757860990E+02               0
GRID*             154021               0-2.500000000E+003.0326002420E+01+
*       -2.756578476E+02               0
GRID*             154022               0-2.500000000E+003.3379589578E+01+
*       -2.755355317E+02               0
GRID*             154023               0-2.500000000E+003.6433275571E+01+
*       -2.754226029E+02               0
GRID*             154024               0-2.500000000E+003.9487470262E+01+
*       -2.753222919E+02               0
GRID*             154025               0-2.500000000E+004.2542726890E+01+
*       -2.752377247E+02               0
GRID*             154026               0-2.500000000E+004.5599430309E+01+
*       -2.751719811E+02               0
GRID*             154027               0-2.500000000E+004.8657499268E+01+
*       -2.751279971E+02               0
GRID*             154028               0-2.500000000E+005.1716182464E+01+
*       -2.751082659E+02               0
GRID*             154029               0-2.500000000E+005.4774053667E+01+
*       -2.751144124E+02               0
GRID*             154030               0-2.500000000E+005.7829256408E+01+
*       -2.751468651E+02               0
GRID*             154031               0-2.500000000E+006.0879894320E+01+
*       -2.752048508E+02               0
GRID*             154032               0-2.500000000E+006.3924371953E+01+
*       -2.752866322E+02               0
GRID*             154033               0-2.500000000E+006.6961576874E+01+
*       -2.753897639E+02               0
GRID*             154034               0-2.500000000E+006.9990900360E+01+
*       -2.755111518E+02               0
GRID*             154035               0-2.500000000E+007.3012149497E+01+
*       -2.756468503E+02               0
GRID*             154036               0-2.500000000E+007.6025440588E+01+
*       -2.757918707E+02               0
GRID*             154037               0-2.500000000E+007.9031164601E+01+
*       -2.759405175E+02               0
GRID*             154038               0-2.500000000E+008.2030050833E+01+
*       -2.760874670E+02               0
GRID*             154039               0-2.500000000E+008.5023263765E+01+
*       -2.762291913E+02               0
GRID*             154040               0-2.500000000E+001.5069162258E+01+
*       -3.031692846E+02               0
GRID*             154041               0-2.500000000E+001.8167493750E+01+
*       -3.030801325E+02               0
GRID*             154042               0-2.500000000E+002.1370827981E+01+
*       -3.029234378E+02               0
GRID*             154043               0-2.500000000E+002.4690392890E+01+
*       -3.025395469E+02               0
GRID*             154044               0-2.500000000E+002.7914243424E+01+
*       -3.018415195E+02               0
GRID*             154045               0-2.500000000E+003.0987982117E+01+
*       -3.013113225E+02               0
GRID*             154046               0-2.500000000E+003.4006066535E+01+
*       -3.009015983E+02               0
GRID*             154047               0-2.500000000E+003.7007679821E+01+
*       -3.005821615E+02               0
GRID*             154048               0-2.500000000E+004.0007538283E+01+
*       -3.003366164E+02               0
GRID*             154049               0-2.500000000E+004.3010980848E+01+
*       -3.001559971E+02               0
GRID*             154050               0-2.500000000E+004.6019792731E+01+
*       -3.000350457E+02               0
GRID*             154051               0-2.500000000E+004.9034314406E+01+
*       -2.999705581E+02               0
GRID*             154052               0-2.500000000E+005.2054173518E+01+
*       -2.999606473E+02               0
GRID*             154053               0-2.500000000E+005.5078511821E+01+
*       -3.000043589E+02               0
GRID*             154054               0-2.500000000E+005.8106020679E+01+
*       -3.001013885E+02               0
GRID*             154055               0-2.500000000E+006.1134877025E+01+
*       -3.002517526E+02               0
GRID*             154056               0-2.500000000E+006.4162704064E+01+
*       -3.004553332E+02               0
GRID*             154057               0-2.500000000E+006.7186805370E+01+
*       -3.007114944E+02               0
GRID*             154058               0-2.500000000E+007.0204592089E+01+
*       -3.010187950E+02               0
GRID*             154059               0-2.500000000E+007.3213764544E+01+
*       -3.013737245E+02               0
GRID*             154060               0-2.500000000E+007.6211809900E+01+
*       -3.017668517E+02               0
GRID*             154061               0-2.500000000E+007.9194264295E+01+
*       -3.021749589E+02               0
GRID*             154062               0-2.500000000E+008.2158163085E+01+
*       -3.025526032E+02               0
GRID*             154063               0-2.500000000E+008.5113665398E+01+
*       -3.028851061E+02               0
GRID*             154064               0-2.500000000E+002.1201170119E+01+
*       -3.062340273E+02               0
GRID*             154065               0-2.500000000E+002.0610983802E+01+
*       -3.098000594E+02               0
GRID*             154066               0-2.500000000E+002.1203574280E+01+
*       -3.128225382E+02               0
GRID*             154067               0-2.500000000E+001.7763983847E+01+
*       -3.136452817E+02               0
GRID*             154068               0-2.500000000E+001.7304418598E+01+
*       -3.116758877E+02               0
GRID*             154069               0-2.500000000E+001.7673448492E+01+
*       -3.092253762E+02               0
GRID*             154070               0-2.500000000E+001.7996066667E+01+
*       -3.062007959E+02               0
GRID*             154071               0-2.500000000E+001.9442537843E+01+
*       -3.133907202E+02               0
GRID*             154072               0-2.500000000E+001.9198972705E+01+
*       -3.115303859E+02               0
GRID*             154073               0-2.500000000E+001.4962876224E+01+
*       -3.062314480E+02               0
GRID*             154074               0-2.500000000E+001.2575075129E+01+
*       -3.139949074E+02               0
GRID*             154075               0-2.500000000E+001.6149428199E+01+
*       -3.139861830E+02               0
GRID*             154076               0-2.500000000E+001.5089661512E+01+
*       -3.145631470E+02               0
GRID*             154077               0-2.500000000E+001.4815752270E+01+
*       -3.092961058E+02               0
GRID*             154078               0-2.500000000E+001.4740919942E+01+
*       -3.124153995E+02               0
GRID*             154079               0-2.500000000E+001.3936020853E+01+
*       -3.141352301E+02               0
GRID*             154080               0-2.500000000E+002.4834659761E+01+
*       -3.059360164E+02               0
GRID*             154081               0-2.500000000E+002.8178146392E+01+
*       -3.045626867E+02               0
GRID*             154082               0-2.500000000E+003.1174258268E+01+
*       -3.039097313E+02               0
GRID*             154083               0-2.500000000E+003.4130974556E+01+
*       -3.034592509E+02               0
GRID*             154084               0-2.500000000E+003.7094248562E+01+
*       -3.031203320E+02               0
GRID*             154085               0-2.500000000E+004.0070314707E+01+
*       -3.028639379E+02               0
GRID*             154086               0-2.500000000E+004.3058732342E+01+
*       -3.026774815E+02               0
GRID*             154087               0-2.500000000E+004.6058146992E+01+
*       -3.025542331E+02               0
GRID*             154088               0-2.500000000E+004.9067236824E+01+
*       -3.024903130E+02               0
GRID*             154089               0-2.500000000E+005.2084736779E+01+
*       -3.024836377E+02               0
GRID*             154090               0-2.500000000E+005.5109293980E+01+
*       -3.025334478E+02               0
GRID*             154091               0-2.500000000E+005.8139285215E+01+
*       -3.026400114E+02               0
GRID*             154092               0-2.500000000E+006.1172617101E+01+
*       -3.028043362E+02               0
GRID*             154093               0-2.500000000E+006.4206685050E+01+
*       -3.030279547E+02               0
GRID*             154094               0-2.500000000E+006.7238722522E+01+
*       -3.033131569E+02               0
GRID*             154095               0-2.500000000E+007.0266338750E+01+
*       -3.036635006E+02               0
GRID*             154096               0-2.500000000E+007.3287557152E+01+
*       -3.040829271E+02               0
GRID*             154097               0-2.500000000E+007.6299235456E+01+
*       -3.045702367E+02               0
GRID*             154098               0-2.500000000E+007.9287882441E+01+
*       -3.050990674E+02               0
GRID*             154099               0-2.500000000E+008.2234292643E+01+
*       -3.055597675E+02               0
GRID*             154100               0-2.500000000E+008.5171046974E+01+
*       -3.060183946E+02               0
GRID*             154101               0-2.500000000E+008.5244613729E+01+
*       -3.095440417E+02               0
GRID*             154102               0-2.500000000E+008.6333273387E+01+
*       -3.127268099E+02               0
GRID*             154103               0-2.500000000E+008.4571675080E+01+
*       -3.131805890E+02               0
GRID*             154104               0-2.500000000E+008.2934733279E+01+
*       -3.134090151E+02               0
GRID*             154105               0-2.500000000E+008.1378913611E+01+
*       -3.137068649E+02               0
GRID*             154106               0-2.500000000E+008.0243004211E+01+
*       -3.143194783E+02               0
GRID*             154107               0-2.500000000E+007.8895848428E+01+
*       -3.136051087E+02               0
GRID*             154108               0-2.500000000E+007.6707577894E+01+
*       -3.128179796E+02               0
GRID*             154109               0-2.500000000E+007.3611730721E+01+
*       -3.117967279E+02               0
GRID*             154110               0-2.500000000E+007.0500905790E+01+
*       -3.111373938E+02               0
GRID*             154111               0-2.500000000E+006.7404227358E+01+
*       -3.106722845E+02               0
GRID*             154112               0-2.500000000E+006.4322358491E+01+
*       -3.103298913E+02               0
GRID*             154113               0-2.500000000E+006.1252597760E+01+
*       -3.100760723E+02               0
GRID*             154114               0-2.500000000E+005.8194347032E+01+
*       -3.098942150E+02               0
GRID*             154115               0-2.500000000E+005.5148330043E+01+
*       -3.097758109E+02               0
GRID*             154116               0-2.500000000E+005.2115669063E+01+
*       -3.097162757E+02               0
GRID*             154117               0-2.500000000E+004.9097681705E+01+
*       -3.097133413E+02               0
GRID*             154118               0-2.500000000E+004.6096145711E+01+
*       -3.097664931E+02               0
GRID*             154119               0-2.500000000E+004.3113839718E+01+
*       -3.098767089E+02               0
GRID*             154120               0-2.500000000E+004.0155436093E+01+
*       -3.100460824E+02               0
GRID*             154121               0-2.500000000E+003.7228941457E+01+
*       -3.102768709E+02               0
GRID*             154122               0-2.500000000E+003.4347715387E+01+
*       -3.105691901E+02               0
GRID*             154123               0-2.500000000E+003.1531595771E+01+
*       -3.109159352E+02               0
GRID*             154124               0-2.500000000E+002.8799310076E+01+
*       -3.112949539E+02               0
GRID*             154125               0-2.500000000E+002.6134634879E+01+
*       -3.116957074E+02               0
GRID*             154126               0-2.500000000E+002.3428004987E+01+
*       -3.122701286E+02               0
GRID*             154127               0-2.500000000E+002.3752391793E+01+
*       -3.092829043E+02               0
GRID*             154128               0-2.500000000E+007.9704967275E+01+
*       -3.113843610E+02               0
GRID*             154129               0-2.500000000E+007.9442191041E+01+
*       -3.081178823E+02               0
GRID*             154130               0-2.500000000E+008.2246537642E+01+
*       -3.111946331E+02               0
GRID*             154131               0-2.500000000E+008.2334827620E+01+
*       -3.086235383E+02               0
GRID*             154132               0-2.500000000E+008.4072052391E+01+
*       -3.112130769E+02               0
GRID*             154133               0-2.500000000E+003.1401446281E+01+
*       -3.063308725E+02               0
GRID*             154134               0-2.500000000E+003.1515887228E+01+
*       -3.086436236E+02               0
GRID*             154135               0-2.500000000E+002.8713712929E+01+
*       -3.068153808E+02               0
GRID*             154136               0-2.500000000E+002.8839038796E+01+
*       -3.090295176E+02               0
GRID*             154137               0-2.500000000E+002.6345175924E+01+
*       -3.093147507E+02               0
GRID*             154138               0-2.500000000E+002.6533846386E+01+
*       -3.072654981E+02               0
GRID*             154139               0-2.500000000E+003.4251537612E+01+
*       -3.059091875E+02               0
GRID*             154140               0-2.500000000E+003.4325603336E+01+
*       -3.082667153E+02               0
GRID*             154141               0-2.500000000E+003.7168041211E+01+
*       -3.055756089E+02               0
GRID*             154142               0-2.500000000E+003.7213729760E+01+
*       -3.079531692E+02               0
GRID*             154143               0-2.500000000E+004.0119498326E+01+
*       -3.053200541E+02               0
GRID*             154144               0-2.500000000E+004.0147752557E+01+
*       -3.077080494E+02               0
GRID*             154145               0-2.500000000E+004.3093726268E+01+
*       -3.051341865E+02               0
GRID*             154146               0-2.500000000E+004.3111569464E+01+
*       -3.075287240E+02               0
GRID*             154147               0-2.500000000E+004.6084904941E+01+
*       -3.050122498E+02               0
GRID*             154148               0-2.500000000E+004.6096919580E+01+
*       -3.074115205E+02               0
GRID*             154149               0-2.500000000E+004.9089758487E+01+
*       -3.049506062E+02               0
GRID*             154150               0-2.500000000E+004.9099254129E+01+
*       -3.073536313E+02               0
GRID*             154151               0-2.500000000E+005.2106113413E+01+
*       -3.049473671E+02               0
GRID*             154152               0-2.500000000E+005.2115811795E+01+
*       -3.073536322E+02               0
GRID*             154153               0-2.500000000E+005.5132203616E+01+
*       -3.050021492E+02               0
GRID*             154154               0-2.500000000E+005.5144641575E+01+
*       -3.074116076E+02               0
GRID*             154155               0-2.500000000E+005.8166238933E+01+
*       -3.051159097E+02               0
GRID*             154156               0-2.500000000E+005.8184039889E+01+
*       -3.075292268E+02               0
GRID*             154157               0-2.500000000E+006.1206115310E+01+
*       -3.052908818E+02               0
GRID*             154158               0-2.500000000E+006.1232258959E+01+
*       -3.077100502E+02               0
GRID*             154159               0-2.500000000E+006.4249429093E+01+
*       -3.055309230E+02               0
GRID*             154160               0-2.500000000E+006.4287633017E+01+
*       -3.079606319E+02               0
GRID*             154161               0-2.500000000E+006.7293985455E+01+
*       -3.058428424E+02               0
GRID*             154162               0-2.500000000E+006.7349295587E+01+
*       -3.082933692E+02               0
GRID*             154163               0-2.500000000E+007.0338574868E+01+
*       -3.062387295E+02               0
GRID*             154164               0-2.500000000E+007.0418384948E+01+
*       -3.087323170E+02               0
GRID*             154165               0-2.500000000E+007.3383332267E+01+
*       -3.067380027E+02               0
GRID*             154166               0-2.500000000E+007.3500215988E+01+
*       -3.093251260E+02               0
GRID*             154167               0-2.500000000E+007.6429176766E+01+
*       -3.073666209E+02               0
GRID*             154168               0-2.500000000E+007.6617019507E+01+
*       -3.101809736E+02               0
GRID*             154169               0-2.500000000E+001.5122831357E+01+
*       -3.001192115E+02               0
GRID*             154170               0-2.500000000E+001.5143070027E+01+
*       -2.970960796E+02               0
GRID*             154171               0-2.500000000E+001.5144705877E+01+
*       -2.940958727E+02               0
GRID*             154172               0-2.500000000E+001.5137302634E+01+
*       -2.911120531E+02               0
GRID*             154173               0-2.500000000E+001.5126150432E+01+
*       -2.881387936E+02               0
GRID*             154174               0-2.500000000E+001.5113845065E+01+
*       -2.851718145E+02               0
GRID*             154175               0-2.500000000E+001.5101457362E+01+
*       -2.822082943E+02               0
GRID*             154176               0-2.500000000E+001.5089278023E+01+
*       -2.792465147E+02               0
GRID*             154177               0-2.500000000E+001.8139392664E+01+
*       -2.791229919E+02               0
GRID*             154178               0-2.500000000E+002.1193592099E+01+
*       -2.789913551E+02               0
GRID*             154179               0-2.500000000E+002.4250510376E+01+
*       -2.788540568E+02               0
GRID*             154180               0-2.500000000E+002.7308512795E+01+
*       -2.787148082E+02               0
GRID*             154181               0-2.500000000E+003.0366243345E+01+
*       -2.785779228E+02               0
GRID*             154182               0-2.500000000E+003.3422928805E+01+
*       -2.784477692E+02               0
GRID*             154183               0-2.500000000E+003.6478397097E+01+
*       -2.783284516E+02               0
GRID*             154184               0-2.500000000E+003.9532908214E+01+
*       -2.782236907E+02               0
GRID*             154185               0-2.500000000E+004.2586895493E+01+
*       -2.781368207E+02               0
GRID*             154186               0-2.500000000E+004.5640693415E+01+
*       -2.780708003E+02               0
GRID*             154187               0-2.500000000E+004.8694307176E+01+
*       -2.780281579E+02               0
GRID*             154188               0-2.500000000E+005.1747275026E+01+
*       -2.780108392E+02               0
GRID*             154189               0-2.500000000E+005.4798669395E+01+
*       -2.780200021E+02               0
GRID*             154190               0-2.500000000E+005.7847245351E+01+
*       -2.780558625E+02               0
GRID*             154191               0-2.500000000E+006.0891677329E+01+
*       -2.781176880E+02               0
GRID*             154192               0-2.500000000E+006.3930787361E+01+
*       -2.782039107E+02               0
GRID*             154193               0-2.500000000E+006.6963692511E+01+
*       -2.783122276E+02               0
GRID*             154194               0-2.500000000E+006.9989844255E+01+
*       -2.784395152E+02               0
GRID*             154195               0-2.500000000E+007.3008986610E+01+
*       -2.785815597E+02               0
GRID*             154196               0-2.500000000E+007.6021112699E+01+
*       -2.787329813E+02               0
GRID*             154197               0-2.500000000E+007.9026495084E+01+
*       -2.788878550E+02               0
GRID*             154198               0-2.500000000E+008.2025789083E+01+
*       -2.790410207E+02               0
GRID*             154199               0-2.500000000E+008.5020118325E+01+
*       -2.791896211E+02               0
GRID*             154200               0-2.500000000E+008.5019721938E+01+
*       -2.821476233E+02               0
GRID*             154201               0-2.500000000E+008.5021595248E+01+
*       -2.851006913E+02               0
GRID*             154202               0-2.500000000E+008.5025696773E+01+
*       -2.880496173E+02               0
GRID*             154203               0-2.500000000E+008.5032193543E+01+
*       -2.909958095E+02               0
GRID*             154204               0-2.500000000E+008.5041842094E+01+
*       -2.939422685E+02               0
GRID*             154205               0-2.500000000E+008.5056591870E+01+
*       -2.968950744E+02               0
GRID*             154206               0-2.500000000E+008.5080165385E+01+
*       -2.998663973E+02               0
GRID*             154207               0-2.500000000E+008.2114340401E+01+
*       -2.995860943E+02               0
GRID*             154208               0-2.500000000E+007.9141128620E+01+
*       -2.992696859E+02               0
GRID*             154209               0-2.500000000E+007.6156450938E+01+
*       -2.989350109E+02               0
GRID*             154210               0-2.500000000E+007.3160275867E+01+
*       -2.986069833E+02               0
GRID*             154211               0-2.500000000E+007.0154230835E+01+
*       -2.983035950E+02               0
GRID*             154212               0-2.500000000E+006.7140058979E+01+
*       -2.980356298E+02               0
GRID*             154213               0-2.500000000E+006.4119672607E+01+
*       -2.978092106E+02               0
GRID*             154214               0-2.500000000E+006.1095162692E+01+
*       -2.976278442E+02               0
GRID*             154215               0-2.500000000E+005.8068617167E+01+
*       -2.974935512E+02               0
GRID*             154216               0-2.500000000E+005.5041876579E+01+
*       -2.974074757E+02               0
GRID*             154217               0-2.500000000E+005.2016370726E+01+
*       -2.973703456E+02               0
GRID*             154218               0-2.500000000E+004.8993052307E+01+
*       -2.973828500E+02               0
GRID*             154219               0-2.500000000E+004.5972335545E+01+
*       -2.974459049E+02               0
GRID*             154220               0-2.500000000E+004.2953953503E+01+
*       -2.975608365E+02               0
GRID*             154221               0-2.500000000E+003.9936624584E+01+
*       -2.977295311E+02               0
GRID*             154222               0-2.500000000E+003.6917306339E+01+
*       -2.979545902E+02               0
GRID*             154223               0-2.500000000E+003.3889668728E+01+
*       -2.982394158E+02               0
GRID*             154224               0-2.500000000E+003.0841387087E+01+
*       -2.985875761E+02               0
GRID*             154225               0-2.500000000E+002.7750961787E+01+
*       -2.989981938E+02               0
GRID*             154226               0-2.500000000E+002.4592097821E+01+
*       -2.994449149E+02               0
GRID*             154227               0-2.500000000E+002.1394401267E+01+
*       -2.997761689E+02               0
GRID*             154228               0-2.500000000E+001.8232215867E+01+
*       -2.999829568E+02               0
GRID*             154229               0-2.500000000E+001.8246254934E+01+
*       -2.969418025E+02               0
GRID*             154230               0-2.500000000E+001.8237625223E+01+
*       -2.939379267E+02               0
GRID*             154231               0-2.500000000E+001.8219988507E+01+
*       -2.909574883E+02               0
GRID*             154232               0-2.500000000E+001.8199622735E+01+
*       -2.879907224E+02               0
GRID*             154233               0-2.500000000E+001.8179174413E+01+
*       -2.850313256E+02               0
GRID*             154234               0-2.500000000E+001.8159508775E+01+
*       -2.820754621E+02               0
GRID*             154235               0-2.500000000E+002.1220264251E+01+
*       -2.819350648E+02               0
GRID*             154236               0-2.500000000E+002.4283496592E+01+
*       -2.817871640E+02               0
GRID*             154237               0-2.500000000E+002.7347007794E+01+
*       -2.816360719E+02               0
GRID*             154238               0-2.500000000E+003.0409002853E+01+
*       -2.814870365E+02               0
GRID*             154239               0-2.500000000E+003.3468481742E+01+
*       -2.813454430E+02               0
GRID*             154240               0-2.500000000E+003.6525208974E+01+
*       -2.812162836E+02               0
GRID*             154241               0-2.500000000E+003.9579478375E+01+
*       -2.811038882E+02               0
GRID*             154242               0-2.500000000E+004.2631806849E+01+
*       -2.810118712E+02               0
GRID*             154243               0-2.500000000E+004.5682653067E+01+
*       -2.809431654E+02               0
GRID*             154244               0-2.500000000E+004.8732209115E+01+
*       -2.809000448E+02               0
GRID*             154245               0-2.500000000E+005.1780289615E+01+
*       -2.808840933E+02               0
GRID*             154246               0-2.500000000E+005.4826330599E+01+
*       -2.808961352E+02               0
GRID*             154247               0-2.500000000E+005.7869488942E+01+
*       -2.809361768E+02               0
GRID*             154248               0-2.500000000E+006.0908803554E+01+
*       -2.810034059E+02               0
GRID*             154249               0-2.500000000E+006.3943362282E+01+
*       -2.810962331E+02               0
GRID*             154250               0-2.500000000E+006.6972423563E+01+
*       -2.812122792E+02               0
GRID*             154251               0-2.500000000E+006.9995466122E+01+
*       -2.813481954E+02               0
GRID*             154252               0-2.500000000E+007.3012187442E+01+
*       -2.814994003E+02               0
GRID*             154253               0-2.500000000E+007.6022514171E+01+
*       -2.816601489E+02               0
GRID*             154254               0-2.500000000E+007.9026671737E+01+
*       -2.818243965E+02               0
GRID*             154255               0-2.500000000E+008.2025307752E+01+
*       -2.819870606E+02               0
GRID*             154256               0-2.500000000E+008.2028482119E+01+
*       -2.849286733E+02               0
GRID*             154257               0-2.500000000E+008.2035063734E+01+
*       -2.878631004E+02               0
GRID*             154258               0-2.500000000E+008.2045424222E+01+
*       -2.907916158E+02               0
GRID*             154259               0-2.500000000E+008.2060713095E+01+
*       -2.937168555E+02               0
GRID*             154260               0-2.500000000E+008.2083473596E+01+
*       -2.966437187E+02               0
GRID*             154261               0-2.500000000E+007.9103297774E+01+
*       -2.963720560E+02               0
GRID*             154262               0-2.500000000E+007.6114844911E+01+
*       -2.960885782E+02               0
GRID*             154263               0-2.500000000E+007.3117516122E+01+
*       -2.958091849E+02               0
GRID*             154264               0-2.500000000E+007.0111829601E+01+
*       -2.955476461E+02               0
GRID*             154265               0-2.500000000E+006.7098843266E+01+
*       -2.953138823E+02               0
GRID*             154266               0-2.500000000E+006.4079943264E+01+
*       -2.951145506E+02               0
GRID*             154267               0-2.500000000E+006.1056699154E+01+
*       -2.949539911E+02               0
GRID*             154268               0-2.500000000E+005.8030688251E+01+
*       -2.948349822E+02               0
GRID*             154269               0-2.500000000E+005.5003314764E+01+
*       -2.947592830E+02               0
GRID*             154270               0-2.500000000E+005.1975664916E+01+
*       -2.947280368E+02               0
GRID*             154271               0-2.500000000E+004.8948397330E+01+
*       -2.947420675E+02               0
GRID*             154272               0-2.500000000E+004.5921630344E+01+
*       -2.948020638E+02               0
GRID*             154273               0-2.500000000E+004.2894778571E+01+
*       -2.949086550E+02               0
GRID*             154274               0-2.500000000E+003.9866272779E+01+
*       -2.950623705E+02               0
GRID*             154275               0-2.500000000E+003.6833076322E+01+
*       -2.952634213E+02               0
GRID*             154276               0-2.500000000E+003.3789980360E+01+
*       -2.955110606E+02               0
GRID*             154277               0-2.500000000E+003.0728977992E+01+
*       -2.958018647E+02               0
GRID*             154278               0-2.500000000E+002.7640032599E+01+
*       -2.961253296E+02               0
GRID*             154279               0-2.500000000E+002.4517116892E+01+
*       -2.964541359E+02               0
GRID*             154280               0-2.500000000E+002.1375949887E+01+
*       -2.967306094E+02               0
GRID*             154281               0-2.500000000E+002.1344628930E+01+
*       -2.937406181E+02               0
GRID*             154282               0-2.500000000E+002.1311060949E+01+
*       -2.907760250E+02               0
GRID*             154283               0-2.500000000E+002.1278880159E+01+
*       -2.878240387E+02               0
GRID*             154284               0-2.500000000E+002.1249100346E+01+
*       -2.848776179E+02               0
GRID*             154285               0-2.500000000E+002.4319656324E+01+
*       -2.847161121E+02               0
GRID*             154286               0-2.500000000E+002.7389400508E+01+
*       -2.845491124E+02               0
GRID*             154287               0-2.500000000E+003.0455851606E+01+
*       -2.843834413E+02               0
GRID*             154288               0-2.500000000E+003.3517821152E+01+
*       -2.842260228E+02               0
GRID*             154289               0-2.500000000E+003.6575192331E+01+
*       -2.840830801E+02               0
GRID*             154290               0-2.500000000E+003.9628530140E+01+
*       -2.839596931E+02               0
GRID*             154291               0-2.500000000E+004.2678652628E+01+
*       -2.838597880E+02               0
GRID*             154292               0-2.500000000E+004.5726299066E+01+
*       -2.837862849E+02               0
GRID*             154293               0-2.500000000E+004.8771924167E+01+
*       -2.837412443E+02               0
GRID*             154294               0-2.500000000E+005.1815606046E+01+
*       -2.837259527E+02               0
GRID*             154295               0-2.500000000E+005.4857050831E+01+
*       -2.837409507E+02               0
GRID*             154296               0-2.500000000E+005.7895673268E+01+
*       -2.837860313E+02               0
GRID*             154297               0-2.500000000E+006.0930723349E+01+
*       -2.838602366E+02               0
GRID*             154298               0-2.500000000E+006.3961422275E+01+
*       -2.839618385E+02               0
GRID*             154299               0-2.500000000E+006.6987072601E+01+
*       -2.840882393E+02               0
GRID*             154300               0-2.500000000E+007.0007124706E+01+
*       -2.842357383E+02               0
GRID*             154301               0-2.500000000E+007.3021216222E+01+
*       -2.843992991E+02               0
GRID*             154302               0-2.500000000E+007.6029225905E+01+
*       -2.845727017E+02               0
GRID*             154303               0-2.500000000E+007.9031350371E+01+
*       -2.847499130E+02               0
GRID*             154304               0-2.500000000E+007.9040601009E+01+
*       -2.876678481E+02               0
GRID*             154305               0-2.500000000E+007.9054873816E+01+
*       -2.905753692E+02               0
GRID*             154306               0-2.500000000E+007.9075536823E+01+
*       -2.934739928E+02               0
GRID*             154307               0-2.500000000E+007.6083165776E+01+
*       -2.932280811E+02               0
GRID*             154308               0-2.500000000E+007.3083479111E+01+
*       -2.929857560E+02               0
GRID*             154309               0-2.500000000E+007.0076593104E+01+
*       -2.927578552E+02               0
GRID*             154310               0-2.500000000E+006.7063126746E+01+
*       -2.925528941E+02               0
GRID*             154311               0-2.500000000E+006.4044036031E+01+
*       -2.923771921E+02               0
GRID*             154312               0-2.500000000E+006.1020465020E+01+
*       -2.922352322E+02               0
GRID*             154313               0-2.500000000E+005.7993597355E+01+
*       -2.921300787E+02               0
GRID*             154314               0-2.500000000E+005.4964509914E+01+
*       -2.920637615E+02               0
GRID*             154315               0-2.500000000E+005.1934038721E+01+
*       -2.920375806E+02               0
GRID*             154316               0-2.500000000E+004.8902656397E+01+
*       -2.920523174E+02               0
GRID*             154317               0-2.500000000E+004.5870349410E+01+
*       -2.921083465E+02               0
GRID*             154318               0-2.500000000E+004.2836478625E+01+
*       -2.922056393E+02               0
GRID*             154319               0-2.500000000E+003.9799601547E+01+
*       -2.923436329E+02               0
GRID*             154320               0-2.500000000E+003.6757254620E+01+
*       -2.925208878E+02               0
GRID*             154321               0-2.500000000E+003.3705797443E+01+
*       -2.927343575E+02               0
GRID*             154322               0-2.500000000E+003.0640649849E+01+
*       -2.929779781E+02               0
GRID*             154323               0-2.500000000E+002.7557623807E+01+
*       -2.932403467E+02               0
GRID*             154324               0-2.500000000E+002.4456322667E+01+
*       -2.935022212E+02               0
GRID*             154325               0-2.500000000E+002.4404580525E+01+
*       -2.905693065E+02               0
GRID*             154326               0-2.500000000E+002.4360004285E+01+
*       -2.876415413E+02               0
GRID*             154327               0-2.500000000E+002.7437311169E+01+
*       -2.874530580E+02               0
GRID*             154328               0-2.500000000E+003.0508575456E+01+
*       -2.872648686E+02               0
GRID*             154329               0-2.500000000E+003.3572600078E+01+
*       -2.870862145E+02               0
GRID*             154330               0-2.500000000E+003.6629720548E+01+
*       -2.869250007E+02               0
GRID*             154331               0-2.500000000E+003.9681130157E+01+
*       -2.867871258E+02               0
GRID*             154332               0-2.500000000E+004.2728218766E+01+
*       -2.866767304E+02               0
GRID*             154333               0-2.500000000E+004.5772164656E+01+
*       -2.865966086E+02               0
GRID*             154334               0-2.500000000E+004.8813744000E+01+
*       -2.865485389E+02               0
GRID*             154335               0-2.500000000E+005.1853278070E+01+
*       -2.865334893E+02               0
GRID*             154336               0-2.500000000E+005.4890663849E+01+
*       -2.865517178E+02               0
GRID*             154337               0-2.500000000E+005.7925458541E+01+
*       -2.866028003E+02               0
GRID*             154338               0-2.500000000E+006.0956995186E+01+
*       -2.866856067E+02               0
GRID*             154339               0-2.500000000E+006.3984506625E+01+
*       -2.867982212E+02               0
GRID*             154340               0-2.500000000E+006.7007237843E+01+
*       -2.869377746E+02               0
GRID*             154341               0-2.500000000E+007.0024537543E+01+
*       -2.871001849E+02               0
GRID*             154342               0-2.500000000E+007.3035939203E+01+
*       -2.872799122E+02               0
GRID*             154343               0-2.500000000E+007.6041258804E+01+
*       -2.874698294E+02               0
GRID*             154344               0-2.500000000E+007.6059113906E+01+
*       -2.903539119E+02               0
GRID*             154345               0-2.500000000E+007.3056717024E+01+
*       -2.901399296E+02               0
GRID*             154346               0-2.500000000E+007.0047805032E+01+
*       -2.899389816E+02               0
GRID*             154347               0-2.500000000E+006.7032771118E+01+
*       -2.897577813E+02               0
GRID*             154348               0-2.500000000E+006.4012279851E+01+
*       -2.896020557E+02               0
GRID*             154349               0-2.500000000E+006.0987176148E+01+
*       -2.894761334E+02               0
GRID*             154350               0-2.500000000E+005.7958374968E+01+
*       -2.893830846E+02               0
GRID*             154351               0-2.500000000E+005.4926743662E+01+
*       -2.893249745E+02               0
GRID*             154352               0-2.500000000E+005.1892979990E+01+
*       -2.893030813E+02               0
GRID*             154353               0-2.500000000E+004.8857489749E+01+
*       -2.893180366E+02               0
GRID*             154354               0-2.500000000E+004.5820269389E+01+
*       -2.893698864E+02               0
GRID*             154355               0-2.500000000E+004.2780799251E+01+
*       -2.894580654E+02               0
GRID*             154356               0-2.500000000E+003.9737954738E+01+
*       -2.895812576E+02               0
GRID*             154357               0-2.500000000E+003.6689966528E+01+
*       -2.897370890E+02               0
GRID*             154358               0-2.500000000E+003.3634528481E+01+
*       -2.899215640E+02               0
GRID*             154359               0-2.500000000E+003.0569254484E+01+
*       -2.901281747E+02               0
GRID*             154360               0-2.500000000E+002.7492763362E+01+
*       -2.903467229E+02               0
GRID*             154361               0-2.500000000E+001.5066217116E+01+
*       -2.733232894E+02               0
GRID*             154362               0-2.500000000E+001.5056286633E+01+
*       -2.703588478E+02               0
GRID*             154363               0-2.500000000E+001.5046602687E+01+
*       -2.673932656E+02               0
GRID*             154364               0-2.500000000E+001.5037174044E+01+
*       -2.644262809E+02               0
GRID*             154365               0-2.500000000E+001.5028021683E+01+
*       -2.614576129E+02               0
GRID*             154366               0-2.500000000E+001.5019193822E+01+
*       -2.584867570E+02               0
GRID*             154367               0-2.500000000E+001.5010722647E+01+
*       -2.555127861E+02               0
GRID*             154368               0-2.500000000E+001.5002524165E+01+
*       -2.525340933E+02               0
GRID*             154369               0-2.500000000E+001.4994189868E+01+
*       -2.495480206E+02               0
GRID*             154370               0-2.500000000E+001.4984475709E+01+
*       -2.465501415E+02               0
GRID*             154371               0-2.500000000E+001.4970292740E+01+
*       -2.435328966E+02               0
GRID*             154372               0-2.500000000E+001.4945245220E+01+
*       -2.404836882E+02               0
GRID*             154373               0-2.500000000E+001.4896300432E+01+
*       -2.373828563E+02               0
GRID*             154374               0-2.500000000E+001.4791707721E+01+
*       -2.342043868E+02               0
GRID*             154375               0-2.500000000E+001.4540562730E+01+
*       -2.309500557E+02               0
GRID*             154376               0-2.500000000E+001.3871163898E+01+
*       -2.280565164E+02               0
GRID*             154377               0-2.500000000E+001.5952413517E+01+
*       -2.274030516E+02               0
GRID*             154378               0-2.500000000E+001.7421914934E+01+
*       -2.264931191E+02               0
GRID*             154379               0-2.500000000E+001.9083104646E+01+
*       -2.273525715E+02               0
GRID*             154380               0-2.500000000E+002.1597578400E+01+
*       -2.278692457E+02               0
GRID*             154381               0-2.500000000E+002.4429565987E+01+
*       -2.281465101E+02               0
GRID*             154382               0-2.500000000E+002.7363814331E+01+
*       -2.283018708E+02               0
GRID*             154383               0-2.500000000E+003.0328758946E+01+
*       -2.283970519E+02               0
GRID*             154384               0-2.500000000E+003.3300513264E+01+
*       -2.284619260E+02               0
GRID*             154385               0-2.500000000E+003.6272179387E+01+
*       -2.285128848E+02               0
GRID*             154386               0-2.500000000E+003.9243872018E+01+
*       -2.285608310E+02               0
GRID*             154387               0-2.500000000E+004.2218980795E+01+
*       -2.286144999E+02               0
GRID*             154388               0-2.500000000E+004.5202619716E+01+
*       -2.286818876E+02               0
GRID*             154389               0-2.500000000E+004.8200692224E+01+
*       -2.287708981E+02               0
GRID*             154390               0-2.500000000E+005.1218511692E+01+
*       -2.288898307E+02               0
GRID*             154391               0-2.500000000E+005.4257708797E+01+
*       -2.290479949E+02               0
GRID*             154392               0-2.500000000E+005.7310477493E+01+
*       -2.292560490E+02               0
GRID*             154393               0-2.500000000E+006.0352335596E+01+
*       -2.295225456E+02               0
GRID*             154394               0-2.500000000E+006.3344315183E+01+
*       -2.298373069E+02               0
GRID*             154395               0-2.500000000E+006.6279248385E+01+
*       -2.301366421E+02               0
GRID*             154396               0-2.500000000E+006.9177996465E+01+
*       -2.303887480E+02               0
GRID*             154397               0-2.500000000E+007.2058033665E+01+
*       -2.305913352E+02               0
GRID*             154398               0-2.500000000E+007.4920798289E+01+
*       -2.307562983E+02               0
GRID*             154399               0-2.500000000E+007.7750832473E+01+
*       -2.309004236E+02               0
GRID*             154400               0-2.500000000E+008.0525319091E+01+
*       -2.310368576E+02               0
GRID*             154401               0-2.500000000E+008.3250005789E+01+
*       -2.311659455E+02               0
GRID*             154402               0-2.500000000E+008.5866864815E+01+
*       -2.314366605E+02               0
GRID*             154403               0-2.500000000E+008.5719847108E+01+
*       -2.344118059E+02               0
GRID*             154404               0-2.500000000E+008.5597950289E+01+
*       -2.374100883E+02               0
GRID*             154405               0-2.500000000E+008.5494441398E+01+
*       -2.404095296E+02               0
GRID*             154406               0-2.500000000E+008.5405558096E+01+
*       -2.434076774E+02               0
GRID*             154407               0-2.500000000E+008.5329166427E+01+
*       -2.464043463E+02               0
GRID*             154408               0-2.500000000E+008.5263882266E+01+
*       -2.493994148E+02               0
GRID*             154409               0-2.500000000E+008.5208660143E+01+
*       -2.523926321E+02               0
GRID*             154410               0-2.500000000E+008.5162585326E+01+
*       -2.553836363E+02               0
GRID*             154411               0-2.500000000E+008.5124767856E+01+
*       -2.583719839E+02               0
GRID*             154412               0-2.500000000E+008.5094308003E+01+
*       -2.613572127E+02               0
GRID*             154413               0-2.500000000E+008.5070312650E+01+
*       -2.643389443E+02               0
GRID*             154414               0-2.500000000E+008.5051931951E+01+
*       -2.673169534E+02               0
GRID*             154415               0-2.500000000E+008.5038386587E+01+
*       -2.702911291E+02               0
GRID*             154416               0-2.500000000E+008.5028967450E+01+
*       -2.732612760E+02               0
GRID*             154417               0-2.500000000E+008.2038011040E+01+
*       -2.731215052E+02               0
GRID*             154418               0-2.500000000E+007.9040810593E+01+
*       -2.729777269E+02               0
GRID*             154419               0-2.500000000E+007.6035993505E+01+
*       -2.728333889E+02               0
GRID*             154420               0-2.500000000E+007.3022558924E+01+
*       -2.726931514E+02               0
GRID*             154421               0-2.500000000E+006.9999824557E+01+
*       -2.725618783E+02               0
GRID*             154422               0-2.500000000E+006.6967440725E+01+
*       -2.724440435E+02               0
GRID*             154423               0-2.500000000E+006.3925487598E+01+
*       -2.723435696E+02               0
GRID*             154424               0-2.500000000E+006.0874633762E+01+
*       -2.722638962E+02               0
GRID*             154425               0-2.500000000E+005.7816293154E+01+
*       -2.722079919E+02               0
GRID*             154426               0-2.500000000E+005.4752673547E+01+
*       -2.721781239E+02               0
GRID*             154427               0-2.500000000E+005.1686567805E+01+
*       -2.721753632E+02               0
GRID*             154428               0-2.500000000E+004.8620805623E+01+
*       -2.721990684E+02               0
GRID*             154429               0-2.500000000E+004.5557550209E+01+
*       -2.722468408E+02               0
GRID*             154430               0-2.500000000E+004.2497862374E+01+
*       -2.723152381E+02               0
GRID*             154431               0-2.500000000E+003.9441755076E+01+
*       -2.724006094E+02               0
GRID*             154432               0-2.500000000E+003.6388567140E+01+
*       -2.724995779E+02               0
GRID*             154433               0-2.500000000E+003.3337420023E+01+
*       -2.726091135E+02               0
GRID*             154434               0-2.500000000E+003.0287625945E+01+
*       -2.727263322E+02               0
GRID*             154435               0-2.500000000E+002.7238978107E+01+
*       -2.728482265E+02               0
GRID*             154436               0-2.500000000E+002.4191848651E+01+
*       -2.729715639E+02               0
GRID*             154437               0-2.500000000E+002.1147031839E+01+
*       -2.730931273E+02               0
GRID*             154438               0-2.500000000E+001.8105359997E+01+
*       -2.732102732E+02               0
GRID*             154439               0-2.500000000E+001.8089763546E+01+
*       -2.702507965E+02               0
GRID*             154440               0-2.500000000E+001.8074682844E+01+
*       -2.672891662E+02               0
GRID*             154441               0-2.500000000E+001.8060013360E+01+
*       -2.643253226E+02               0
GRID*             154442               0-2.500000000E+001.8045783322E+01+
*       -2.613590644E+02               0
GRID*             154443               0-2.500000000E+001.8032136607E+01+
*       -2.583898545E+02               0
GRID*             154444               0-2.500000000E+001.8019272718E+01+
*       -2.554165888E+02               0
GRID*             154445               0-2.500000000E+001.8007337556E+01+
*       -2.524372837E+02               0
GRID*             154446               0-2.500000000E+001.7996215197E+01+
*       -2.494486063E+02               0
GRID*             154447               0-2.500000000E+001.7985104018E+01+
*       -2.464449715E+02               0
GRID*             154448               0-2.500000000E+001.7971910437E+01+
*       -2.434168142E+02               0
GRID*             154449               0-2.500000000E+001.7952741128E+01+
*       -2.403472127E+02               0
GRID*             154450               0-2.500000000E+001.7920668496E+01+
*       -2.372024247E+02               0
GRID*             154451               0-2.500000000E+001.7859012420E+01+
*       -2.338934002E+02               0
GRID*             154452               0-2.500000000E+001.7702770675E+01+
*       -2.300547312E+02               0
GRID*             154453               0-2.500000000E+002.1135802328E+01+
*       -2.307598820E+02               0
GRID*             154454               0-2.500000000E+002.4220384095E+01+
*       -2.310630256E+02               0
GRID*             154455               0-2.500000000E+002.7231052334E+01+
*       -2.312256723E+02               0
GRID*             154456               0-2.500000000E+003.0220828486E+01+
*       -2.313248802E+02               0
GRID*             154457               0-2.500000000E+003.3200202238E+01+
*       -2.313934370E+02               0
GRID*             154458               0-2.500000000E+003.6171640453E+01+
*       -2.314491076E+02               0
GRID*             154459               0-2.500000000E+003.9137102332E+01+
*       -2.315039144E+02               0
GRID*             154460               0-2.500000000E+004.2099542292E+01+
*       -2.315677054E+02               0
GRID*             154461               0-2.500000000E+004.5063145151E+01+
*       -2.316494516E+02               0
GRID*             154462               0-2.500000000E+004.8033256819E+01+
*       -2.317574115E+02               0
GRID*             154463               0-2.500000000E+005.1015262827E+01+
*       -2.318983150E+02               0
GRID*             154464               0-2.500000000E+005.4011752149E+01+
*       -2.320761274E+02               0
GRID*             154465               0-2.500000000E+005.7018377298E+01+
*       -2.322912904E+02               0
GRID*             154466               0-2.500000000E+006.0021321382E+01+
*       -2.325400192E+02               0
GRID*             154467               0-2.500000000E+006.3002310426E+01+
*       -2.328089889E+02               0
GRID*             154468               0-2.500000000E+006.5953385938E+01+
*       -2.330706855E+02               0
GRID*             154469               0-2.500000000E+006.8877736924E+01+
*       -2.333062558E+02               0
GRID*             154470               0-2.500000000E+007.1779122262E+01+
*       -2.335110535E+02               0
GRID*             154471               0-2.500000000E+007.4654722162E+01+
*       -2.336909371E+02               0
GRID*             154472               0-2.500000000E+007.7494582806E+01+
*       -2.338573133E+02               0
GRID*             154473               0-2.500000000E+008.0287302399E+01+
*       -2.340228368E+02               0
GRID*             154474               0-2.500000000E+008.3028797707E+01+
*       -2.342011176E+02               0
GRID*             154475               0-2.500000000E+008.2857361348E+01+
*       -2.372068692E+02               0
GRID*             154476               0-2.500000000E+008.2710689895E+01+
*       -2.402106630E+02               0
GRID*             154477               0-2.500000000E+008.2583664514E+01+
*       -2.432145830E+02               0
GRID*             154478               0-2.500000000E+008.2473711859E+01+
*       -2.462183446E+02               0
GRID*             154479               0-2.500000000E+008.2379212947E+01+
*       -2.492212762E+02               0
GRID*             154480               0-2.500000000E+008.2298943712E+01+
*       -2.522226030E+02               0
GRID*             154481               0-2.500000000E+008.2231796744E+01+
*       -2.552214642E+02               0
GRID*             154482               0-2.500000000E+008.2176630352E+01+
*       -2.582169354E+02               0
GRID*             154483               0-2.500000000E+008.2132223712E+01+
*       -2.612081217E+02               0
GRID*             154484               0-2.500000000E+008.2097313707E+01+
*       -2.641942923E+02               0
GRID*             154485               0-2.500000000E+008.2070666008E+01+
*       -2.671749659E+02               0
GRID*             154486               0-2.500000000E+008.2051133735E+01+
*       -2.701498521E+02               0
GRID*             154487               0-2.500000000E+007.9057202768E+01+
*       -2.700073580E+02               0
GRID*             154488               0-2.500000000E+007.6054563113E+01+
*       -2.698646923E+02               0
GRID*             154489               0-2.500000000E+007.3041881366E+01+
*       -2.697260645E+02               0
GRID*             154490               0-2.500000000E+007.0018137654E+01+
*       -2.695958626E+02               0
GRID*             154491               0-2.500000000E+006.6982671701E+01+
*       -2.694783029E+02               0
GRID*             154492               0-2.500000000E+006.3935333658E+01+
*       -2.693774115E+02               0
GRID*             154493               0-2.500000000E+006.0876742242E+01+
*       -2.692971208E+02               0
GRID*             154494               0-2.500000000E+005.7808613169E+01+
*       -2.692412552E+02               0
GRID*             154495               0-2.500000000E+005.4733987993E+01+
*       -2.692131217E+02               0
GRID*             154496               0-2.500000000E+005.1657033750E+01+
*       -2.692145398E+02               0
GRID*             154497               0-2.500000000E+004.8582184281E+01+
*       -2.692446322E+02               0
GRID*             154498               0-2.500000000E+004.5512746401E+01+
*       -2.692995334E+02               0
GRID*             154499               0-2.500000000E+004.2450058000E+01+
*       -2.693740953E+02               0
GRID*             154500               0-2.500000000E+003.9393748994E+01+
*       -2.694635024E+02               0
GRID*             154501               0-2.500000000E+003.6342520882E+01+
*       -2.695639285E+02               0
GRID*             154502               0-2.500000000E+003.3294892669E+01+
*       -2.696724377E+02               0
GRID*             154503               0-2.500000000E+003.0249722590E+01+
*       -2.697865438E+02               0
GRID*             154504               0-2.500000000E+002.7206482099E+01+
*       -2.699037743E+02               0
GRID*             154505               0-2.500000000E+002.4165269569E+01+
*       -2.700215041E+02               0
GRID*             154506               0-2.500000000E+002.1126574462E+01+
*       -2.701371736E+02               0
GRID*             154507               0-2.500000000E+002.1105836156E+01+
*       -2.671797712E+02               0
GRID*             154508               0-2.500000000E+002.1085555853E+01+
*       -2.642194104E+02               0
GRID*             154509               0-2.500000000E+002.1065806963E+01+
*       -2.612561259E+02               0
GRID*             154510               0-2.500000000E+002.1046897385E+01+
*       -2.582895763E+02               0
GRID*             154511               0-2.500000000E+002.1029327368E+01+
*       -2.553187926E+02               0
GRID*             154512               0-2.500000000E+002.1013703059E+01+
*       -2.523418675E+02               0
GRID*             154513               0-2.500000000E+002.1000591882E+01+
*       -2.493555370E+02               0
GRID*             154514               0-2.500000000E+002.0990327376E+01+
*       -2.463545387E+02               0
GRID*             154515               0-2.500000000E+002.0983045033E+01+
*       -2.433307315E+02               0
GRID*             154516               0-2.500000000E+002.0979677548E+01+
*       -2.402721543E+02               0
GRID*             154517               0-2.500000000E+002.0985065085E+01+
*       -2.371623659E+02               0
GRID*             154518               0-2.500000000E+002.1017382767E+01+
*       -2.339841188E+02               0
GRID*             154519               0-2.500000000E+002.4098181163E+01+
*       -2.341115673E+02               0
GRID*             154520               0-2.500000000E+002.7127873823E+01+
*       -2.342107100E+02               0
GRID*             154521               0-2.500000000E+003.0128924111E+01+
*       -2.342824452E+02               0
GRID*             154522               0-2.500000000E+003.3111428036E+01+
*       -2.343372795E+02               0
GRID*             154523               0-2.500000000E+003.6079414264E+01+
*       -2.343857020E+02               0
GRID*             154524               0-2.500000000E+003.9034949410E+01+
*       -2.344374853E+02               0
GRID*             154525               0-2.500000000E+004.1980096029E+01+
*       -2.345022952E+02               0
GRID*             154526               0-2.500000000E+004.4918371440E+01+
*       -2.345901168E+02               0
GRID*             154527               0-2.500000000E+004.7855702015E+01+
*       -2.347104191E+02               0
GRID*             154528               0-2.500000000E+005.0800003816E+01+
*       -2.348695234E+02               0
GRID*             154529               0-2.500000000E+005.3758641670E+01+
*       -2.350668910E+02               0
GRID*             154530               0-2.500000000E+005.6733125336E+01+
*       -2.352936881E+02               0
GRID*             154531               0-2.500000000E+005.9714915168E+01+
*       -2.355392736E+02               0
GRID*             154532               0-2.500000000E+006.2691037842E+01+
*       -2.357914090E+02               0
GRID*             154533               0-2.500000000E+006.5651940502E+01+
*       -2.360357673E+02               0
GRID*             154534               0-2.500000000E+006.8593234894E+01+
*       -2.362622678E+02               0
GRID*             154535               0-2.500000000E+007.1511985228E+01+
*       -2.364682345E+02               0
GRID*             154536               0-2.500000000E+007.4403273697E+01+
*       -2.366576702E+02               0
GRID*             154537               0-2.500000000E+007.7260041112E+01+
*       -2.368387294E+02               0
GRID*             154538               0-2.500000000E+008.0076176316E+01+
*       -2.370208587E+02               0
GRID*             154539               0-2.500000000E+007.9895591650E+01+
*       -2.400208331E+02               0
GRID*             154540               0-2.500000000E+007.9736403989E+01+
*       -2.430257248E+02               0
GRID*             154541               0-2.500000000E+007.9597106480E+01+
*       -2.460333340E+02               0
GRID*             154542               0-2.500000000E+007.9476493397E+01+
*       -2.490419638E+02               0
GRID*             154543               0-2.500000000E+007.9373562684E+01+
*       -2.520500677E+02               0
GRID*             154544               0-2.500000000E+007.9287291954E+01+
*       -2.550560730E+02               0
GRID*             154545               0-2.500000000E+007.9216461701E+01+
*       -2.580583751E+02               0
GRID*             154546               0-2.500000000E+007.9159614588E+01+
*       -2.610554698E+02               0
GRID*             154547               0-2.500000000E+007.9115141958E+01+
*       -2.640461272E+02               0
GRID*             154548               0-2.500000000E+007.9081417603E+01+
*       -2.670294678E+02               0
GRID*             154549               0-2.500000000E+007.6082504783E+01+
*       -2.668859108E+02               0
GRID*             154550               0-2.500000000E+007.3071791448E+01+
*       -2.667459896E+02               0
GRID*             154551               0-2.500000000E+007.0047828523E+01+
*       -2.666136964E+02               0
GRID*             154552               0-2.500000000E+006.7009501791E+01+
*       -2.664930551E+02               0
GRID*             154553               0-2.500000000E+006.3956217111E+01+
*       -2.663882498E+02               0
GRID*             154554               0-2.500000000E+006.0888303665E+01+
*       -2.663039147E+02               0
GRID*             154555               0-2.500000000E+005.7807630264E+01+
*       -2.662452722E+02               0
GRID*             154556               0-2.500000000E+005.4718192253E+01+
*       -2.662175983E+02               0
GRID*             154557               0-2.500000000E+005.1626261115E+01+
*       -2.662244429E+02               0
GRID*             154558               0-2.500000000E+004.8539170495E+01+
*       -2.662647891E+02               0
GRID*             154559               0-2.500000000E+004.5462195792E+01+
*       -2.663316806E+02               0
GRID*             154560               0-2.500000000E+004.2396755667E+01+
*       -2.664168553E+02               0
GRID*             154561               0-2.500000000E+003.9341422319E+01+
*       -2.665137904E+02               0
GRID*             154562               0-2.500000000E+003.6293633555E+01+
*       -2.666182393E+02               0
GRID*             154563               0-2.500000000E+003.3250908964E+01+
*       -2.667275906E+02               0
GRID*             154564               0-2.500000000E+003.0211454526E+01+
*       -2.668400021E+02               0
GRID*             154565               0-2.500000000E+002.7174339176E+01+
*       -2.669537510E+02               0
GRID*             154566               0-2.500000000E+002.4139379203E+01+
*       -2.670669815E+02               0
GRID*             154567               0-2.500000000E+002.4113143183E+01+
*       -2.641102021E+02               0
GRID*             154568               0-2.500000000E+002.4087328844E+01+
*       -2.611502958E+02               0
GRID*             154569               0-2.500000000E+002.4062468292E+01+
*       -2.581873580E+02               0
GRID*             154570               0-2.500000000E+002.4039475917E+01+
*       -2.552208823E+02               0
GRID*             154571               0-2.500000000E+002.4019606629E+01+
*       -2.522494456E+02               0
GRID*             154572               0-2.500000000E+002.4004352819E+01+
*       -2.492703917E+02               0
GRID*             154573               0-2.500000000E+002.3995346358E+01+
*       -2.462795975E+02               0
GRID*             154574               0-2.500000000E+002.3994589419E+01+
*       -2.432715987E+02               0
GRID*             154575               0-2.500000000E+002.4005615361E+01+
*       -2.402406869E+02               0
GRID*             154576               0-2.500000000E+002.4036096310E+01+
*       -2.371841994E+02               0
GRID*             154577               0-2.500000000E+002.7059494207E+01+
*       -2.372209931E+02               0
GRID*             154578               0-2.500000000E+003.0059702978E+01+
*       -2.372555966E+02               0
GRID*             154579               0-2.500000000E+003.3039926546E+01+
*       -2.372866086E+02               0
GRID*             154580               0-2.500000000E+003.6001526451E+01+
*       -2.373182048E+02               0
GRID*             154581               0-2.500000000E+003.8944535770E+01+
*       -2.373573388E+02               0
GRID*             154582               0-2.500000000E+004.1869063413E+01+
*       -2.374134435E+02               0
GRID*             154583               0-2.500000000E+004.4777319854E+01+
*       -2.374984534E+02               0
GRID*             154584               0-2.500000000E+004.7675576630E+01+
*       -2.376252729E+02               0
GRID*             154585               0-2.500000000E+005.0575802513E+01+
*       -2.378031803E+02               0
GRID*             154586               0-2.500000000E+005.3494992713E+01+
*       -2.380288334E+02               0
GRID*             154587               0-2.500000000E+005.6445031027E+01+
*       -2.382781124E+02               0
GRID*             154588               0-2.500000000E+005.9417373371E+01+
*       -2.385332980E+02               0
GRID*             154589               0-2.500000000E+006.2396382661E+01+
*       -2.387836800E+02               0
GRID*             154590               0-2.500000000E+006.5368802028E+01+
*       -2.390220556E+02               0
GRID*             154591               0-2.500000000E+006.8325916091E+01+
*       -2.392445625E+02               0
GRID*             154592               0-2.500000000E+007.1261668306E+01+
*       -2.394513356E+02               0
GRID*             154593               0-2.500000000E+007.4170603380E+01+
*       -2.396461922E+02               0
GRID*             154594               0-2.500000000E+007.7047685336E+01+
*       -2.398352287E+02               0
GRID*             154595               0-2.500000000E+007.6861394252E+01+
*       -2.428385388E+02               0
GRID*             154596               0-2.500000000E+007.6696498138E+01+
*       -2.458481265E+02               0
GRID*             154597               0-2.500000000E+007.6552571026E+01+
*       -2.488613173E+02               0
GRID*             154598               0-2.500000000E+007.6429211264E+01+
*       -2.518757387E+02               0
GRID*             154599               0-2.500000000E+007.6325791536E+01+
*       -2.548889550E+02               0
GRID*             154600               0-2.500000000E+007.6241188917E+01+
*       -2.578984792E+02               0
GRID*             154601               0-2.500000000E+007.6173746788E+01+
*       -2.609020010E+02               0
GRID*             154602               0-2.500000000E+007.6121464752E+01+
*       -2.638976232E+02               0
GRID*             154603               0-2.500000000E+007.3114373817E+01+
*       -2.637537252E+02               0
GRID*             154604               0-2.500000000E+007.0091473545E+01+
*       -2.636163027E+02               0
GRID*             154605               0-2.500000000E+006.7051016441E+01+
*       -2.634890631E+02               0
GRID*             154606               0-2.500000000E+006.3991659909E+01+
*       -2.633762761E+02               0
GRID*             154607               0-2.500000000E+006.0912970471E+01+
*       -2.632834233E+02               0
GRID*             154608               0-2.500000000E+005.7816330844E+01+
*       -2.632177908E+02               0
GRID*             154609               0-2.500000000E+005.4706367084E+01+
*       -2.631881625E+02               0
GRID*             154610               0-2.500000000E+005.1592514170E+01+
*       -2.632021229E+02               0
GRID*             154611               0-2.500000000E+004.8487994763E+01+
*       -2.632595133E+02               0
GRID*             154612               0-2.500000000E+004.5401835999E+01+
*       -2.633459256E+02               0
GRID*             154613               0-2.500000000E+004.2334691082E+01+
*       -2.634474066E+02               0
GRID*             154614               0-2.500000000E+003.9282563051E+01+
*       -2.635554180E+02               0
GRID*             154615               0-2.500000000E+003.6240558230E+01+
*       -2.636658758E+02               0
GRID*             154616               0-2.500000000E+003.3204685587E+01+
*       -2.637771442E+02               0
GRID*             154617               0-2.500000000E+003.0172340554E+01+
*       -2.638885074E+02               0
GRID*             154618               0-2.500000000E+002.7142203664E+01+
*       -2.639992984E+02               0
GRID*             154619               0-2.500000000E+002.7109629105E+01+
*       -2.610427530E+02               0
GRID*             154620               0-2.500000000E+002.7077775401E+01+
*       -2.580839841E+02               0
GRID*             154621               0-2.500000000E+002.7048048793E+01+
*       -2.551232655E+02               0
GRID*             154622               0-2.500000000E+002.7022512706E+01+
*       -2.521599602E+02               0
GRID*             154623               0-2.500000000E+002.7003766177E+01+
*       -2.491921996E+02               0
GRID*             154624               0-2.500000000E+002.6994704675E+01+
*       -2.462169077E+02               0
GRID*             154625               0-2.500000000E+002.6998427612E+01+
*       -2.432305312E+02               0
GRID*             154626               0-2.500000000E+002.7018820443E+01+
*       -2.402308676E+02               0
GRID*             154627               0-2.500000000E+003.0013582736E+01+
*       -2.402306035E+02               0
GRID*             154628               0-2.500000000E+003.2989204607E+01+
*       -2.402341180E+02               0
GRID*             154629               0-2.500000000E+003.5943703615E+01+
*       -2.402422617E+02               0
GRID*             154630               0-2.500000000E+003.8874127348E+01+
*       -2.402600202E+02               0
GRID*             154631               0-2.500000000E+004.1777440506E+01+
*       -2.402969606E+02               0
GRID*             154632               0-2.500000000E+004.4652300277E+01+
*       -2.403679719E+02               0
GRID*             154633               0-2.500000000E+004.7502201985E+01+
*       -2.404929517E+02               0
GRID*             154634               0-2.500000000E+005.0342451559E+01+
*       -2.406925089E+02               0
GRID*             154635               0-2.500000000E+005.3209267770E+01+
*       -2.409694347E+02               0
GRID*             154636               0-2.500000000E+005.6141318319E+01+
*       -2.412584529E+02               0
GRID*             154637               0-2.500000000E+005.9117690331E+01+
*       -2.415337452E+02               0
GRID*             154638               0-2.500000000E+006.2110618959E+01+
*       -2.417896554E+02               0
GRID*             154639               0-2.500000000E+006.5100639795E+01+
*       -2.420265898E+02               0
GRID*             154640               0-2.500000000E+006.8076248975E+01+
*       -2.422465386E+02               0
GRID*             154641               0-2.500000000E+007.1030524914E+01+
*       -2.424526109E+02               0
GRID*             154642               0-2.500000000E+007.3958703005E+01+
*       -2.426490684E+02               0
GRID*             154643               0-2.500000000E+007.3770835722E+01+
*       -2.456604013E+02               0
GRID*             154644               0-2.500000000E+007.3605507361E+01+
*       -2.486783159E+02               0
GRID*             154645               0-2.500000000E+007.3463320744E+01+
*       -2.516997619E+02               0
GRID*             154646               0-2.500000000E+007.3344433538E+01+
*       -2.547213315E+02               0
GRID*             154647               0-2.500000000E+007.3247995257E+01+
*       -2.577394082E+02               0
GRID*             154648               0-2.500000000E+007.3172091682E+01+
*       -2.607506241E+02               0
GRID*             154649               0-2.500000000E+007.0152287621E+01+
*       -2.606052513E+02               0
GRID*             154650               0-2.500000000E+006.7111410395E+01+
*       -2.604678653E+02               0
GRID*             154651               0-2.500000000E+006.4047018906E+01+
*       -2.603424924E+02               0
GRID*             154652               0-2.500000000E+006.0957022986E+01+
*       -2.602352221E+02               0
GRID*             154653               0-2.500000000E+005.7840704568E+01+
*       -2.601557277E+02               0
GRID*             154654               0-2.500000000E+005.4701561616E+01+
*       -2.601184640E+02               0
GRID*             154655               0-2.500000000E+005.1553073255E+01+
*       -2.601406971E+02               0
GRID*             154656               0-2.500000000E+004.8422076176E+01+
*       -2.602289341E+02               0
GRID*             154657               0-2.500000000E+004.5325432170E+01+
*       -2.603473116E+02               0
GRID*             154658               0-2.500000000E+004.2259700993E+01+
*       -2.604721168E+02               0
GRID*             154659               0-2.500000000E+003.9214966586E+01+
*       -2.605940842E+02               0
GRID*             154660               0-2.500000000E+003.6182382684E+01+
*       -2.607112180E+02               0
GRID*             154661               0-2.500000000E+003.3155991901E+01+
*       -2.608241570E+02               0
GRID*             154662               0-2.500000000E+003.0132425356E+01+
*       -2.609340088E+02               0
GRID*             154663               0-2.500000000E+003.0092096663E+01+
*       -2.579792458E+02               0
GRID*             154664               0-2.500000000E+003.0053546328E+01+
*       -2.550250347E+02               0
GRID*             154665               0-2.500000000E+003.0019830494E+01+
*       -2.520718025E+02               0
GRID*             154666               0-2.500000000E+002.9994994725E+01+
*       -2.491184051E+02               0
GRID*             154667               0-2.500000000E+002.9983436681E+01+
*       -2.461621391E+02               0
GRID*             154668               0-2.500000000E+002.9988969059E+01+
*       -2.431998212E+02               0
GRID*             154669               0-2.500000000E+003.2961239452E+01+
*       -2.431756878E+02               0
GRID*             154670               0-2.500000000E+003.5911330435E+01+
*       -2.431564142E+02               0
GRID*             154671               0-2.500000000E+003.8833431243E+01+
*       -2.431453445E+02               0
GRID*             154672               0-2.500000000E+004.1720096228E+01+
*       -2.431513002E+02               0
GRID*             154673               0-2.500000000E+004.4562148746E+01+
*       -2.431912195E+02               0
GRID*             154674               0-2.500000000E+004.7351388565E+01+
*       -2.432949957E+02               0
GRID*             154675               0-2.500000000E+005.0096352373E+01+
*       -2.435122227E+02               0
GRID*             154676               0-2.500000000E+005.2869519297E+01+
*       -2.439025928E+02               0
GRID*             154677               0-2.500000000E+005.5801516390E+01+
*       -2.442562850E+02               0
GRID*             154678               0-2.500000000E+005.8807178878E+01+
*       -2.445563342E+02               0
GRID*             154679               0-2.500000000E+006.1831016280E+01+
*       -2.448166262E+02               0
GRID*             154680               0-2.500000000E+006.4847535373E+01+
*       -2.450500349E+02               0
GRID*             154681               0-2.500000000E+006.7845684063E+01+
*       -2.452649606E+02               0
GRID*             154682               0-2.500000000E+007.0820310485E+01+
*       -2.454671783E+02               0
GRID*             154683               0-2.500000000E+007.0634129150E+01+
*       -2.484911883E+02               0
GRID*             154684               0-2.500000000E+007.0473614723E+01+
*       -2.515216620E+02               0
GRID*             154685               0-2.500000000E+007.0340365905E+01+
*       -2.545540365E+02               0
GRID*             154686               0-2.500000000E+007.0234007865E+01+
*       -2.575831409E+02               0
GRID*             154687               0-2.500000000E+006.7195965390E+01+
*       -2.574324439E+02               0
GRID*             154688               0-2.500000000E+006.4129763523E+01+
*       -2.572897216E+02               0
GRID*             154689               0-2.500000000E+006.1030489314E+01+
*       -2.571604682E+02               0
GRID*             154690               0-2.500000000E+005.7892251046E+01+
*       -2.570554433E+02               0
GRID*             154691               0-2.500000000E+005.4711567522E+01+
*       -2.569959988E+02               0
GRID*             154692               0-2.500000000E+005.1502423656E+01+
*       -2.570213002E+02               0
GRID*             154693               0-2.500000000E+004.8328088244E+01+
*       -2.571748850E+02               0
GRID*             154694               0-2.500000000E+004.5222976624E+01+
*       -2.573463879E+02               0
GRID*             154695               0-2.500000000E+004.2166818135E+01+
*       -2.575015609E+02               0
GRID*             154696               0-2.500000000E+003.9137042706E+01+
*       -2.576377846E+02               0
GRID*             154697               0-2.500000000E+003.6119185362E+01+
*       -2.577596287E+02               0
GRID*             154698               0-2.500000000E+003.3105527137E+01+
*       -2.578719434E+02               0
GRID*             154699               0-2.500000000E+003.3055070528E+01+
*       -2.549240303E+02               0
GRID*             154700               0-2.500000000E+003.3009183989E+01+
*       -2.519821630E+02               0
GRID*             154701               0-2.500000000E+003.2974107994E+01+
*       -2.490458240E+02               0
GRID*             154702               0-2.500000000E+003.2956771649E+01+
*       -2.461116371E+02               0
GRID*             154703               0-2.500000000E+003.5908703726E+01+
*       -2.460637058E+02               0
GRID*             154704               0-2.500000000E+003.8832226805E+01+
*       -2.460184735E+02               0
GRID*             154705               0-2.500000000E+004.1715496887E+01+
*       -2.459806166E+02               0
GRID*             154706               0-2.500000000E+004.4536999531E+01+
*       -2.459626310E+02               0
GRID*             154707               0-2.500000000E+004.7258192225E+01+
*       -2.459970706E+02               0
GRID*             154708               0-2.500000000E+004.9834433286E+01+
*       -2.461761298E+02               0
GRID*             154709               0-2.500000000E+005.2374948357E+01+
*       -2.468807830E+02               0
GRID*             154710               0-2.500000000E+005.5394501885E+01+
*       -2.473148815E+02               0
GRID*             154711               0-2.500000000E+005.8484579679E+01+
*       -2.476230229E+02               0
GRID*             154712               0-2.500000000E+006.1562703296E+01+
*       -2.478729901E+02               0
GRID*             154713               0-2.500000000E+006.4614313747E+01+
*       -2.480935777E+02               0
GRID*             154714               0-2.500000000E+006.7637663214E+01+
*       -2.482975297E+02               0
GRID*             154715               0-2.500000000E+006.7457558764E+01+
*       -2.513404675E+02               0
GRID*             154716               0-2.500000000E+006.7310213148E+01+
*       -2.543877542E+02               0
GRID*             154717               0-2.500000000E+006.4248743478E+01+
*       -2.542238295E+02               0
GRID*             154718               0-2.500000000E+006.1147757653E+01+
*       -2.540644036E+02               0
GRID*             154719               0-2.500000000E+005.7992643624E+01+
*       -2.539159951E+02               0
GRID*             154720               0-2.500000000E+005.4758347541E+01+
*       -2.537987946E+02               0
GRID*             154721               0-2.500000000E+005.1426687281E+01+
*       -2.537836991E+02               0
GRID*             154722               0-2.500000000E+004.8175764235E+01+
*       -2.541111016E+02               0
GRID*             154723               0-2.500000000E+004.5079100158E+01+
*       -2.543667542E+02               0
GRID*             154724               0-2.500000000E+004.2051769862E+01+
*       -2.545526976E+02               0
GRID*             154725               0-2.500000000E+003.9049384335E+01+
*       -2.546967321E+02               0
GRID*             154726               0-2.500000000E+003.6053004680E+01+
*       -2.548168226E+02               0
GRID*             154727               0-2.500000000E+003.5988727110E+01+
*       -2.518871686E+02               0
GRID*             154728               0-2.500000000E+003.5936648759E+01+
*       -2.489712793E+02               0
GRID*             154729               0-2.500000000E+003.8876019662E+01+
*       -2.488912512E+02               0
GRID*             154730               0-2.500000000E+004.1781341497E+01+
*       -2.488011317E+02               0
GRID*             154731               0-2.500000000E+004.4624221442E+01+
*       -2.486940560E+02               0
GRID*             154732               0-2.500000000E+004.7315837804E+01+
*       -2.485621709E+02               0
GRID*             154733               0-2.500000000E+004.9574825490E+01+
*       -2.484099166E+02               0
GRID*             154734               0-2.500000000E+005.1280429219E+01+
*       -2.501872932E+02               0
GRID*             154735               0-2.500000000E+005.4913436959E+01+
*       -2.505142832E+02               0
GRID*             154736               0-2.500000000E+005.8179491067E+01+
*       -2.507532520E+02               0
GRID*             154737               0-2.500000000E+006.1325151821E+01+
*       -2.509612210E+02               0
GRID*             154738               0-2.500000000E+006.4411427625E+01+
*       -2.511548036E+02               0
GRID*             154739               0-2.500000000E+004.7893385424E+01+
*       -2.511157042E+02               0
GRID*             154740               0-2.500000000E+004.4876816371E+01+
*       -2.514591104E+02               0
GRID*             154741               0-2.500000000E+004.1916759273E+01+
*       -2.516487095E+02               0
GRID*             154742               0-2.500000000E+003.8958027699E+01+
*       -2.517811206E+02               0
GRID*             154743               0-2.500000000E+008.7567820077E+01+
*       -3.223688189E+02               0
GRID*             154744               0-2.500000000E+008.7727549504E+01+
*       -3.185207613E+02               0
GRID*             154745               0-2.500000000E+008.7649525064E+01+
*       -3.169348717E+02               0
GRID*             154746               0-2.500000000E+008.7601723679E+01+
*       -3.202579070E+02               0
GRID*             154747               0-2.500000000E+005.1628857811E+01+
*       -2.196292767E+02               0
GRID*             154748               0-2.500000000E+005.4814201552E+01+
*       -2.196139619E+02               0
GRID*             154749               0-2.500000000E+005.8192811497E+01+
*       -2.196005332E+02               0
GRID*             154750               0-2.500000000E+006.2143806025E+01+
*       -2.195875111E+02               0
GRID*             154751               0-2.500000000E+006.4967508018E+01+
*       -2.177945112E+02               0
GRID*             154752               0-2.500000000E+006.7430738587E+01+
*       -2.172662289E+02               0
GRID*             154753               0-2.500000000E+006.9978139842E+01+
*       -2.170271906E+02               0
GRID*             154754               0-2.500000000E+007.2629440282E+01+
*       -2.168858945E+02               0
GRID*             154755               0-2.500000000E+007.5335055136E+01+
*       -2.167695606E+02               0
GRID*             154756               0-2.500000000E+007.8015761372E+01+
*       -2.166432439E+02               0
GRID*             154757               0-2.500000000E+008.0524961629E+01+
*       -2.165081837E+02               0
GRID*             154758               0-2.500000000E+008.0839821370E+01+
*       -2.186737859E+02               0
GRID*             154759               0-2.500000000E+008.1361801544E+01+
*       -2.205361765E+02               0
GRID*             154760               0-2.500000000E+008.2134759437E+01+
*       -2.217894453E+02               0
GRID*             154761               0-2.500000000E+008.1381442535E+01+
*       -2.231886179E+02               0
GRID*             154762               0-2.500000000E+007.9057764026E+01+
*       -2.220331988E+02               0
GRID*             154763               0-2.500000000E+007.5693105763E+01+
*       -2.221688701E+02               0
GRID*             154764               0-2.500000000E+007.2776457748E+01+
*       -2.221760360E+02               0
GRID*             154765               0-2.500000000E+007.0043231286E+01+
*       -2.220937688E+02               0
GRID*             154766               0-2.500000000E+006.7459625928E+01+
*       -2.218822275E+02               0
GRID*             154767               0-2.500000000E+006.4979066307E+01+
*       -2.213677457E+02               0
GRID*             154768               0-2.500000000E+007.8358731186E+01+
*       -2.191974013E+02               0
GRID*             154769               0-2.500000000E+007.0148760374E+01+
*       -2.195512014E+02               0
GRID*             154770               0-2.500000000E+006.7787757854E+01+
*       -2.195687602E+02               0
GRID*             154771               0-2.500000000E+006.5989239798E+01+
*       -2.195764556E+02               0
GRID*             154772               0-2.500000000E+007.2775104353E+01+
*       -2.195088104E+02               0
GRID*             154773               0-2.500000000E+007.5538455198E+01+
*       -2.194129405E+02               0
GRID*             154774               0-2.500000000E+003.0696782662E+01+
*       -2.197412344E+02               0
GRID*             154775               0-2.500000000E+001.7982727336E+01+
*       -2.199059042E+02               0
GRID*             154776               0-2.500000000E+002.1165393387E+01+
*       -2.198065209E+02               0
GRID*             154777               0-2.500000000E+002.4661118008E+01+
*       -2.197503094E+02               0
GRID*             154778               0-2.500000000E+002.7730742542E+01+
*       -2.197428530E+02               0
GRID*             154779               0-2.500000000E+001.8716159832E+01+
*       -2.211804815E+02               0
GRID*             154780               0-2.500000000E+001.8849580955E+01+
*       -2.185731736E+02               0
GRID*             154781               0-2.500000000E+003.3645136382E+01+
*       -2.197337860E+02               0
GRID*             154782               0-2.500000000E+003.6589056546E+01+
*       -2.197214295E+02               0
GRID*             154783               0-2.500000000E+003.9540873736E+01+
*       -2.197049519E+02               0
GRID*             154784               0-2.500000000E+004.2509696395E+01+
*       -2.196859228E+02               0
GRID*             154785               0-2.500000000E+004.5504860840E+01+
*       -2.196660425E+02               0
GRID*             154786               0-2.500000000E+004.8538341460E+01+
*       -2.196468065E+02               0
GRID*             154787               0-2.500000000E+008.5869406844E+01+
*       -2.110643028E+02               0
GRID*             154788               0-2.500000000E+008.3282515650E+01+
*       -2.116309024E+02               0
GRID*             154789               0-2.500000000E+008.0396211679E+01+
*       -2.113508167E+02               0
GRID*             154790               0-2.500000000E+007.7648224140E+01+
*       -2.112920913E+02               0
GRID*             154791               0-2.500000000E+007.4903807678E+01+
*       -2.113369497E+02               0
GRID*             154792               0-2.500000000E+007.2145541842E+01+
*       -2.114520636E+02               0
GRID*             154793               0-2.500000000E+006.9375817382E+01+
*       -2.116370284E+02               0
GRID*             154794               0-2.500000000E+006.6585905428E+01+
*       -2.119069843E+02               0
GRID*             154795               0-2.500000000E+006.3739264321E+01+
*       -2.122754095E+02               0
GRID*             154796               0-2.500000000E+006.0773652791E+01+
*       -2.127071541E+02               0
GRID*             154797               0-2.500000000E+005.7690273072E+01+
*       -2.130208313E+02               0
GRID*             154798               0-2.500000000E+005.4596358982E+01+
*       -2.132387864E+02               0
GRID*             154799               0-2.500000000E+005.1534918330E+01+
*       -2.133986682E+02               0
GRID*             154800               0-2.500000000E+004.8515001864E+01+
*       -2.135249266E+02               0
GRID*             154801               0-2.500000000E+004.5534652588E+01+
*       -2.136307571E+02               0
GRID*             154802               0-2.500000000E+004.2589254569E+01+
*       -2.137226949E+02               0
GRID*             154803               0-2.500000000E+003.9673782300E+01+
*       -2.138037172E+02               0
GRID*             154804               0-2.500000000E+003.6783342680E+01+
*       -2.138750800E+02               0
GRID*             154805               0-2.500000000E+003.3913832945E+01+
*       -2.139370118E+02               0
GRID*             154806               0-2.500000000E+003.1063714970E+01+
*       -2.139880402E+02               0
GRID*             154807               0-2.500000000E+002.8237187581E+01+
*       -2.140230626E+02               0
GRID*             154808               0-2.500000000E+002.5447618312E+01+
*       -2.140312518E+02               0
GRID*             154809               0-2.500000000E+002.2729772940E+01+
*       -2.139945268E+02               0
GRID*             154810               0-2.500000000E+002.0180864055E+01+
*       -2.138850096E+02               0
GRID*             154811               0-2.500000000E+008.6082640455E+01+
*       -1.287899191E+02               0
GRID*             154812               0-2.500000000E+008.3609161053E+01+
*       -1.282023556E+02               0
GRID*             154813               0-2.500000000E+008.0843572424E+01+
*       -1.284095267E+02               0
GRID*             154814               0-2.500000000E+007.8119185252E+01+
*       -1.284172376E+02               0
GRID*             154815               0-2.500000000E+007.5318068678E+01+
*       -1.284218194E+02               0
GRID*             154816               0-2.500000000E+007.2499668106E+01+
*       -1.283959334E+02               0
GRID*             154817               0-2.500000000E+006.9684614734E+01+
*       -1.283098745E+02               0
GRID*             154818               0-2.500000000E+006.6862085486E+01+
*       -1.281376491E+02               0
GRID*             154819               0-2.500000000E+006.3988772430E+01+
*       -1.278658695E+02               0
GRID*             154820               0-2.500000000E+006.0999056912E+01+
*       -1.275369095E+02               0
GRID*             154821               0-2.500000000E+005.7896149944E+01+
*       -1.273251502E+02               0
GRID*             154822               0-2.500000000E+005.4783050240E+01+
*       -1.271952253E+02               0
GRID*             154823               0-2.500000000E+005.1695301712E+01+
*       -1.271066395E+02               0
GRID*             154824               0-2.500000000E+004.8637310994E+01+
*       -1.270340100E+02               0
GRID*             154825               0-2.500000000E+004.5604152971E+01+
*       -1.269625898E+02               0
GRID*             154826               0-2.500000000E+004.2589175463E+01+
*       -1.268834161E+02               0
GRID*             154827               0-2.500000000E+003.9585977527E+01+
*       -1.267902173E+02               0
GRID*             154828               0-2.500000000E+003.6588921779E+01+
*       -1.266777718E+02               0
GRID*             154829               0-2.500000000E+003.3593763041E+01+
*       -1.265409408E+02               0
GRID*             154830               0-2.500000000E+003.0599490803E+01+
*       -1.263740953E+02               0
GRID*             154831               0-2.500000000E+002.7613520446E+01+
*       -1.261712713E+02               0
GRID*             154832               0-2.500000000E+002.4665040424E+01+
*       -1.259288978E+02               0
GRID*             154833               0-2.500000000E+002.1843604980E+01+
*       -1.256569186E+02               0
GRID*             154834               0-2.500000000E+001.9356719708E+01+
*       -1.254070033E+02               0
GRID*             154835               0-2.500000000E+008.6212776527E+01+
*       -1.268732921E+02               0
GRID*             154836               0-2.500000000E+008.7621763617E+01+
*       -1.269465114E+02               0
GRID*             154837               0-2.500000000E+008.4765964550E+01+
*       -1.268085246E+02               0
GRID*             154838               0-2.500000000E+008.5905940196E+01+
*       -1.316901521E+02               0
GRID*             154839               0-2.500000000E+008.5765257086E+01+
*       -1.347481982E+02               0
GRID*             154840               0-2.500000000E+008.5651110483E+01+
*       -1.378166284E+02               0
GRID*             154841               0-2.500000000E+008.5555089782E+01+
*       -1.408802851E+02               0
GRID*             154842               0-2.500000000E+008.5472568908E+01+
*       -1.439399984E+02               0
GRID*             154843               0-2.500000000E+008.5400843491E+01+
*       -1.469973447E+02               0
GRID*             154844               0-2.500000000E+008.5338114927E+01+
*       -1.500534118E+02               0
GRID*             154845               0-2.500000000E+008.5283069152E+01+
*       -1.531090197E+02               0
GRID*             154846               0-2.500000000E+008.5234733064E+01+
*       -1.561649079E+02               0
GRID*             154847               0-2.500000000E+008.5192458291E+01+
*       -1.592218013E+02               0
GRID*             154848               0-2.500000000E+008.5155960628E+01+
*       -1.622803898E+02               0
GRID*             154849               0-2.500000000E+008.5125371349E+01+
*       -1.653412509E+02               0
GRID*             154850               0-2.500000000E+008.5101261232E+01+
*       -1.684047298E+02               0
GRID*             154851               0-2.500000000E+008.5084594369E+01+
*       -1.714708062E+02               0
GRID*             154852               0-2.500000000E+008.5076571047E+01+
*       -1.745389917E+02               0
GRID*             154853               0-2.500000000E+008.5078347481E+01+
*       -1.776083337E+02               0
GRID*             154854               0-2.500000000E+008.5090709574E+01+
*       -1.806775784E+02               0
GRID*             154855               0-2.500000000E+008.5113891821E+01+
*       -1.837454829E+02               0
GRID*             154856               0-2.500000000E+008.5147698497E+01+
*       -1.868111324E+02               0
GRID*             154857               0-2.500000000E+008.5191744859E+01+
*       -1.898741024E+02               0
GRID*             154858               0-2.500000000E+008.5245567557E+01+
*       -1.929344576E+02               0
GRID*             154859               0-2.500000000E+008.5308756066E+01+
*       -1.959926238E+02               0
GRID*             154860               0-2.500000000E+008.5381551271E+01+
*       -1.990491767E+02               0
GRID*             154861               0-2.500000000E+008.5465962243E+01+
*       -2.021046982E+02               0
GRID*             154862               0-2.500000000E+008.5567263236E+01+
*       -2.051583251E+02               0
GRID*             154863               0-2.500000000E+008.5696647957E+01+
*       -2.081918303E+02               0
GRID*             154864               0-2.500000000E+008.3004848275E+01+
*       -2.083604256E+02               0
GRID*             154865               0-2.500000000E+008.0230842731E+01+
*       -2.083690227E+02               0
GRID*             154866               0-2.500000000E+007.7458178170E+01+
*       -2.083960779E+02               0
GRID*             154867               0-2.500000000E+007.4678363696E+01+
*       -2.084705718E+02               0
GRID*             154868               0-2.500000000E+007.1885004350E+01+
*       -2.085971593E+02               0
GRID*             154869               0-2.500000000E+006.9074602382E+01+
*       -2.087793921E+02               0
GRID*             154870               0-2.500000000E+006.6238566931E+01+
*       -2.090204383E+02               0
GRID*             154871               0-2.500000000E+006.3359186529E+01+
*       -2.093145192E+02               0
GRID*             154872               0-2.500000000E+006.0417598004E+01+
*       -2.096309260E+02               0
GRID*             154873               0-2.500000000E+005.7421489319E+01+
*       -2.099090829E+02               0
GRID*             154874               0-2.500000000E+005.4409788097E+01+
*       -2.101384950E+02               0
GRID*             154875               0-2.500000000E+005.1410611404E+01+
*       -2.103280621E+02               0
GRID*             154876               0-2.500000000E+004.8437804834E+01+
*       -2.104888960E+02               0
GRID*             154877               0-2.500000000E+004.5496611669E+01+
*       -2.106290844E+02               0
GRID*             154878               0-2.500000000E+004.2588012226E+01+
*       -2.107532063E+02               0
GRID*             154879               0-2.500000000E+003.9710874132E+01+
*       -2.108632445E+02               0
GRID*             154880               0-2.500000000E+003.6863075927E+01+
*       -2.109597139E+02               0
GRID*             154881               0-2.500000000E+003.4042813795E+01+
*       -2.110422493E+02               0
GRID*             154882               0-2.500000000E+003.1250962381E+01+
*       -2.111091657E+02               0
GRID*             154883               0-2.500000000E+002.8494078257E+01+
*       -2.111563468E+02               0
GRID*             154884               0-2.500000000E+002.5786374498E+01+
*       -2.111768881E+02               0
GRID*             154885               0-2.500000000E+002.3151020501E+01+
*       -2.111637440E+02               0
GRID*             154886               0-2.500000000E+002.0619411941E+01+
*       -2.111182883E+02               0
GRID*             154887               0-2.500000000E+001.8195555766E+01+
*       -2.110831889E+02               0
GRID*             154888               0-2.500000000E+001.5865066352E+01+
*       -2.110697231E+02               0
GRID*             154889               0-2.500000000E+001.3603632672E+01+
*       -2.110429058E+02               0
GRID*             154890               0-2.500000000E+001.3735580977E+01+
*       -2.080877122E+02               0
GRID*             154891               0-2.500000000E+001.3864818631E+01+
*       -2.051104454E+02               0
GRID*             154892               0-2.500000000E+001.3983725542E+01+
*       -2.021187034E+02               0
GRID*             154893               0-2.500000000E+001.4092755175E+01+
*       -1.991211482E+02               0
GRID*             154894               0-2.500000000E+001.4195316857E+01+
*       -1.961221298E+02               0
GRID*             154895               0-2.500000000E+001.4295233947E+01+
*       -1.931214617E+02               0
GRID*             154896               0-2.500000000E+001.4394727920E+01+
*       -1.901157025E+02               0
GRID*             154897               0-2.500000000E+001.4493110049E+01+
*       -1.870999713E+02               0
GRID*             154898               0-2.500000000E+001.4586595872E+01+
*       -1.840704642E+02               0
GRID*             154899               0-2.500000000E+001.4670232851E+01+
*       -1.810268122E+02               0
GRID*             154900               0-2.500000000E+001.4741117390E+01+
*       -1.779718556E+02               0
GRID*             154901               0-2.500000000E+001.4798506895E+01+
*       -1.749094917E+02               0
GRID*             154902               0-2.500000000E+001.4843206698E+01+
*       -1.718434177E+02               0
GRID*             154903               0-2.500000000E+001.4877144176E+01+
*       -1.687765629E+02               0
GRID*             154904               0-2.500000000E+001.4902735122E+01+
*       -1.657107565E+02               0
GRID*             154905               0-2.500000000E+001.4922305306E+01+
*       -1.626466789E+02               0
GRID*             154906               0-2.500000000E+001.4937738705E+01+
*       -1.595839851E+02               0
GRID*             154907               0-2.500000000E+001.4950333915E+01+
*       -1.565214342E+02               0
GRID*             154908               0-2.500000000E+001.4960766497E+01+
*       -1.534569006E+02               0
GRID*             154909               0-2.500000000E+001.4969024878E+01+
*       -1.503871797E+02               0
GRID*             154910               0-2.500000000E+001.4974038884E+01+
*       -1.473072983E+02               0
GRID*             154911               0-2.500000000E+001.4972676874E+01+
*       -1.442088929E+02               0
GRID*             154912               0-2.500000000E+001.4958109649E+01+
*       -1.410776949E+02               0
GRID*             154913               0-2.500000000E+001.4916214243E+01+
*       -1.378904732E+02               0
GRID*             154914               0-2.500000000E+001.4812751215E+01+
*       -1.346140981E+02               0
GRID*             154915               0-2.500000000E+001.4549764711E+01+
*       -1.312431229E+02               0
GRID*             154916               0-2.500000000E+001.3853339042E+01+
*       -1.282399216E+02               0
GRID*             154917               0-2.500000000E+001.5933289079E+01+
*       -1.276162627E+02               0
GRID*             154918               0-2.500000000E+001.7425729861E+01+
*       -1.267259984E+02               0
GRID*             154919               0-2.500000000E+001.9104006661E+01+
*       -1.276745128E+02               0
GRID*             154920               0-2.500000000E+002.1643906862E+01+
*       -1.283443811E+02               0
GRID*             154921               0-2.500000000E+002.4510704508E+01+
*       -1.287838626E+02               0
GRID*             154922               0-2.500000000E+002.7476702385E+01+
*       -1.290918106E+02               0
GRID*             154923               0-2.500000000E+003.0470994726E+01+
*       -1.293246892E+02               0
GRID*             154924               0-2.500000000E+003.3471476267E+01+
*       -1.295100266E+02               0
GRID*             154925               0-2.500000000E+003.6472264625E+01+
*       -1.296623530E+02               0
GRID*             154926               0-2.500000000E+003.9473675564E+01+
*       -1.297906469E+02               0
GRID*             154927               0-2.500000000E+004.2478478395E+01+
*       -1.299016134E+02               0
GRID*             154928               0-2.500000000E+004.5490238634E+01+
*       -1.300013520E+02               0
GRID*             154929               0-2.500000000E+004.8512333650E+01+
*       -1.300964944E+02               0
GRID*             154930               0-2.500000000E+005.1546852785E+01+
*       -1.301952646E+02               0
GRID*             154931               0-2.500000000E+005.4592478949E+01+
*       -1.303085261E+02               0
GRID*             154932               0-2.500000000E+005.7640209180E+01+
*       -1.304499573E+02               0
GRID*             154933               0-2.500000000E+006.0667274588E+01+
*       -1.306322985E+02               0
GRID*             154934               0-2.500000000E+006.3638165391E+01+
*       -1.308517809E+02               0
GRID*             154935               0-2.500000000E+006.6546105109E+01+
*       -1.310523072E+02               0
GRID*             154936               0-2.500000000E+006.9411310898E+01+
*       -1.312036168E+02               0
GRID*             154937               0-2.500000000E+007.2252155009E+01+
*       -1.313034409E+02               0
GRID*             154938               0-2.500000000E+007.5072943669E+01+
*       -1.313644959E+02               0
GRID*             154939               0-2.500000000E+007.7862929438E+01+
*       -1.314061601E+02               0
GRID*             154940               0-2.500000000E+008.0603317045E+01+
*       -1.314478469E+02               0
GRID*             154941               0-2.500000000E+008.3298865925E+01+
*       -1.314971574E+02               0
GRID*             154942               0-2.500000000E+008.3100813812E+01+
*       -1.346038591E+02               0
GRID*             154943               0-2.500000000E+008.2942558030E+01+
*       -1.376792137E+02               0
GRID*             154944               0-2.500000000E+008.2808476710E+01+
*       -1.407466362E+02               0
GRID*             154945               0-2.500000000E+008.2692295826E+01+
*       -1.438113224E+02               0
GRID*             154946               0-2.500000000E+008.2590535843E+01+
*       -1.468749092E+02               0
GRID*             154947               0-2.500000000E+008.2500825906E+01+
*       -1.499382558E+02               0
GRID*             154948               0-2.500000000E+008.2421388613E+01+
*       -1.530021209E+02               0
GRID*             154949               0-2.500000000E+008.2350897168E+01+
*       -1.560673519E+02               0
GRID*             154950               0-2.500000000E+008.2288486851E+01+
*       -1.591349091E+02               0
GRID*             154951               0-2.500000000E+008.2233841570E+01+
*       -1.622057997E+02               0
GRID*             154952               0-2.500000000E+008.2187306319E+01+
*       -1.652809346E+02               0
GRID*             154953               0-2.500000000E+008.2149971424E+01+
*       -1.683609106E+02               0
GRID*             154954               0-2.500000000E+008.2123649890E+01+
*       -1.714457284E+02               0
GRID*             154955               0-2.500000000E+008.2110625918E+01+
*       -1.745345407E+02               0
GRID*             154956               0-2.500000000E+008.2113086938E+01+
*       -1.776255620E+02               0
GRID*             154957               0-2.500000000E+008.2132373774E+01+
*       -1.807163220E+02               0
GRID*             154958               0-2.500000000E+008.2168506914E+01+
*       -1.838043142E+02               0
GRID*             154959               0-2.500000000E+008.2220549802E+01+
*       -1.868876693E+02               0
GRID*             154960               0-2.500000000E+008.2287255542E+01+
*       -1.899654139E+02               0
GRID*             154961               0-2.500000000E+008.2367469049E+01+
*       -1.930373054E+02               0
GRID*             154962               0-2.500000000E+008.2460393874E+01+
*       -1.961034184E+02               0
GRID*             154963               0-2.500000000E+008.2566126479E+01+
*       -1.991637783E+02               0
GRID*             154964               0-2.500000000E+008.2686557630E+01+
*       -2.022188472E+02               0
GRID*             154965               0-2.500000000E+008.2827114786E+01+
*       -2.052731765E+02               0
GRID*             154966               0-2.500000000E+008.0052863934E+01+
*       -2.053514422E+02               0
GRID*             154967               0-2.500000000E+007.7261479719E+01+
*       -2.054300368E+02               0
GRID*             154968               0-2.500000000E+007.4455809063E+01+
*       -2.055331056E+02               0
GRID*             154969               0-2.500000000E+007.1634769293E+01+
*       -2.056719095E+02               0
GRID*             154970               0-2.500000000E+006.8796065269E+01+
*       -2.058514451E+02               0
GRID*             154971               0-2.500000000E+006.5935041444E+01+
*       -2.060716734E+02               0
GRID*             154972               0-2.500000000E+006.3044806813E+01+
*       -2.063247623E+02               0
GRID*             154973               0-2.500000000E+006.0120989225E+01+
*       -2.065917118E+02               0
GRID*             154974               0-2.500000000E+005.7170335523E+01+
*       -2.068467703E+02               0
GRID*             154975               0-2.500000000E+005.4210772798E+01+
*       -2.070784822E+02               0
GRID*             154976               0-2.500000000E+005.1259578609E+01+
*       -2.072861112E+02               0
GRID*             154977               0-2.500000000E+004.8329053458E+01+
*       -2.074730621E+02               0
GRID*             154978               0-2.500000000E+004.5426857831E+01+
*       -2.076427225E+02               0
GRID*             154979               0-2.500000000E+004.2557251446E+01+
*       -2.077966460E+02               0
GRID*             154980               0-2.500000000E+003.9721959627E+01+
*       -2.079343634E+02               0
GRID*             154981               0-2.500000000E+003.6920845984E+01+
*       -2.080541623E+02               0
GRID*             154982               0-2.500000000E+003.4153013972E+01+
*       -2.081538344E+02               0
GRID*             154983               0-2.500000000E+003.1418904728E+01+
*       -2.082308469E+02               0
GRID*             154984               0-2.500000000E+002.8722637098E+01+
*       -2.082821043E+02               0
GRID*             154985               0-2.500000000E+002.6072830829E+01+
*       -2.083040588E+02               0
GRID*             154986               0-2.500000000E+002.3481049879E+01+
*       -2.082944590E+02               0
GRID*             154987               0-2.500000000E+002.0957586702E+01+
*       -2.082566189E+02               0
GRID*             154988               0-2.500000000E+001.8501779750E+01+
*       -2.082043844E+02               0
GRID*             154989               0-2.500000000E+001.6101686894E+01+
*       -2.081454520E+02               0
GRID*             154990               0-2.500000000E+001.6296118450E+01+
*       -2.052026605E+02               0
GRID*             154991               0-2.500000000E+001.6466316048E+01+
*       -2.022385052E+02               0
GRID*             154992               0-2.500000000E+001.6620728218E+01+
*       -1.992668193E+02               0
GRID*             154993               0-2.500000000E+001.6767372781E+01+
*       -1.962941268E+02               0
GRID*             154994               0-2.500000000E+001.6913414705E+01+
*       -1.933199439E+02               0
GRID*             154995               0-2.500000000E+001.7063350912E+01+
*       -1.903381238E+02               0
GRID*             154996               0-2.500000000E+001.7216538165E+01+
*       -1.873389701E+02               0
GRID*             154997               0-2.500000000E+001.7365154289E+01+
*       -1.843143169E+02               0
GRID*             154998               0-2.500000000E+001.7497783897E+01+
*       -1.812636465E+02               0
GRID*             154999               0-2.500000000E+001.7608946028E+01+
*       -1.781934607E+02               0
GRID*             155000               0-2.500000000E+001.7697613043E+01+
*       -1.751113084E+02               0
GRID*             155001               0-2.500000000E+001.7765286542E+01+
*       -1.720238178E+02               0
GRID*             155002               0-2.500000000E+001.7815560970E+01+
*       -1.689360987E+02               0
GRID*             155003               0-2.500000000E+001.7852837928E+01+
*       -1.658511720E+02               0
GRID*             155004               0-2.500000000E+001.7881189623E+01+
*       -1.627700283E+02               0
GRID*             155005               0-2.500000000E+001.7903792270E+01+
*       -1.596920356E+02               0
GRID*             155006               0-2.500000000E+001.7922803586E+01+
*       -1.566153247E+02               0
GRID*             155007               0-2.500000000E+001.7939441756E+01+
*       -1.535369618E+02               0
GRID*             155008               0-2.500000000E+001.7954056163E+01+
*       -1.504527862E+02               0
GRID*             155009               0-2.500000000E+001.7965941526E+01+
*       -1.473565776E+02               0
GRID*             155010               0-2.500000000E+001.7972799249E+01+
*       -1.442380626E+02               0
GRID*             155011               0-2.500000000E+001.7970120283E+01+
*       -1.410789410E+02               0
GRID*             155012               0-2.500000000E+001.7949718417E+01+
*       -1.378423471E+02               0
GRID*             155013               0-2.500000000E+001.7891844637E+01+
*       -1.344306958E+02               0
GRID*             155014               0-2.500000000E+001.7717695091E+01+
*       -1.304366966E+02               0
GRID*             155015               0-2.500000000E+002.1171011292E+01+
*       -1.313257469E+02               0
GRID*             155016               0-2.500000000E+002.4285936904E+01+
*       -1.317856865E+02               0
GRID*             155017               0-2.500000000E+002.7325855568E+01+
*       -1.320936808E+02               0
GRID*             155018               0-2.500000000E+003.0344314268E+01+
*       -1.323268506E+02               0
GRID*             155019               0-2.500000000E+003.3353709699E+01+
*       -1.325152925E+02               0
GRID*             155020               0-2.500000000E+003.6357992515E+01+
*       -1.326737074E+02               0
GRID*             155021               0-2.500000000E+003.9359821601E+01+
*       -1.328109238E+02               0
GRID*             155022               0-2.500000000E+004.2361798235E+01+
*       -1.329334428E+02               0
GRID*             155023               0-2.500000000E+004.5366295670E+01+
*       -1.330470124E+02               0
GRID*             155024               0-2.500000000E+004.8374905762E+01+
*       -1.331574588E+02               0
GRID*             155025               0-2.500000000E+005.1387609564E+01+
*       -1.332711407E+02               0
GRID*             155026               0-2.500000000E+005.4401521929E+01+
*       -1.333949476E+02               0
GRID*             155027               0-2.500000000E+005.7409249624E+01+
*       -1.335352712E+02               0
GRID*             155028               0-2.500000000E+006.0398027561E+01+
*       -1.336948283E+02               0
GRID*             155029               0-2.500000000E+006.3353161722E+01+
*       -1.338664823E+02               0
GRID*             155030               0-2.500000000E+006.6269654553E+01+
*       -1.340281960E+02               0
GRID*             155031               0-2.500000000E+006.9152651383E+01+
*       -1.341638730E+02               0
GRID*             155032               0-2.500000000E+007.2008046247E+01+
*       -1.342701511E+02               0
GRID*             155033               0-2.500000000E+007.4836124360E+01+
*       -1.343540961E+02               0
GRID*             155034               0-2.500000000E+007.7630869905E+01+
*       -1.344289833E+02               0
GRID*             155035               0-2.500000000E+008.0384134857E+01+
*       -1.345103785E+02               0
GRID*             155036               0-2.500000000E+008.0199074112E+01+
*       -1.375682487E+02               0
GRID*             155037               0-2.500000000E+008.0036847823E+01+
*       -1.406293073E+02               0
GRID*             155038               0-2.500000000E+007.9893939277E+01+
*       -1.436927729E+02               0
GRID*             155039               0-2.500000000E+007.9767362977E+01+
*       -1.467581466E+02               0
GRID*             155040               0-2.500000000E+007.9654628445E+01+
*       -1.498253472E+02               0
GRID*             155041               0-2.500000000E+007.9553683881E+01+
*       -1.528947481E+02               0
GRID*             155042               0-2.500000000E+007.9462929693E+01+
*       -1.559671450E+02               0
GRID*             155043               0-2.500000000E+007.9381312189E+01+
*       -1.590436822E+02               0
GRID*             155044               0-2.500000000E+007.9308489683E+01+
*       -1.621257313E+02               0
GRID*             155045               0-2.500000000E+007.9245054545E+01+
*       -1.652146855E+02               0
GRID*             155046               0-2.500000000E+007.9192769797E+01+
*       -1.683116067E+02               0
GRID*             155047               0-2.500000000E+007.9154679680E+01+
*       -1.714167284E+02               0
GRID*             155048               0-2.500000000E+007.9134804318E+01+
*       -1.745288866E+02               0
GRID*             155049               0-2.500000000E+007.9137159836E+01+
*       -1.776451259E+02               0
GRID*             155050               0-2.500000000E+007.9164058751E+01+
*       -1.807609243E+02               0
GRID*             155051               0-2.500000000E+007.9214788299E+01+
*       -1.838715971E+02               0
GRID*             155052               0-2.500000000E+007.9286749160E+01+
*       -1.869738023E+02               0
GRID*             155053               0-2.500000000E+007.9377051135E+01+
*       -1.900658816E+02               0
GRID*             155054               0-2.500000000E+007.9483374795E+01+
*       -1.931472692E+02               0
GRID*             155055               0-2.500000000E+007.9604223821E+01+
*       -1.962175422E+02               0
GRID*             155056               0-2.500000000E+007.9739008446E+01+
*       -1.992755613E+02               0
GRID*             155057               0-2.500000000E+007.9887917174E+01+
*       -2.023191654E+02               0
GRID*             155058               0-2.500000000E+007.7073078939E+01+
*       -2.024242984E+02               0
GRID*             155059               0-2.500000000E+007.4243360300E+01+
*       -2.025464789E+02               0
GRID*             155060               0-2.500000000E+007.1398754658E+01+
*       -2.026949011E+02               0
GRID*             155061               0-2.500000000E+006.8538594524E+01+
*       -2.028739880E+02               0
GRID*             155062               0-2.500000000E+006.5661596993E+01+
*       -2.030833084E+02               0
GRID*             155063               0-2.500000000E+006.2766470579E+01+
*       -2.033168119E+02               0
GRID*             155064               0-2.500000000E+005.9854018324E+01+
*       -2.035628833E+02               0
GRID*             155065               0-2.500000000E+005.6929834060E+01+
*       -2.038078473E+02               0
GRID*             155066               0-2.500000000E+005.4004140344E+01+
*       -2.040429709E+02               0
GRID*             155067               0-2.500000000E+005.1088301801E+01+
*       -2.042651648E+02               0
GRID*             155068               0-2.500000000E+004.8192649995E+01+
*       -2.044745980E+02               0
GRID*             155069               0-2.500000000E+004.5325779292E+01+
*       -2.046717877E+02               0
GRID*             155070               0-2.500000000E+004.2494184236E+01+
*       -2.048553808E+02               0
GRID*             155071               0-2.500000000E+003.9701786805E+01+
*       -2.050215193E+02               0
GRID*             155072               0-2.500000000E+003.6949600466E+01+
*       -2.051649564E+02               0
GRID*             155073               0-2.500000000E+003.4236201500E+01+
*       -2.052803211E+02               0
GRID*             155074               0-2.500000000E+003.1559332891E+01+
*       -2.053631847E+02               0
GRID*             155075               0-2.500000000E+002.8918064479E+01+
*       -2.054109877E+02               0
GRID*             155076               0-2.500000000E+002.6314044168E+01+
*       -2.054234089E+02               0
GRID*             155077               0-2.500000000E+002.3750551462E+01+
*       -2.054019982E+02               0
GRID*             155078               0-2.500000000E+002.1229504785E+01+
*       -2.053510681E+02               0
GRID*             155079               0-2.500000000E+001.8747865081E+01+
*       -2.052781947E+02               0
GRID*             155080               0-2.500000000E+001.8954987980E+01+
*       -2.023431319E+02               0
GRID*             155081               0-2.500000000E+001.9142692020E+01+
*       -1.994020493E+02               0
GRID*             155082               0-2.500000000E+001.9323504786E+01+
*       -1.964634497E+02               0
GRID*             155083               0-2.500000000E+001.9509082126E+01+
*       -1.935265720E+02               0
GRID*             155084               0-2.500000000E+001.9708727876E+01+
*       -1.905811921E+02               0
GRID*             155085               0-2.500000000E+001.9923712516E+01+
*       -1.876088443E+02               0
GRID*             155086               0-2.500000000E+002.0139259530E+01+
*       -1.845919772E+02               0
GRID*             155087               0-2.500000000E+002.0328754757E+01+
*       -1.815298846E+02               0
GRID*             155088               0-2.500000000E+002.0484170478E+01+
*       -1.784377531E+02               0
GRID*             155089               0-2.500000000E+002.0605479671E+01+
*       -1.753291249E+02               0
GRID*             155090               0-2.500000000E+002.0695082811E+01+
*       -1.722145787E+02               0
GRID*             155091               0-2.500000000E+002.0759311828E+01+
*       -1.691021832E+02               0
GRID*             155092               0-2.500000000E+002.0805679990E+01+
*       -1.659962288E+02               0
GRID*             155093               0-2.500000000E+002.0840693787E+01+
*       -1.628976743E+02               0
GRID*             155094               0-2.500000000E+002.0869099934E+01+
*       -1.598052336E+02               0
GRID*             155095               0-2.500000000E+002.0893979498E+01+
*       -1.567162524E+02               0
GRID*             155096               0-2.500000000E+002.0917116416E+01+
*       -1.536271542E+02               0
GRID*             155097               0-2.500000000E+002.0939345758E+01+
*       -1.505334441E+02               0
GRID*             155098               0-2.500000000E+002.0960749907E+01+
*       -1.474291476E+02               0
GRID*             155099               0-2.500000000E+002.0980885939E+01+
*       -1.443056477E+02               0
GRID*             155100               0-2.500000000E+002.0999781530E+01+
*       -1.411502065E+02               0
GRID*             155101               0-2.500000000E+002.1020899529E+01+
*       -1.379446142E+02               0
GRID*             155102               0-2.500000000E+002.1059987358E+01+
*       -1.346674367E+02               0
GRID*             155103               0-2.500000000E+002.4156510365E+01+
*       -1.349351759E+02               0
GRID*             155104               0-2.500000000E+002.7206951440E+01+
*       -1.351728177E+02               0
GRID*             155105               0-2.500000000E+003.0232777539E+01+
*       -1.353769699E+02               0
GRID*             155106               0-2.500000000E+003.3244855377E+01+
*       -1.355536427E+02               0
GRID*             155107               0-2.500000000E+003.6248628610E+01+
*       -1.357090266E+02               0
GRID*             155108               0-2.500000000E+003.9247385433E+01+
*       -1.358484303E+02               0
GRID*             155109               0-2.500000000E+004.2243494039E+01+
*       -1.359765849E+02               0
GRID*             155110               0-2.500000000E+004.5238620066E+01+
*       -1.360980067E+02               0
GRID*             155111               0-2.500000000E+004.8233491097E+01+
*       -1.362172002E+02               0
GRID*             155112               0-2.500000000E+005.1227435997E+01+
*       -1.363386370E+02               0
GRID*             155113               0-2.500000000E+005.4217811791E+01+
*       -1.364663842E+02               0
GRID*             155114               0-2.500000000E+005.7199556667E+01+
*       -1.366031524E+02               0
GRID*             155115               0-2.500000000E+006.0165515897E+01+
*       -1.367485940E+02               0
GRID*             155116               0-2.500000000E+006.3108508308E+01+
*       -1.368973617E+02               0
GRID*             155117               0-2.500000000E+006.6024920493E+01+
*       -1.370393580E+02               0
GRID*             155118               0-2.500000000E+006.8914875436E+01+
*       -1.371666022E+02               0
GRID*             155119               0-2.500000000E+007.1778997080E+01+
*       -1.372773640E+02               0
GRID*             155120               0-2.500000000E+007.4615800982E+01+
*       -1.373762906E+02               0
GRID*             155121               0-2.500000000E+007.7421611441E+01+
*       -1.374723508E+02               0
GRID*             155122               0-2.500000000E+007.7238744105E+01+
*       -1.405226290E+02               0
GRID*             155123               0-2.500000000E+007.7075376665E+01+
*       -1.435810748E+02               0
GRID*             155124               0-2.500000000E+007.6929064656E+01+
*       -1.466450292E+02               0
GRID*             155125               0-2.500000000E+007.6797326928E+01+
*       -1.497132941E+02               0
GRID*             155126               0-2.500000000E+007.6677901995E+01+
*       -1.527857309E+02               0
GRID*             155127               0-2.500000000E+007.6568914760E+01+
*       -1.558630147E+02               0
GRID*             155128               0-2.500000000E+007.6469053909E+01+
*       -1.589464800E+02               0
GRID*             155129               0-2.500000000E+007.6377828966E+01+
*       -1.620379803E+02               0
GRID*             155130               0-2.500000000E+007.6295960087E+01+
*       -1.651396553E+02               0
GRID*             155131               0-2.500000000E+007.6225900344E+01+
*       -1.682534864E+02               0
GRID*             155132               0-2.500000000E+007.6172296280E+01+
*       -1.713805243E+02               0
GRID*             155133               0-2.500000000E+007.6141966108E+01+
*       -1.745197691E+02               0
GRID*             155134               0-2.500000000E+007.6142454276E+01+
*       -1.776667216E+02               0
GRID*             155135               0-2.500000000E+007.6178240176E+01+
*       -1.808131298E+02               0
GRID*             155136               0-2.500000000E+007.6246614533E+01+
*       -1.839503685E+02               0
GRID*             155137               0-2.500000000E+007.6341523405E+01+
*       -1.870730513E+02               0
GRID*             155138               0-2.500000000E+007.6457290945E+01+
*       -1.901791394E+02               0
GRID*             155139               0-2.500000000E+007.6589985265E+01+
*       -1.932682846E+02               0
GRID*             155140               0-2.500000000E+007.6737345018E+01+
*       -1.963400200E+02               0
GRID*             155141               0-2.500000000E+007.6898235010E+01+
*       -1.993923493E+02               0
GRID*             155142               0-2.500000000E+007.4044165474E+01+
*       -1.995251553E+02               0
GRID*             155143               0-2.500000000E+007.1177197462E+01+
*       -1.996800071E+02               0
GRID*             155144               0-2.500000000E+006.8297874809E+01+
*       -1.998604752E+02               0
GRID*             155145               0-2.500000000E+006.5407302268E+01+
*       -2.000664338E+02               0
GRID*             155146               0-2.500000000E+006.2507280472E+01+
*       -2.002936007E+02               0
GRID*             155147               0-2.500000000E+005.9600755756E+01+
*       -2.005340723E+02               0
GRID*             155148               0-2.500000000E+005.6692421712E+01+
*       -2.007787303E+02               0
GRID*             155149               0-2.500000000E+005.3788854704E+01+
*       -2.010208822E+02               0
GRID*             155150               0-2.500000000E+005.0898033319E+01+
*       -2.012576783E+02               0
GRID*             155151               0-2.500000000E+004.8028997163E+01+
*       -2.014890087E+02               0
GRID*             155152               0-2.500000000E+004.5191413075E+01+
*       -2.017146639E+02               0
GRID*             155153               0-2.500000000E+004.2394373829E+01+
*       -2.019310616E+02               0
GRID*             155154               0-2.500000000E+003.9644120342E+01+
*       -2.021299855E+02               0
GRID*             155155               0-2.500000000E+003.6942369436E+01+
*       -2.023012781E+02               0
GRID*             155156               0-2.500000000E+003.4286082391E+01+
*       -2.024347206E+02               0
GRID*             155157               0-2.500000000E+003.1668518453E+01+
*       -2.025220272E+02               0
GRID*             155158               0-2.500000000E+002.9081573488E+01+
*       -2.025600944E+02               0
GRID*             155159               0-2.500000000E+002.6519174897E+01+
*       -2.025530431E+02               0
GRID*             155160               0-2.500000000E+002.3978570033E+01+
*       -2.025078480E+02               0
GRID*             155161               0-2.500000000E+002.1458205904E+01+
*       -2.024320268E+02               0
GRID*             155162               0-2.500000000E+002.1662748195E+01+
*       -1.995245247E+02               0
GRID*             155163               0-2.500000000E+002.1863083474E+01+
*       -1.966282544E+02               0
GRID*             155164               0-2.500000000E+002.2077104387E+01+
*       -1.937427768E+02               0
GRID*             155165               0-2.500000000E+002.2323543467E+01+
*       -1.908528379E+02               0
GRID*             155166               0-2.500000000E+002.2611735451E+01+
*       -1.879248191E+02               0
GRID*             155167               0-2.500000000E+002.2917816941E+01+
*       -1.849190759E+02               0
GRID*             155168               0-2.500000000E+002.3173965813E+01+
*       -1.818333347E+02               0
GRID*             155169               0-2.500000000E+002.3376619221E+01+
*       -1.787065860E+02               0
GRID*             155170               0-2.500000000E+002.3531390653E+01+
*       -1.755609032E+02               0
GRID*             155171               0-2.500000000E+002.3639864928E+01+
*       -1.724109717E+02               0
GRID*             155172               0-2.500000000E+002.3713194600E+01+
*       -1.692691151E+02               0
GRID*             155173               0-2.500000000E+002.3764037629E+01+
*       -1.661405577E+02               0
GRID*             155174               0-2.500000000E+002.3802235522E+01+
*       -1.630251994E+02               0
GRID*             155175               0-2.500000000E+002.3834233527E+01+
*       -1.599202434E+02               0
GRID*             155176               0-2.500000000E+002.3863865223E+01+
*       -1.568218287E+02               0
GRID*             155177               0-2.500000000E+002.3893264994E+01+
*       -1.537257314E+02               0
GRID*             155178               0-2.500000000E+002.3923582517E+01+
*       -1.506274995E+02               0
GRID*             155179               0-2.500000000E+002.3955519129E+01+
*       -1.475222278E+02               0
GRID*             155180               0-2.500000000E+002.3989982425E+01+
*       -1.444042925E+02               0
GRID*             155181               0-2.500000000E+002.4029463212E+01+
*       -1.412678302E+02               0
GRID*             155182               0-2.500000000E+002.4080797384E+01+
*       -1.381094400E+02               0
GRID*             155183               0-2.500000000E+002.7118574469E+01+
*       -1.382863485E+02               0
GRID*             155184               0-2.500000000E+003.0139069117E+01+
*       -1.384570287E+02               0
GRID*             155185               0-2.500000000E+003.3147095540E+01+
*       -1.386159718E+02               0
GRID*             155186               0-2.500000000E+003.6146206435E+01+
*       -1.387628898E+02               0
GRID*             155187               0-2.500000000E+003.9138917024E+01+
*       -1.388995644E+02               0
GRID*             155188               0-2.500000000E+004.2127028744E+01+
*       -1.390286670E+02               0
GRID*             155189               0-2.500000000E+004.5111699937E+01+
*       -1.391532693E+02               0
GRID*             155190               0-2.500000000E+004.8093309323E+01+
*       -1.392765453E+02               0
GRID*             155191               0-2.500000000E+005.1071216091E+01+
*       -1.394014538E+02               0
GRID*             155192               0-2.500000000E+005.4043528363E+01+
*       -1.395302850E+02               0
GRID*             155193               0-2.500000000E+005.7007051557E+01+
*       -1.396640093E+02               0
GRID*             155194               0-2.500000000E+005.9957676511E+01+
*       -1.398015192E+02               0
GRID*             155195               0-2.500000000E+006.2891383607E+01+
*       -1.399392293E+02               0
GRID*             155196               0-2.500000000E+006.5805431266E+01+
*       -1.400719803E+02               0
GRID*             155197               0-2.500000000E+006.8698364005E+01+
*       -1.401958845E+02               0
GRID*             155198               0-2.500000000E+007.1568901875E+01+
*       -1.403104887E+02               0
GRID*             155199               0-2.500000000E+007.4415090734E+01+
*       -1.404191194E+02               0
GRID*             155200               0-2.500000000E+007.4236389689E+01+
*       -1.434715632E+02               0
GRID*             155201               0-2.500000000E+007.4074888365E+01+
*       -1.465325649E+02               0
GRID*             155202               0-2.500000000E+007.3927972540E+01+
*       -1.496000508E+02               0
GRID*             155203               0-2.500000000E+007.3793099640E+01+
*       -1.526734443E+02               0
GRID*             155204               0-2.500000000E+007.3668020315E+01+
*       -1.557533172E+02               0
GRID*             155205               0-2.500000000E+007.3550986824E+01+
*       -1.588412277E+02               0
GRID*             155206               0-2.500000000E+007.3441067301E+01+
*       -1.619396394E+02               0
GRID*             155207               0-2.500000000E+007.3338709626E+01+
*       -1.650518031E+02               0
GRID*             155208               0-2.500000000E+007.3246653265E+01+
*       -1.681814135E+02               0
GRID*             155209               0-2.500000000E+007.3171241779E+01+
*       -1.713317275E+02               0
GRID*             155210               0-2.500000000E+007.3123551361E+01+
*       -1.745033703E+02               0
GRID*             155211               0-2.500000000E+007.3118306961E+01+
*       -1.776901825E+02               0
GRID*             155212               0-2.500000000E+007.3165975156E+01+
*       -1.808764577E+02               0
GRID*             155213               0-2.500000000E+007.3258034066E+01+
*       -1.840458953E+02               0
GRID*             155214               0-2.500000000E+007.3381250946E+01+
*       -1.871908333E+02               0
GRID*             155215               0-2.500000000E+007.3525663078E+01+
*       -1.903102698E+02               0
GRID*             155216               0-2.500000000E+007.3685637082E+01+
*       -1.934055272E+02               0
GRID*             155217               0-2.500000000E+007.3858602009E+01+
*       -1.964772108E+02               0
GRID*             155218               0-2.500000000E+007.0968512837E+01+
*       -1.966354097E+02               0
GRID*             155219               0-2.500000000E+006.8069183562E+01+
*       -1.968181614E+02               0
GRID*             155220               0-2.500000000E+006.5163703273E+01+
*       -1.970259792E+02               0
GRID*             155221               0-2.500000000E+006.2256206780E+01+
*       -1.972557297E+02               0
GRID*             155222               0-2.500000000E+005.9351013379E+01+
*       -1.975006703E+02               0
GRID*             155223               0-2.500000000E+005.6451934677E+01+
*       -1.977524763E+02               0
GRID*             155224               0-2.500000000E+005.3562708138E+01+
*       -1.980051119E+02               0
GRID*             155225               0-2.500000000E+005.0688367345E+01+
*       -1.982570542E+02               0
GRID*             155226               0-2.500000000E+004.7836811195E+01+
*       -1.985105564E+02               0
GRID*             155227               0-2.500000000E+004.5019770356E+01+
*       -1.987678582E+02               0
GRID*             155228               0-2.500000000E+004.2250987399E+01+
*       -1.990247903E+02               0
GRID*             155229               0-2.500000000E+003.9540296578E+01+
*       -1.992664866E+02               0
GRID*             155230               0-2.500000000E+003.6890364429E+01+
*       -1.994761799E+02               0
GRID*             155231               0-2.500000000E+003.4296372619E+01+
*       -1.996364514E+02               0
GRID*             155232               0-2.500000000E+003.1745679162E+01+
*       -1.997307660E+02               0
GRID*             155233               0-2.500000000E+002.9219249094E+01+
*       -1.997517886E+02               0
GRID*             155234               0-2.500000000E+002.6700600715E+01+
*       -1.997127169E+02               0
GRID*             155235               0-2.500000000E+002.4182196341E+01+
*       -1.996303346E+02               0
GRID*             155236               0-2.500000000E+002.4382598134E+01+
*       -1.967844508E+02               0
GRID*             155237               0-2.500000000E+002.4607081123E+01+
*       -1.939679709E+02               0
GRID*             155238               0-2.500000000E+002.4890662532E+01+
*       -1.911631993E+02               0
GRID*             155239               0-2.500000000E+002.5268337448E+01+
*       -1.883140454E+02               0
GRID*             155240               0-2.500000000E+002.5720994464E+01+
*       -1.853250876E+02               0
GRID*             155241               0-2.500000000E+002.6049540955E+01+
*       -1.821819751E+02               0
GRID*             155242               0-2.500000000E+002.6297116438E+01+
*       -1.789990688E+02               0
GRID*             155243               0-2.500000000E+002.6487265258E+01+
*       -1.758016538E+02               0
GRID*             155244               0-2.500000000E+002.6608010149E+01+
*       -1.726042821E+02               0
GRID*             155245               0-2.500000000E+002.6681489448E+01+
*       -1.694276171E+02               0
GRID*             155246               0-2.500000000E+002.6729483587E+01+
*       -1.662762686E+02               0
GRID*             155247               0-2.500000000E+002.6766002607E+01+
*       -1.631465600E+02               0
GRID*             155248               0-2.500000000E+002.6798754219E+01+
*       -1.600325697E+02               0
GRID*             155249               0-2.500000000E+002.6831689900E+01+
*       -1.569285447E+02               0
GRID*             155250               0-2.500000000E+002.6866765978E+01+
*       -1.538294728E+02               0
GRID*             155251               0-2.500000000E+002.6905016825E+01+
*       -1.507310523E+02               0
GRID*             155252               0-2.500000000E+002.6947265536E+01+
*       -1.476295461E+02               0
GRID*             155253               0-2.500000000E+002.6994826347E+01+
*       -1.445219104E+02               0
GRID*             155254               0-2.500000000E+002.7050547645E+01+
*       -1.414068091E+02               0
GRID*             155255               0-2.500000000E+003.0060323552E+01+
*       -1.415507670E+02               0
GRID*             155256               0-2.500000000E+003.3060170788E+01+
*       -1.416925871E+02               0
GRID*             155257               0-2.500000000E+003.6051645214E+01+
*       -1.418292386E+02               0
GRID*             155258               0-2.500000000E+003.9036154699E+01+
*       -1.419603977E+02               0
GRID*             155259               0-2.500000000E+004.2014831525E+01+
*       -1.420872432E+02               0
GRID*             155260               0-2.500000000E+004.4988454780E+01+
*       -1.422117074E+02               0
GRID*             155261               0-2.500000000E+004.7957327541E+01+
*       -1.423359403E+02               0
GRID*             155262               0-2.500000000E+005.0921124201E+01+
*       -1.424618512E+02               0
GRID*             155263               0-2.500000000E+005.3878772009E+01+
*       -1.425906678E+02               0
GRID*             155264               0-2.500000000E+005.6828454097E+01+
*       -1.427225194E+02               0
GRID*             155265               0-2.500000000E+005.9767827052E+01+
*       -1.428561580E+02               0
GRID*             155266               0-2.500000000E+006.2694449826E+01+
*       -1.429890717E+02               0
GRID*             155267               0-2.500000000E+006.5606191752E+01+
*       -1.431182887E+02               0
GRID*             155268               0-2.500000000E+006.8501241924E+01+
*       -1.432418113E+02               0
GRID*             155269               0-2.500000000E+007.1377807681E+01+
*       -1.433597461E+02               0
GRID*             155270               0-2.500000000E+007.1205151592E+01+
*       -1.464177879E+02               0
GRID*             155271               0-2.500000000E+007.1046700939E+01+
*       -1.494835657E+02               0
GRID*             155272               0-2.500000000E+007.0899479659E+01+
*       -1.525562656E+02               0
GRID*             155273               0-2.500000000E+007.0760717112E+01+
*       -1.556363909E+02               0
GRID*             155274               0-2.500000000E+007.0627983104E+01+
*       -1.587256951E+02               0
GRID*             155275               0-2.500000000E+007.0499438552E+01+
*       -1.618272705E+02               0
GRID*             155276               0-2.500000000E+007.0374418984E+01+
*       -1.649458141E+02               0
GRID*             155277               0-2.500000000E+007.0254727431E+01+
*       -1.680879195E+02               0
GRID*             155278               0-2.500000000E+007.0147341097E+01+
*       -1.712615354E+02               0
GRID*             155279               0-2.500000000E+007.0068639786E+01+
*       -1.744727814E+02               0
GRID*             155280               0-2.500000000E+007.0048079208E+01+
*       -1.777157422E+02               0
GRID*             155281               0-2.500000000E+007.0115930057E+01+
*       -1.809581958E+02               0
GRID*             155282               0-2.500000000E+007.0244153777E+01+
*       -1.841672999E+02               0
GRID*             155283               0-2.500000000E+007.0404732861E+01+
*       -1.873350686E+02               0
GRID*             155284               0-2.500000000E+007.0582356134E+01+
*       -1.904655511E+02               0
GRID*             155285               0-2.500000000E+007.0770788642E+01+
*       -1.935644348E+02               0
GRID*             155286               0-2.500000000E+006.7848175481E+01+
*       -1.937493233E+02               0
GRID*             155287               0-2.500000000E+006.4923696945E+01+
*       -1.939627497E+02               0
GRID*             155288               0-2.500000000E+006.2004468615E+01+
*       -1.942025547E+02               0
GRID*             155289               0-2.500000000E+005.9096937053E+01+
*       -1.944610309E+02               0
GRID*             155290               0-2.500000000E+005.6203878209E+01+
*       -1.947267367E+02               0
GRID*             155291               0-2.500000000E+005.3324962735E+01+
*       -1.949921131E+02               0
GRID*             155292               0-2.500000000E+005.0460367560E+01+
*       -1.952575198E+02               0
GRID*             155293               0-2.500000000E+004.7615288065E+01+
*       -1.955310231E+02               0
GRID*             155294               0-2.500000000E+004.4804840871E+01+
*       -1.958238942E+02               0
GRID*             155295               0-2.500000000E+004.2053201664E+01+
*       -1.961367584E+02               0
GRID*             155296               0-2.500000000E+003.9376750172E+01+
*       -1.964393944E+02               0
GRID*             155297               0-2.500000000E+003.6779832489E+01+
*       -1.967073444E+02               0
GRID*             155298               0-2.500000000E+003.4257833177E+01+
*       -1.969144013E+02               0
GRID*             155299               0-2.500000000E+003.1792421173E+01+
*       -1.970261136E+02               0
GRID*             155300               0-2.500000000E+002.9344066763E+01+
*       -1.970153444E+02               0
GRID*             155301               0-2.500000000E+002.6877014165E+01+
*       -1.969217328E+02               0
GRID*             155302               0-2.500000000E+002.7082247546E+01+
*       -1.941933020E+02               0
GRID*             155303               0-2.500000000E+002.7373223599E+01+
*       -1.915194089E+02               0
GRID*             155304               0-2.500000000E+002.7848105400E+01+
*       -1.888260157E+02               0
GRID*             155305               0-2.500000000E+002.8611780533E+01+
*       -1.858779568E+02               0
GRID*             155306               0-2.500000000E+002.8978720673E+01+
*       -1.825744241E+02               0
GRID*             155307               0-2.500000000E+002.9252183100E+01+
*       -1.793080280E+02               0
GRID*             155308               0-2.500000000E+002.9492033504E+01+
*       -1.760439018E+02               0
GRID*             155309               0-2.500000000E+002.9609795699E+01+
*       -1.727798866E+02               0
GRID*             155310               0-2.500000000E+002.9666809599E+01+
*       -1.695638313E+02               0
GRID*             155311               0-2.500000000E+002.9701145635E+01+
*       -1.663931538E+02               0
GRID*             155312               0-2.500000000E+002.9730136332E+01+
*       -1.632548696E+02               0
GRID*             155313               0-2.500000000E+002.9760783754E+01+
*       -1.601374934E+02               0
GRID*             155314               0-2.500000000E+002.9795765095E+01+
*       -1.570327577E+02               0
GRID*             155315               0-2.500000000E+002.9836013367E+01+
*       -1.539348692E+02               0
GRID*             155316               0-2.500000000E+002.9881891112E+01+
*       -1.508397582E+02               0
GRID*             155317               0-2.500000000E+002.9933826337E+01+
*       -1.477446800E+02               0
GRID*             155318               0-2.500000000E+002.9992827218E+01+
*       -1.446483000E+02               0
GRID*             155319               0-2.500000000E+003.2982832224E+01+
*       -1.447762626E+02               0
GRID*             155320               0-2.500000000E+003.5965107719E+01+
*       -1.449029852E+02               0
GRID*             155321               0-2.500000000E+003.8940135005E+01+
*       -1.450273939E+02               0
GRID*             155322               0-2.500000000E+004.1908470129E+01+
*       -1.451499715E+02               0
GRID*             155323               0-2.500000000E+004.4870647276E+01+
*       -1.452720500E+02               0
GRID*             155324               0-2.500000000E+004.7827066944E+01+
*       -1.453952058E+02               0
GRID*             155325               0-2.500000000E+005.0777860495E+01+
*       -1.455207464E+02               0
GRID*             155326               0-2.500000000E+005.3722763239E+01+
*       -1.456492960E+02               0
GRID*             155327               0-2.500000000E+005.6661045549E+01+
*       -1.457805184E+02               0
GRID*             155328               0-2.500000000E+005.9591543976E+01+
*       -1.459130676E+02               0
GRID*             155329               0-2.500000000E+006.2512784507E+01+
*       -1.460448747E+02               0
GRID*             155330               0-2.500000000E+006.5423116743E+01+
*       -1.461738174E+02               0
GRID*             155331               0-2.500000000E+006.8320778171E+01+
*       -1.462985741E+02               0
GRID*             155332               0-2.500000000E+006.8154436096E+01+
*       -1.493623942E+02               0
GRID*             155333               0-2.500000000E+006.7998213196E+01+
*       -1.524331000E+02               0
GRID*             155334               0-2.500000000E+006.7848711578E+01+
*       -1.555110877E+02               0
GRID*             155335               0-2.500000000E+006.7702612264E+01+
*       -1.585981217E+02               0
GRID*             155336               0-2.500000000E+006.7556624097E+01+
*       -1.616976400E+02               0
GRID*             155337               0-2.500000000E+006.7407732353E+01+
*       -1.648157356E+02               0
GRID*             155338               0-2.500000000E+006.7254246198E+01+
*       -1.679628837E+02               0
GRID*             155339               0-2.500000000E+006.7099779668E+01+
*       -1.711551352E+02               0
GRID*             155340               0-2.500000000E+006.6962568617E+01+
*       -1.744132829E+02               0
GRID*             155341               0-2.500000000E+006.6898256487E+01+
*       -1.777440399E+02               0
GRID*             155342               0-2.500000000E+006.7013099281E+01+
*       -1.810740102E+02               0
GRID*             155343               0-2.500000000E+006.7203550488E+01+
*       -1.843301346E+02               0
GRID*             155344               0-2.500000000E+006.7415292152E+01+
*       -1.875164781E+02               0
GRID*             155345               0-2.500000000E+006.7631173923E+01+
*       -1.906516794E+02               0
GRID*             155346               0-2.500000000E+006.4680158071E+01+
*       -1.908733753E+02               0
GRID*             155347               0-2.500000000E+006.1742468631E+01+
*       -1.911317264E+02               0
GRID*             155348               0-2.500000000E+005.8830206808E+01+
*       -1.914161887E+02               0
GRID*             155349               0-2.500000000E+005.5944875464E+01+
*       -1.917043456E+02               0
GRID*             155350               0-2.500000000E+005.3078223826E+01+
*       -1.919830185E+02               0
GRID*             155351               0-2.500000000E+005.0220279391E+01+
*       -1.922543793E+02               0
GRID*             155352               0-2.500000000E+004.7367362055E+01+
*       -1.925362293E+02               0
GRID*             155353               0-2.500000000E+004.4537350675E+01+
*       -1.928633001E+02               0
GRID*             155354               0-2.500000000E+004.1783244836E+01+
*       -1.932651434E+02               0
GRID*             155355               0-2.500000000E+003.9132062747E+01+
*       -1.936566843E+02               0
GRID*             155356               0-2.500000000E+003.6587322931E+01+
*       -1.940133894E+02               0
GRID*             155357               0-2.500000000E+003.4152188906E+01+
*       -1.943081122E+02               0
GRID*             155358               0-2.500000000E+003.1813471212E+01+
*       -1.944720951E+02               0
GRID*             155359               0-2.500000000E+002.9483818085E+01+
*       -1.943881721E+02               0
GRID*             155360               0-2.500000000E+002.9704091423E+01+
*       -1.919036766E+02               0
GRID*             155361               0-2.500000000E+003.0186666034E+01+
*       -1.895397000E+02               0
GRID*             155362               0-2.500000000E+003.1856452279E+01+
*       -1.868038381E+02               0
GRID*             155363               0-2.500000000E+003.1975054048E+01+
*       -1.829505925E+02               0
GRID*             155364               0-2.500000000E+003.2220189263E+01+
*       -1.796155496E+02               0
GRID*             155365               0-2.500000000E+003.2591595280E+01+
*       -1.762842356E+02               0
GRID*             155366               0-2.500000000E+003.2657386162E+01+
*       -1.729111647E+02               0
GRID*             155367               0-2.500000000E+003.2666822963E+01+
*       -1.696573582E+02               0
GRID*             155368               0-2.500000000E+003.2673694417E+01+
*       -1.664794301E+02               0
GRID*             155369               0-2.500000000E+003.2689952058E+01+
*       -1.633437811E+02               0
GRID*             155370               0-2.500000000E+003.2716833036E+01+
*       -1.602313303E+02               0
GRID*             155371               0-2.500000000E+003.2753562179E+01+
*       -1.571317777E+02               0
GRID*             155372               0-2.500000000E+003.2799091514E+01+
*       -1.540392114E+02               0
GRID*             155373               0-2.500000000E+003.2852629049E+01+
*       -1.509501566E+02               0
GRID*             155374               0-2.500000000E+003.2913864109E+01+
*       -1.478627930E+02               0
GRID*             155375               0-2.500000000E+003.5886518251E+01+
*       -1.479806514E+02               0
GRID*             155376               0-2.500000000E+003.8851517233E+01+
*       -1.480978087E+02               0
GRID*             155377               0-2.500000000E+004.1808976575E+01+
*       -1.482147669E+02               0
GRID*             155378               0-2.500000000E+004.4759318446E+01+
*       -1.483328434E+02               0
GRID*             155379               0-2.500000000E+004.7703190222E+01+
*       -1.484535346E+02               0
GRID*             155380               0-2.500000000E+005.0641307653E+01+
*       -1.485779602E+02               0
GRID*             155381               0-2.500000000E+005.3574260149E+01+
*       -1.487064483E+02               0
GRID*             155382               0-2.500000000E+005.6502320433E+01+
*       -1.488383282E+02               0
GRID*             155383               0-2.500000000E+005.9425297906E+01+
*       -1.489719932E+02               0
GRID*             155384               0-2.500000000E+006.2342463179E+01+
*       -1.491052797E+02               0
GRID*             155385               0-2.500000000E+006.5252551941E+01+
*       -1.492361252E+02               0
GRID*             155386               0-2.500000000E+006.4038551710E+01+
*       -1.709875471E+02               0
GRID*             155387               0-2.500000000E+006.1004628185E+01+
*       -1.707217154E+02               0
GRID*             155388               0-2.500000000E+005.8087612551E+01+
*       -1.703410886E+02               0
GRID*             155389               0-2.500000000E+005.5283173264E+01+
*       -1.700162777E+02               0
GRID*             155390               0-2.500000000E+005.2532870919E+01+
*       -1.697821895E+02               0
GRID*             155391               0-2.500000000E+004.9795997195E+01+
*       -1.696291723E+02               0
GRID*             155392               0-2.500000000E+004.7050821079E+01+
*       -1.695431682E+02               0
GRID*             155393               0-2.500000000E+004.4283144313E+01+
*       -1.695147730E+02               0
GRID*             155394               0-2.500000000E+004.1476946881E+01+
*       -1.695397004E+02               0
GRID*             155395               0-2.500000000E+003.8610094978E+01+
*       -1.696078729E+02               0
GRID*             155396               0-2.500000000E+003.5664376298E+01+
*       -1.696795746E+02               0
GRID*             155397               0-2.500000000E+006.4257125452E+01+
*       -1.677943069E+02               0
GRID*             155398               0-2.500000000E+006.1287162546E+01+
*       -1.675736271E+02               0
GRID*             155399               0-2.500000000E+005.8375042883E+01+
*       -1.673120317E+02               0
GRID*             155400               0-2.500000000E+005.5523051037E+01+
*       -1.670661092E+02               0
GRID*             155401               0-2.500000000E+005.2709584037E+01+
*       -1.668653441E+02               0
GRID*             155402               0-2.500000000E+004.9911570553E+01+
*       -1.667163358E+02               0
GRID*             155403               0-2.500000000E+004.7111295452E+01+
*       -1.666160702E+02               0
GRID*             155404               0-2.500000000E+004.4294880796E+01+
*       -1.665584494E+02               0
GRID*             155405               0-2.500000000E+004.1449666765E+01+
*       -1.665353476E+02               0
GRID*             155406               0-2.500000000E+003.8564269913E+01+
*       -1.665326920E+02               0
GRID*             155407               0-2.500000000E+003.5634309400E+01+
*       -1.665248120E+02               0
GRID*             155408               0-2.500000000E+003.5637576432E+01+
*       -1.634101417E+02               0
GRID*             155409               0-2.500000000E+003.5662104787E+01+
*       -1.603130724E+02               0
GRID*             155410               0-2.500000000E+003.5702083303E+01+
*       -1.572248973E+02               0
GRID*             155411               0-2.500000000E+003.5754052291E+01+
*       -1.541413611E+02               0
GRID*             155412               0-2.500000000E+003.5815940995E+01+
*       -1.510603487E+02               0
GRID*             155413               0-2.500000000E+003.8770935016E+01+
*       -1.511697582E+02               0
GRID*             155414               0-2.500000000E+004.1717213118E+01+
*       -1.512798146E+02               0
GRID*             155415               0-2.500000000E+004.4655190651E+01+
*       -1.513924070E+02               0
GRID*             155416               0-2.500000000E+004.7585921267E+01+
*       -1.515094681E+02               0
GRID*             155417               0-2.500000000E+005.0510881866E+01+
*       -1.516323313E+02               0
GRID*             155418               0-2.500000000E+005.3431674946E+01+
*       -1.517612703E+02               0
GRID*             155419               0-2.500000000E+005.6349685282E+01+
*       -1.518952981E+02               0
GRID*             155420               0-2.500000000E+005.9265737132E+01+
*       -1.520322811E+02               0
GRID*             155421               0-2.500000000E+006.2179826805E+01+
*       -1.521694008E+02               0
GRID*             155422               0-2.500000000E+006.5091083025E+01+
*       -1.523038577E+02               0
GRID*             155423               0-2.500000000E+006.4934542358E+01+
*       -1.553773985E+02               0
GRID*             155424               0-2.500000000E+006.4778733877E+01+
*       -1.584581916E+02               0
GRID*             155425               0-2.500000000E+006.4618599156E+01+
*       -1.615492025E+02               0
GRID*             155426               0-2.500000000E+006.4447687712E+01+
*       -1.646566817E+02               0
GRID*             155427               0-2.500000000E+006.1506423090E+01+
*       -1.644696402E+02               0
GRID*             155428               0-2.500000000E+005.8596868371E+01+
*       -1.642648778E+02               0
GRID*             155429               0-2.500000000E+005.5720708713E+01+
*       -1.640662783E+02               0
GRID*             155430               0-2.500000000E+005.2868898285E+01+
*       -1.638918775E+02               0
GRID*             155431               0-2.500000000E+005.0028643725E+01+
*       -1.637497454E+02               0
GRID*             155432               0-2.500000000E+004.7187705555E+01+
*       -1.636407340E+02               0
GRID*             155433               0-2.500000000E+004.4335446936E+01+
*       -1.635612223E+02               0
GRID*             155434               0-2.500000000E+004.1462888101E+01+
*       -1.635041419E+02               0
GRID*             155435               0-2.500000000E+003.8563644591E+01+
*       -1.634584790E+02               0
GRID*             155436               0-2.500000000E+003.8591723778E+01+
*       -1.603860751E+02               0
GRID*             155437               0-2.500000000E+003.8638616094E+01+
*       -1.573140689E+02               0
GRID*             155438               0-2.500000000E+003.8699326858E+01+
*       -1.542420699E+02               0
GRID*             155439               0-2.500000000E+004.1634240353E+01+
*       -1.543434113E+02               0
GRID*             155440               0-2.500000000E+004.4559025478E+01+
*       -1.544486409E+02               0
GRID*             155441               0-2.500000000E+004.7475344085E+01+
*       -1.545607074E+02               0
GRID*             155442               0-2.500000000E+005.0385700834E+01+
*       -1.546815957E+02               0
GRID*             155443               0-2.500000000E+005.3293023493E+01+
*       -1.548117703E+02               0
GRID*             155444               0-2.500000000E+005.6200134634E+01+
*       -1.549499096E+02               0
GRID*             155445               0-2.500000000E+005.9109147833E+01+
*       -1.550930028E+02               0
GRID*             155446               0-2.500000000E+006.2020854942E+01+
*       -1.552369435E+02               0
GRID*             155447               0-2.500000000E+006.1860499411E+01+
*       -1.583080716E+02               0
GRID*             155448               0-2.500000000E+006.1692417163E+01+
*       -1.613842039E+02               0
GRID*             155449               0-2.500000000E+005.8783269976E+01+
*       -1.612105874E+02               0
GRID*             155450               0-2.500000000E+005.5892469645E+01+
*       -1.610402088E+02               0
GRID*             155451               0-2.500000000E+005.3015806349E+01+
*       -1.608837123E+02               0
GRID*             155452               0-2.500000000E+005.0146082151E+01+
*       -1.607473392E+02               0
GRID*             155453               0-2.500000000E+004.7275392263E+01+
*       -1.606327957E+02               0
GRID*             155454               0-2.500000000E+004.4396372009E+01+
*       -1.605380854E+02               0
GRID*             155455               0-2.500000000E+004.1502890697E+01+
*       -1.604582185E+02               0
GRID*             155456               0-2.500000000E+004.1561723973E+01+
*       -1.574036542E+02               0
GRID*             155457               0-2.500000000E+004.4471966945E+01+
*       -1.574986413E+02               0
GRID*             155458               0-2.500000000E+004.7371630009E+01+
*       -1.576037089E+02               0
GRID*             155459               0-2.500000000E+005.0264626923E+01+
*       -1.577220073E+02               0
GRID*             155460               0-2.500000000E+005.3155721606E+01+
*       -1.578545094E+02               0
GRID*             155461               0-2.500000000E+005.6049791107E+01+
*       -1.579995825E+02               0
GRID*             155462               0-2.500000000E+005.8950906412E+01+
*       -1.581528646E+02               0
GRID*             155463               0-2.500000000E+004.7012138818E+01+
*       -1.724023237E+02               0
GRID*             155464               0-2.500000000E+004.7001906105E+01+
*       -1.751822531E+02               0
GRID*             155465               0-2.500000000E+004.7017593005E+01+
*       -1.778958674E+02               0
GRID*             155466               0-2.500000000E+004.7033334721E+01+
*       -1.806059932E+02               0
GRID*             155467               0-2.500000000E+004.7003039997E+01+
*       -1.834046557E+02               0
GRID*             155468               0-2.500000000E+004.6904939182E+01+
*       -1.864014229E+02               0
GRID*             155469               0-2.500000000E+004.7108938622E+01+
*       -1.895008311E+02               0
GRID*             155470               0-2.500000000E+003.4879939468E+01+
*       -1.829756577E+02               0
GRID*             155471               0-2.500000000E+003.7475263474E+01+
*       -1.829950810E+02               0
GRID*             155472               0-2.500000000E+003.9860307868E+01+
*       -1.829254795E+02               0
GRID*             155473               0-2.500000000E+004.2108537016E+01+
*       -1.829099766E+02               0
GRID*             155474               0-2.500000000E+004.4374508602E+01+
*       -1.833075810E+02               0
GRID*             155475               0-2.500000000E+004.4199251804E+01+
*       -1.898252951E+02               0
GRID*             155476               0-2.500000000E+004.3730985768E+01+
*       -1.864669390E+02               0
GRID*             155477               0-2.500000000E+003.8775947052E+01+
*       -1.909222503E+02               0
GRID*             155478               0-2.500000000E+003.8287781268E+01+
*       -1.882442617E+02               0
GRID*             155479               0-2.500000000E+003.7725449401E+01+
*       -1.856489249E+02               0
GRID*             155480               0-2.500000000E+004.1411285144E+01+
*       -1.904113624E+02               0
GRID*             155481               0-2.500000000E+004.0882047140E+01+
*       -1.876244143E+02               0
GRID*             155482               0-2.500000000E+004.2073349946E+01+
*       -1.849859003E+02               0
GRID*             155483               0-2.500000000E+004.0107965284E+01+
*       -1.853112881E+02               0
GRID*             155484               0-2.500000000E+003.5058003391E+01+
*       -1.860482656E+02               0
GRID*             155485               0-2.500000000E+003.6272182374E+01+
*       -1.913986631E+02               0
GRID*             155486               0-2.500000000E+003.5770599202E+01+
*       -1.888117222E+02               0
GRID*             155487               0-2.500000000E+003.1811515450E+01+
*       -1.904952976E+02               0
GRID*             155488               0-2.500000000E+003.3446342662E+01+
*       -1.895319473E+02               0
GRID*             155489               0-2.500000000E+003.3932714453E+01+
*       -1.918579093E+02               0
GRID*             155490               0-2.500000000E+003.1817082457E+01+
*       -1.922006548E+02               0
GRID*             155491               0-2.500000000E+003.5077035572E+01+
*       -1.799157036E+02               0
GRID*             155492               0-2.500000000E+003.5964599315E+01+
*       -1.765589753E+02               0
GRID*             155493               0-2.500000000E+003.5748463908E+01+
*       -1.729355322E+02               0
GRID*             155494               0-2.500000000E+003.8734008266E+01+
*       -1.726673253E+02               0
GRID*             155495               0-2.500000000E+004.1563698546E+01+
*       -1.724861044E+02               0
GRID*             155496               0-2.500000000E+004.4309111086E+01+
*       -1.724049032E+02               0
GRID*             155497               0-2.500000000E+004.4380832828E+01+
*       -1.752060087E+02               0
GRID*             155498               0-2.500000000E+004.4474307208E+01+
*       -1.779040628E+02               0
GRID*             155499               0-2.500000000E+004.4500180237E+01+
*       -1.805691170E+02               0
GRID*             155500               0-2.500000000E+004.2094466659E+01+
*       -1.804720092E+02               0
GRID*             155501               0-2.500000000E+003.9761604077E+01+
*       -1.804682174E+02               0
GRID*             155502               0-2.500000000E+003.7463043815E+01+
*       -1.804217184E+02               0
GRID*             155503               0-2.500000000E+003.7595660871E+01+
*       -1.782398647E+02               0
GRID*             155504               0-2.500000000E+003.9625619776E+01+
*       -1.780598315E+02               0
GRID*             155505               0-2.500000000E+004.1990586169E+01+
*       -1.779397356E+02               0
GRID*             155506               0-2.500000000E+004.1738724016E+01+
*       -1.753183094E+02               0
GRID*             155507               0-2.500000000E+003.9019965769E+01+
*       -1.756297721E+02               0
GRID*             155508               0-2.500000000E+004.9686657433E+01+
*       -1.724658971E+02               0
GRID*             155509               0-2.500000000E+005.2337755018E+01+
*       -1.726086446E+02               0
GRID*             155510               0-2.500000000E+005.4980263929E+01+
*       -1.728664235E+02               0
GRID*             155511               0-2.500000000E+005.7674249517E+01+
*       -1.733083239E+02               0
GRID*             155512               0-2.500000000E+006.0585812433E+01+
*       -1.740001326E+02               0
GRID*             155513               0-2.500000000E+006.3791042209E+01+
*       -1.742884024E+02               0
GRID*             155514               0-2.500000000E+006.3580092353E+01+
*       -1.777761345E+02               0
GRID*             155515               0-2.500000000E+006.3843236911E+01+
*       -1.812611744E+02               0
GRID*             155516               0-2.500000000E+006.4146053873E+01+
*       -1.845600380E+02               0
GRID*             155517               0-2.500000000E+006.4424437272E+01+
*       -1.877475833E+02               0
GRID*             155518               0-2.500000000E+006.1455132713E+01+
*       -1.880360929E+02               0
GRID*             155519               0-2.500000000E+005.8537366962E+01+
*       -1.883711588E+02               0
GRID*             155520               0-2.500000000E+005.5670599192E+01+
*       -1.886966923E+02               0
GRID*             155521               0-2.500000000E+005.2829826940E+01+
*       -1.889877361E+02               0
GRID*             155522               0-2.500000000E+004.9985953991E+01+
*       -1.892476696E+02               0
GRID*             155523               0-2.500000000E+004.9792047230E+01+
*       -1.862534480E+02               0
GRID*             155524               0-2.500000000E+004.9695154231E+01+
*       -1.833446322E+02               0
GRID*             155525               0-2.500000000E+004.9613896508E+01+
*       -1.805693927E+02               0
GRID*             155526               0-2.500000000E+004.9563921660E+01+
*       -1.778889172E+02               0
GRID*             155527               0-2.500000000E+004.9598903346E+01+
*       -1.752133118E+02               0
GRID*             155528               0-2.500000000E+005.2145542202E+01+
*       -1.753083317E+02               0
GRID*             155529               0-2.500000000E+005.4614288260E+01+
*       -1.755214261E+02               0
GRID*             155530               0-2.500000000E+005.7029698103E+01+
*       -1.760325703E+02               0
GRID*             155531               0-2.500000000E+005.9764225862E+01+
*       -1.778151080E+02               0
GRID*             155532               0-2.500000000E+006.0639300413E+01+
*       -1.816171385E+02               0
GRID*             155533               0-2.500000000E+006.1112111413E+01+
*       -1.848926013E+02               0
GRID*             155534               0-2.500000000E+005.8190720858E+01+
*       -1.853403471E+02               0
GRID*             155535               0-2.500000000E+005.5371704126E+01+
*       -1.857313717E+02               0
GRID*             155536               0-2.500000000E+005.2591334218E+01+
*       -1.860331451E+02               0
GRID*             155537               0-2.500000000E+005.2371293664E+01+
*       -1.831695343E+02               0
GRID*             155538               0-2.500000000E+005.2163846507E+01+
*       -1.804503400E+02               0
GRID*             155539               0-2.500000000E+005.2032348453E+01+
*       -1.778771281E+02               0
GRID*             155540               0-2.500000000E+005.4637990852E+01+
*       -1.802025873E+02               0
GRID*             155541               0-2.500000000E+005.5030507340E+01+
*       -1.828658865E+02               0
GRID*             155542               0-2.500000000E+005.7731591204E+01+
*       -1.823719029E+02               0
GRID*             155543               0-2.500000000E+005.7052414508E+01+
*       -1.796526983E+02               0
GRID*             155544               0-2.500000000E+005.6054094907E+01+
*       -1.778501055E+02               0
GRID*             155545               0-2.500000000E+005.4290769036E+01+
*       -1.778626217E+02               0
GRID*             155546               0-2.500000000E+008.6029698887E+01+
*       -2.130185176E+02               0
GRID*             155547               0-2.500000000E+008.7494409667E+01+
*       -2.129737581E+02               0
GRID*             155548               0-2.500000000E+008.4525284725E+01+
*       -2.130767552E+02               0
GRID*             155549               0-2.500000000E+005.1875895133E+01+
*       -1.208957719E+02               0
GRID*             155550               0-2.500000000E+005.5040957224E+01+
*       -1.208473794E+02               0
GRID*             155551               0-2.500000000E+005.8393159188E+01+
*       -1.207688549E+02               0
GRID*             155552               0-2.500000000E+006.2310565121E+01+
*       -1.206363355E+02               0
GRID*             155553               0-2.500000000E+006.5083433362E+01+
*       -1.187564225E+02               0
GRID*             155554               0-2.500000000E+006.7514192156E+01+
*       -1.181555664E+02               0
GRID*             155555               0-2.500000000E+007.0040578743E+01+
*       -1.178185123E+02               0
GRID*             155556               0-2.500000000E+007.2677500475E+01+
*       -1.175561713E+02               0
GRID*             155557               0-2.500000000E+007.5372390525E+01+
*       -1.172996571E+02               0
GRID*             155558               0-2.500000000E+007.8041286073E+01+
*       -1.170204579E+02               0
GRID*             155559               0-2.500000000E+008.0537709899E+01+
*       -1.167420329E+02               0
GRID*             155560               0-2.500000000E+008.0855594851E+01+
*       -1.188515026E+02               0
GRID*             155561               0-2.500000000E+008.1373085395E+01+
*       -1.206733135E+02               0
GRID*             155562               0-2.500000000E+008.2149333098E+01+
*       -1.218938472E+02               0
GRID*             155563               0-2.500000000E+008.1410527035E+01+
*       -1.233355412E+02               0
GRID*             155564               0-2.500000000E+007.9102566830E+01+
*       -1.223210383E+02               0
GRID*             155565               0-2.500000000E+007.5775446091E+01+
*       -1.226563613E+02               0
GRID*             155566               0-2.500000000E+007.2886106061E+01+
*       -1.228087214E+02               0
GRID*             155567               0-2.500000000E+007.0177670129E+01+
*       -1.228452336E+02               0
GRID*             155568               0-2.500000000E+006.7615177344E+01+
*       -1.227309942E+02               0
GRID*             155569               0-2.500000000E+006.5146880910E+01+
*       -1.222960195E+02               0
GRID*             155570               0-2.500000000E+007.8402721137E+01+
*       -1.195251613E+02               0
GRID*             155571               0-2.500000000E+007.0247576940E+01+
*       -1.203131378E+02               0
GRID*             155572               0-2.500000000E+006.7904990789E+01+
*       -1.204235678E+02               0
GRID*             155573               0-2.500000000E+006.6122365069E+01+
*       -1.204867937E+02               0
GRID*             155574               0-2.500000000E+007.2856710706E+01+
*       -1.201508144E+02               0
GRID*             155575               0-2.500000000E+007.5604715886E+01+
*       -1.199108971E+02               0
GRID*             155576               0-2.500000000E+003.0898824024E+01+
*       -1.205840191E+02               0
GRID*             155577               0-2.500000000E+001.8020066444E+01+
*       -1.200181918E+02               0
GRID*             155578               0-2.500000000E+002.1248030623E+01+
*       -1.201173682E+02               0
GRID*             155579               0-2.500000000E+002.4797091771E+01+
*       -1.202836575E+02               0
GRID*             155580               0-2.500000000E+002.7902120079E+01+
*       -1.204440273E+02               0
GRID*             155581               0-2.500000000E+001.8753671042E+01+
*       -1.213357922E+02               0
GRID*             155582               0-2.500000000E+001.8908482769E+01+
*       -1.187270328E+02               0
GRID*             155583               0-2.500000000E+003.3872334959E+01+
*       -1.206993972E+02               0
GRID*             155584               0-2.500000000E+003.6835890096E+01+
*       -1.207902568E+02               0
GRID*             155585               0-2.500000000E+003.9801298557E+01+
*       -1.208571371E+02               0
GRID*             155586               0-2.500000000E+004.2777207911E+01+
*       -1.209007880E+02               0
GRID*             155587               0-2.500000000E+004.5772585265E+01+
*       -1.209218228E+02               0
GRID*             155588               0-2.500000000E+004.8799245904E+01+
*       -1.209205440E+02               0
GRID*             155589               0-2.500000000E+008.5853782899E+01+
*       -1.112555561E+02               0
GRID*             155590               0-2.500000000E+008.3270245256E+01+
*       -1.118938167E+02               0
GRID*             155591               0-2.500000000E+008.0368525308E+01+
*       -1.117426636E+02               0
GRID*             155592               0-2.500000000E+007.7618239470E+01+
*       -1.118150548E+02               0
GRID*             155593               0-2.500000000E+007.4875228873E+01+
*       -1.119940833E+02               0
GRID*             155594               0-2.500000000E+007.2123133323E+01+
*       -1.122407271E+02               0
GRID*             155595               0-2.500000000E+006.9367987076E+01+
*       -1.125494927E+02               0
GRID*             155596               0-2.500000000E+006.6604312986E+01+
*       -1.129326789E+02               0
GRID*             155597               0-2.500000000E+006.3796210060E+01+
*       -1.134042296E+02               0
GRID*             155598               0-2.500000000E+006.0876059811E+01+
*       -1.139329599E+02               0
GRID*             155599               0-2.500000000E+005.7836670660E+01+
*       -1.143259875E+02               0
GRID*             155600               0-2.500000000E+005.4785352275E+01+
*       -1.145957991E+02               0
GRID*             155601               0-2.500000000E+005.1763948589E+01+
*       -1.147787110E+02               0
GRID*             155602               0-2.500000000E+004.8778557324E+01+
*       -1.149004163E+02               0
GRID*             155603               0-2.500000000E+004.5824419468E+01+
*       -1.149762085E+02               0
GRID*             155604               0-2.500000000E+004.2895108936E+01+
*       -1.150152717E+02               0
GRID*             155605               0-2.500000000E+003.9984892919E+01+
*       -1.150232458E+02               0
GRID*             155606               0-2.500000000E+003.7088959556E+01+
*       -1.150036560E+02               0
GRID*             155607               0-2.500000000E+003.4203509949E+01+
*       -1.149584982E+02               0
GRID*             155608               0-2.500000000E+003.1327074008E+01+
*       -1.148879338E+02               0
GRID*             155609               0-2.500000000E+002.8463935829E+01+
*       -1.147890763E+02               0
GRID*             155610               0-2.500000000E+002.5629296197E+01+
*       -1.146542954E+02               0
GRID*             155611               0-2.500000000E+002.2865261973E+01+
*       -1.144706085E+02               0
GRID*             155612               0-2.500000000E+002.0281418877E+01+
*       -1.142251089E+02               0
GRID*             155613               0-2.500000000E+001.3193572951E+01+
*       -1.731234196E+01               0
GRID*             155614               0-2.500000000E+001.6084050078E+01+
*       -1.478874998E+01               0
GRID*             155615               0-2.500000000E+001.8066212770E+01+
*       -1.653305676E+01               0
GRID*             155616               0-2.500000000E+001.8284327911E+01+
*       -1.478189762E+01               0
GRID*             155617               0-2.500000000E+001.9560890541E+01+
*       -1.662428018E+01               0
GRID*             155618               0-2.500000000E+001.6369993206E+01+
*       -1.656296794E+01               0
GRID*             155619               0-2.500000000E+001.4685385328E+01+
*       -1.679409453E+01               0
GRID*             155620               0-2.500000000E+007.4655201035E+01+
*       -2.761316598E+01               0
GRID*             155621               0-2.500000000E+007.1915976875E+01+
*       -2.768242068E+01               0
GRID*             155622               0-2.500000000E+006.9026147274E+01+
*       -2.778962380E+01               0
GRID*             155623               0-2.500000000E+006.6085968122E+01+
*       -2.791273363E+01               0
GRID*             155624               0-2.500000000E+006.3113747344E+01+
*       -2.803027687E+01               0
GRID*             155625               0-2.500000000E+006.0116400974E+01+
*       -2.813111024E+01               0
GRID*             155626               0-2.500000000E+005.7097801851E+01+
*       -2.821023730E+01               0
GRID*             155627               0-2.500000000E+005.4060160566E+01+
*       -2.826594403E+01               0
GRID*             155628               0-2.500000000E+005.1004393847E+01+
*       -2.829830871E+01               0
GRID*             155629               0-2.500000000E+004.7930294874E+01+
*       -2.830838192E+01               0
GRID*             155630               0-2.500000000E+004.4836220721E+01+
*       -2.829514159E+01               0
GRID*             155631               0-2.500000000E+004.1718760470E+01+
*       -2.825705396E+01               0
GRID*             155632               0-2.500000000E+003.8570939609E+01+
*       -2.819235247E+01               0
GRID*             155633               0-2.500000000E+003.5380066121E+01+
*       -2.809933163E+01               0
GRID*             155634               0-2.500000000E+003.2130341870E+01+
*       -2.797720117E+01               0
GRID*             155635               0-2.500000000E+002.8826906145E+01+
*       -2.783025836E+01               0
GRID*             155636               0-2.500000000E+002.5670680081E+01+
*       -2.770275960E+01               0
GRID*             155637               0-2.500000000E+002.3342781652E+01+
*       -1.535268611E+01               0
GRID*             155638               0-2.500000000E+007.7012033513E+01+
*       -1.643341811E+01               0
GRID*             155639               0-2.500000000E+007.6462123598E+01+
*       -1.460282203E+01               0
GRID*             155640               0-2.500000000E+007.8934682582E+01+
*       -1.645624223E+01               0
GRID*             155641               0-2.500000000E+007.9066527792E+01+
*       -1.455832187E+01               0
GRID*             155642               0-2.500000000E+008.0727028085E+01+
*       -1.667973381E+01               0
GRID*             155643               0-2.500000000E+007.5273846757E+01+
*       -1.987870906E+01               0
GRID*             155644               0-2.500000000E+007.5613581385E+01+
*       -2.147975540E+01               0
GRID*             155645               0-2.500000000E+007.6252311030E+01+
*       -2.267680047E+01               0
GRID*             155646               0-2.500000000E+007.5557210307E+01+
*       -2.390239313E+01               0
GRID*             155647               0-2.500000000E+007.5052297148E+01+
*       -2.561527455E+01               0
GRID*             155648               0-2.500000000E+007.2380224517E+01+
*       -2.529656190E+01               0
GRID*             155649               0-2.500000000E+006.9292945614E+01+
*       -2.532948465E+01               0
GRID*             155650               0-2.500000000E+006.6246526439E+01+
*       -2.541496164E+01               0
GRID*             155651               0-2.500000000E+006.3220110217E+01+
*       -2.550129325E+01               0
GRID*             155652               0-2.500000000E+006.0194156379E+01+
*       -2.557719108E+01               0
GRID*             155653               0-2.500000000E+005.7159634645E+01+
*       -2.563728200E+01               0
GRID*             155654               0-2.500000000E+005.4112319108E+01+
*       -2.567893014E+01               0
GRID*             155655               0-2.500000000E+005.1049715565E+01+
*       -2.570152222E+01               0
GRID*             155656               0-2.500000000E+004.7969641115E+01+
*       -2.570783595E+01               0
GRID*             155657               0-2.500000000E+004.4868072122E+01+
*       -2.569511333E+01               0
GRID*             155658               0-2.500000000E+004.1738062330E+01+
*       -2.566145387E+01               0
GRID*             155659               0-2.500000000E+003.8565598959E+01+
*       -2.560558691E+01               0
GRID*             155660               0-2.500000000E+003.5322078148E+01+
*       -2.552746313E+01               0
GRID*             155661               0-2.500000000E+003.1952622076E+01+
*       -2.543272898E+01               0
GRID*             155662               0-2.500000000E+002.8370949180E+01+
*       -2.536089940E+01               0
GRID*             155663               0-2.500000000E+002.5234189545E+01+
*       -2.567797746E+01               0
GRID*             155664               0-2.500000000E+002.4654059891E+01+
*       -2.395205956E+01               0
GRID*             155665               0-2.500000000E+002.3887321383E+01+
*       -2.266913106E+01               0
GRID*             155666               0-2.500000000E+002.4683349963E+01+
*       -2.141502642E+01               0
GRID*             155667               0-2.500000000E+002.5313464797E+01+
*       -1.969469354E+01               0
GRID*             155668               0-2.500000000E+002.5834140843E+01+
*       -1.762753436E+01               0
GRID*             155669               0-2.500000000E+002.6384968041E+01+
*       -1.516596663E+01               0
GRID*             155670               0-2.500000000E+002.9516919307E+01+
*       -1.516991585E+01               0
GRID*             155671               0-2.500000000E+003.2703280265E+01+
*       -1.519734038E+01               0
GRID*             155672               0-2.500000000E+003.5872064384E+01+
*       -1.522683700E+01               0
GRID*             155673               0-2.500000000E+003.9009487214E+01+
*       -1.525173698E+01               0
GRID*             155674               0-2.500000000E+004.2119271049E+01+
*       -1.527023317E+01               0
GRID*             155675               0-2.500000000E+004.5208220759E+01+
*       -1.528200535E+01               0
GRID*             155676               0-2.500000000E+004.8282204629E+01+
*       -1.528745320E+01               0
GRID*             155677               0-2.500000000E+005.1345838325E+01+
*       -1.528767965E+01               0
GRID*             155678               0-2.500000000E+005.4403170758E+01+
*       -1.528442876E+01               0
GRID*             155679               0-2.500000000E+005.7458020948E+01+
*       -1.527786266E+01               0
GRID*             155680               0-2.500000000E+006.0516084780E+01+
*       -1.526895870E+01               0
GRID*             155681               0-2.500000000E+006.3587283790E+01+
*       -1.526020057E+01               0
GRID*             155682               0-2.500000000E+006.6691691754E+01+
*       -1.525659762E+01               0
GRID*             155683               0-2.500000000E+006.9883909659E+01+
*       -1.527002716E+01               0
GRID*             155684               0-2.500000000E+007.3406687624E+01+
*       -1.536482978E+01               0
GRID*             155685               0-2.500000000E+007.5057956252E+01+
*       -1.659273456E+01               0
GRID*             155686               0-2.500000000E+006.6412612310E+01+
*       -2.290464575E+01               0
GRID*             155687               0-2.500000000E+006.6526022171E+01+
*       -2.037822774E+01               0
GRID*             155688               0-2.500000000E+006.6616367893E+01+
*       -1.783060444E+01               0
GRID*             155689               0-2.500000000E+006.9742319163E+01+
*       -1.782377927E+01               0
GRID*             155690               0-2.500000000E+006.9662023936E+01+
*       -2.031882829E+01               0
GRID*             155691               0-2.500000000E+006.9593327827E+01+
*       -2.282468949E+01               0
GRID*             155692               0-2.500000000E+007.2771280681E+01+
*       -2.022478785E+01               0
GRID*             155693               0-2.500000000E+007.5127926535E+01+
*       -1.818640437E+01               0
GRID*             155694               0-2.500000000E+007.2796917635E+01+
*       -1.787607734E+01               0
GRID*             155695               0-2.500000000E+007.3208604959E+01+
*       -2.273957694E+01               0
GRID*             155696               0-2.500000000E+006.3333756604E+01+
*       -2.296720225E+01               0
GRID*             155697               0-2.500000000E+006.3434053719E+01+
*       -2.041756748E+01               0
GRID*             155698               0-2.500000000E+006.3519101897E+01+
*       -1.784543009E+01               0
GRID*             155699               0-2.500000000E+006.0281109594E+01+
*       -2.302161211E+01               0
GRID*             155700               0-2.500000000E+006.0366844347E+01+
*       -2.045318786E+01               0
GRID*             155701               0-2.500000000E+006.0445988105E+01+
*       -1.786514047E+01               0
GRID*             155702               0-2.500000000E+005.7231993863E+01+
*       -2.306462576E+01               0
GRID*             155703               0-2.500000000E+005.7308510942E+01+
*       -2.048196640E+01               0
GRID*             155704               0-2.500000000E+005.7384484759E+01+
*       -1.788275539E+01               0
GRID*             155705               0-2.500000000E+005.4176583579E+01+
*       -2.309328767E+01               0
GRID*             155706               0-2.500000000E+005.4248688178E+01+
*       -2.050094366E+01               0
GRID*             155707               0-2.500000000E+005.4324814156E+01+
*       -1.789514880E+01               0
GRID*             155708               0-2.500000000E+002.9051698578E+01+
*       -1.769812784E+01               0
GRID*             155709               0-2.500000000E+002.8474112805E+01+
*       -2.017500547E+01               0
GRID*             155710               0-2.500000000E+002.7577867854E+01+
*       -2.275503595E+01               0
GRID*             155711               0-2.500000000E+003.2383201987E+01+
*       -1.775934665E+01               0
GRID*             155712               0-2.500000000E+003.5646050608E+01+
*       -1.781032801E+01               0
GRID*             155713               0-2.500000000E+003.8840524427E+01+
*       -1.784986204E+01               0
GRID*             155714               0-2.500000000E+004.1985660910E+01+
*       -1.787819707E+01               0
GRID*             155715               0-2.500000000E+004.5097451701E+01+
*       -1.789573044E+01               0
GRID*             155716               0-2.500000000E+004.8186616605E+01+
*       -1.790309630E+01               0
GRID*             155717               0-2.500000000E+005.1260352071E+01+
*       -1.790165027E+01               0
GRID*             155718               0-2.500000000E+005.1180545032E+01+
*       -2.050777231E+01               0
GRID*             155719               0-2.500000000E+005.1109405587E+01+
*       -2.310493857E+01               0
GRID*             155720               0-2.500000000E+004.8027079752E+01+
*       -2.310921198E+01               0
GRID*             155721               0-2.500000000E+004.4923337607E+01+
*       -2.309802023E+01               0
GRID*             155722               0-2.500000000E+004.1788767276E+01+
*       -2.306935697E+01               0
GRID*             155723               0-2.500000000E+003.8604768929E+01+
*       -2.302210806E+01               0
GRID*             155724               0-2.500000000E+003.5329410130E+01+
*       -2.295533546E+01               0
GRID*             155725               0-2.500000000E+003.1844591524E+01+
*       -2.286767453E+01               0
GRID*             155726               0-2.500000000E+003.2071579987E+01+
*       -2.030353692E+01               0
GRID*             155727               0-2.500000000E+003.5450889798E+01+
*       -2.038003568E+01               0
GRID*             155728               0-2.500000000E+003.8699111900E+01+
*       -2.043456675E+01               0
GRID*             155729               0-2.500000000E+004.1872353467E+01+
*       -2.047266673E+01               0
GRID*             155730               0-2.500000000E+004.5000670749E+01+
*       -2.049576830E+01               0
GRID*             155731               0-2.500000000E+004.8100185053E+01+
*       -2.050433695E+01               0
GRID*             155732               0-2.500000000E+008.7415702586E+01+
*       -2.757843589E+01               0
GRID*             155733               0-2.500000000E+008.4873206149E+01+
*       -1.489059092E+01               0
GRID*             155734               0-2.500000000E+008.4822710763E+01+
*       -1.663047723E+01               0
GRID*             155735               0-2.500000000E+008.3098191131E+01+
*       -1.673558768E+01               0
GRID*             155736               0-2.500000000E+008.6404280816E+01+
*       -1.674187204E+01               0
GRID*             155737               0-2.500000000E+008.7448605955E+01+
*       -2.591501660E+01               0
GRID*             155738               0-2.500000000E+008.7451515432E+01+
*       -2.108299694E+01               0
GRID*             155739               0-2.500000000E+008.7384235272E+01+
*       -1.968059405E+01               0
GRID*             155740               0-2.500000000E+001.4979267070E+01+
*       -6.673381316E+01               0
GRID*             155741               0-2.500000000E+001.7976129680E+01+
*       -6.687288619E+01               0
GRID*             155742               0-2.500000000E+002.0981123311E+01+
*       -6.701432213E+01               0
GRID*             155743               0-2.500000000E+002.3996110239E+01+
*       -6.715261098E+01               0
GRID*             155744               0-2.500000000E+002.7022052224E+01+
*       -6.728093601E+01               0
GRID*             155745               0-2.500000000E+003.0058646556E+01+
*       -6.739242145E+01               0
GRID*             155746               0-2.500000000E+003.3104106996E+01+
*       -6.748135361E+01               0
GRID*             155747               0-2.500000000E+003.6155294984E+01+
*       -6.754416212E+01               0
GRID*             155748               0-2.500000000E+003.9208301665E+01+
*       -6.757990904E+01               0
GRID*             155749               0-2.500000000E+004.2259271433E+01+
*       -6.759003756E+01               0
GRID*             155750               0-2.500000000E+004.5305188213E+01+
*       -6.757782243E+01               0
GRID*             155751               0-2.500000000E+004.8344554309E+01+
*       -6.754781719E+01               0
GRID*             155752               0-2.500000000E+005.1377863208E+01+
*       -6.750509686E+01               0
GRID*             155753               0-2.500000000E+005.4407582111E+01+
*       -6.745405844E+01               0
GRID*             155754               0-2.500000000E+005.7437505731E+01+
*       -6.739733258E+01               0
GRID*             155755               0-2.500000000E+006.0471639790E+01+
*       -6.733533611E+01               0
GRID*             155756               0-2.500000000E+006.3512940901E+01+
*       -6.726679642E+01               0
GRID*             155757               0-2.500000000E+006.6562419941E+01+
*       -6.719007303E+01               0
GRID*             155758               0-2.500000000E+006.9619052913E+01+
*       -6.710466578E+01               0
GRID*             155759               0-2.500000000E+007.2680359050E+01+
*       -6.701191593E+01               0
GRID*             155760               0-2.500000000E+007.5743095586E+01+
*       -6.691487144E+01               0
GRID*             155761               0-2.500000000E+007.8803944919E+01+
*       -6.681750409E+01               0
GRID*             155762               0-2.500000000E+008.1860266262E+01+
*       -6.672351896E+01               0
GRID*             155763               0-2.500000000E+008.4910802984E+01+
*       -6.663519783E+01               0
GRID*             155764               0-2.500000000E+001.4970252149E+01+
*       -6.972633746E+01               0
GRID*             155765               0-2.500000000E+001.7963787332E+01+
*       -6.987576893E+01               0
GRID*             155766               0-2.500000000E+002.0967285813E+01+
*       -7.002733342E+01               0
GRID*             155767               0-2.500000000E+002.3983497486E+01+
*       -7.017513215E+01               0
GRID*             155768               0-2.500000000E+002.7014111157E+01+
*       -7.031155458E+01               0
GRID*             155769               0-2.500000000E+003.0059040679E+01+
*       -7.042848528E+01               0
GRID*             155770               0-2.500000000E+003.3115848670E+01+
*       -7.051873161E+01               0
GRID*             155771               0-2.500000000E+003.6179779062E+01+
*       -7.057771534E+01               0
GRID*             155772               0-2.500000000E+003.9244785453E+01+
*       -7.060473029E+01               0
GRID*             155773               0-2.500000000E+004.2304975809E+01+
*       -7.060238260E+01               0
GRID*             155774               0-2.500000000E+004.5355728941E+01+
*       -7.057563859E+01               0
GRID*             155775               0-2.500000000E+004.8394650329E+01+
*       -7.053137141E+01               0
GRID*             155776               0-2.500000000E+005.1422473958E+01+
*       -7.047754478E+01               0
GRID*             155777               0-2.500000000E+005.4443212843E+01+
*       -7.042092448E+01               0
GRID*             155778               0-2.500000000E+005.7463116536E+01+
*       -7.036494669E+01               0
GRID*             155779               0-2.500000000E+006.0488799611E+01+
*       -7.030897052E+01               0
GRID*             155780               0-2.500000000E+006.3525002149E+01+
*       -7.024903556E+01               0
GRID*             155781               0-2.500000000E+006.6572818788E+01+
*       -7.018032512E+01               0
GRID*             155782               0-2.500000000E+006.9629843262E+01+
*       -7.010042175E+01               0
GRID*             155783               0-2.500000000E+007.2691896387E+01+
*       -7.001016697E+01               0
GRID*             155784               0-2.500000000E+007.5754551128E+01+
*       -6.991291876E+01               0
GRID*             155785               0-2.500000000E+007.8814101744E+01+
*       -6.981315582E+01               0
GRID*             155786               0-2.500000000E+008.1868224437E+01+
*       -6.971492789E+01               0
GRID*             155787               0-2.500000000E+008.4916398661E+01+
*       -6.962059819E+01               0
GRID*             155788               0-2.500000000E+008.4923823401E+01+
*       -7.260700596E+01               0
GRID*             155789               0-2.500000000E+008.4933233370E+01+
*       -7.559675013E+01               0
GRID*             155790               0-2.500000000E+008.4946514438E+01+
*       -7.859012873E+01               0
GRID*             155791               0-2.500000000E+008.4965969411E+01+
*       -8.158704697E+01               0
GRID*             155792               0-2.500000000E+008.4994156262E+01+
*       -8.458686834E+01               0
GRID*             155793               0-2.500000000E+008.5033474312E+01+
*       -8.758833549E+01               0
GRID*             155794               0-2.500000000E+008.5085507162E+01+
*       -9.058972401E+01               0
GRID*             155795               0-2.500000000E+008.5150434253E+01+
*       -9.358927973E+01               0
GRID*             155796               0-2.500000000E+008.5227299228E+01+
*       -9.658560551E+01               0
GRID*             155797               0-2.500000000E+008.5315246677E+01+
*       -9.957763698E+01               0
GRID*             155798               0-2.500000000E+008.5415158958E+01+
*       -1.025642300E+02               0
GRID*             155799               0-2.500000000E+008.5531263972E+01+
*       -1.055418480E+02               0
GRID*             155800               0-2.500000000E+008.5673296650E+01+
*       -1.084872863E+02               0
GRID*             155801               0-2.500000000E+008.2972795821E+01+
*       -1.087448641E+02               0
GRID*             155802               0-2.500000000E+008.0183113998E+01+
*       -1.088621246E+02               0
GRID*             155803               0-2.500000000E+007.7398428630E+01+
*       -1.090091303E+02               0
GRID*             155804               0-2.500000000E+007.4612017793E+01+
*       -1.092115344E+02               0
GRID*             155805               0-2.500000000E+007.1819536226E+01+
*       -1.094685808E+02               0
GRID*             155806               0-2.500000000E+006.9020976064E+01+
*       -1.097790292E+02               0
GRID*             155807               0-2.500000000E+006.6210756656E+01+
*       -1.101422530E+02               0
GRID*             155808               0-2.500000000E+006.3371487502E+01+
*       -1.105493689E+02               0
GRID*             155809               0-2.500000000E+006.0480425278E+01+
*       -1.109657763E+02               0
GRID*             155810               0-2.500000000E+005.7539668993E+01+
*       -1.113218999E+02               0
GRID*             155811               0-2.500000000E+005.4584905283E+01+
*       -1.116004116E+02               0
GRID*             155812               0-2.500000000E+005.1640529108E+01+
*       -1.118080609E+02               0
GRID*             155813               0-2.500000000E+004.8715926986E+01+
*       -1.119569227E+02               0
GRID*             155814               0-2.500000000E+004.5812360414E+01+
*       -1.120579978E+02               0
GRID*             155815               0-2.500000000E+004.2928326673E+01+
*       -1.121198852E+02               0
GRID*             155816               0-2.500000000E+004.0062035547E+01+
*       -1.121486738E+02               0
GRID*             155817               0-2.500000000E+003.7212051053E+01+
*       -1.121482045E+02               0
GRID*             155818               0-2.500000000E+003.4377625763E+01+
*       -1.121204187E+02               0
GRID*             155819               0-2.500000000E+003.1560308521E+01+
*       -1.120655160E+02               0
GRID*             155820               0-2.500000000E+002.8767405905E+01+
*       -1.119820343E+02               0
GRID*             155821               0-2.500000000E+002.6015693522E+01+
*       -1.118674471E+02               0
GRID*             155822               0-2.500000000E+002.3334172336E+01+
*       -1.117211644E+02               0
GRID*             155823               0-2.500000000E+002.0761292642E+01+
*       -1.115542108E+02               0
GRID*             155824               0-2.500000000E+001.8301865412E+01+
*       -1.114199564E+02               0
GRID*             155825               0-2.500000000E+001.5941217523E+01+
*       -1.113313638E+02               0
GRID*             155826               0-2.500000000E+001.3657218882E+01+
*       -1.112482567E+02               0
GRID*             155827               0-2.500000000E+001.3808683932E+01+
*       -1.083695494E+02               0
GRID*             155828               0-2.500000000E+001.3959445668E+01+
*       -1.054625513E+02               0
GRID*             155829               0-2.500000000E+001.4101853198E+01+
*       -1.025353412E+02               0
GRID*             155830               0-2.500000000E+001.4235439164E+01+
*       -9.959563581E+01               0
GRID*             155831               0-2.500000000E+001.4361787263E+01+
*       -9.664673504E+01               0
GRID*             155832               0-2.500000000E+001.4481635084E+01+
*       -9.368805316E+01               0
GRID*             155833               0-2.500000000E+001.4593412719E+01+
*       -9.071730505E+01               0
GRID*             155834               0-2.500000000E+001.4693282051E+01+
*       -8.773325862E+01               0
GRID*             155835               0-2.500000000E+001.4777158999E+01+
*       -8.473775673E+01               0
GRID*             155836               0-2.500000000E+001.4843561753E+01+
*       -8.173515615E+01               0
GRID*             155837               0-2.500000000E+001.4893563883E+01+
*       -7.873005978E+01               0
GRID*             155838               0-2.500000000E+001.4929592771E+01+
*       -7.572594748E+01               0
GRID*             155839               0-2.500000000E+001.4954382558E+01+
*       -7.272500363E+01               0
GRID*             155840               0-2.500000000E+001.7941413925E+01+
*       -7.288760888E+01               0
GRID*             155841               0-2.500000000E+002.0940872587E+01+
*       -7.305334972E+01               0
GRID*             155842               0-2.500000000E+002.3956914092E+01+
*       -7.321584300E+01               0
GRID*             155843               0-2.500000000E+002.6992577610E+01+
*       -7.336621924E+01               0
GRID*             155844               0-2.500000000E+003.0048498243E+01+
*       -7.349405144E+01               0
GRID*             155845               0-2.500000000E+003.3121478806E+01+
*       -7.358903507E+01               0
GRID*             155846               0-2.500000000E+003.6204054327E+01+
*       -7.364423775E+01               0
GRID*             155847               0-2.500000000E+003.9286592260E+01+
*       -7.365959488E+01               0
GRID*             155848               0-2.500000000E+004.2360168428E+01+
*       -7.363964570E+01               0
GRID*             155849               0-2.500000000E+004.5417824742E+01+
*       -7.359152856E+01               0
GRID*             155850               0-2.500000000E+004.8455491675E+01+
*       -7.352530254E+01               0
GRID*             155851               0-2.500000000E+005.1474015865E+01+
*       -7.345398445E+01               0
GRID*             155852               0-2.500000000E+005.4479869003E+01+
*       -7.338836253E+01               0
GRID*             155853               0-2.500000000E+005.7483466809E+01+
*       -7.333344663E+01               0
GRID*             155854               0-2.500000000E+006.0496215069E+01+
*       -7.328708200E+01               0
GRID*             155855               0-2.500000000E+006.3526229103E+01+
*       -7.324042755E+01               0
GRID*             155856               0-2.500000000E+006.6574358757E+01+
*       -7.318252327E+01               0
GRID*             155857               0-2.500000000E+006.9634955243E+01+
*       -7.310842821E+01               0
GRID*             155858               0-2.500000000E+007.2700666732E+01+
*       -7.301926607E+01               0
GRID*             155859               0-2.500000000E+007.5765314143E+01+
*       -7.291963229E+01               0
GRID*             155860               0-2.500000000E+007.8824812098E+01+
*       -7.281511369E+01               0
GRID*             155861               0-2.500000000E+008.1877279884E+01+
*       -7.271045958E+01               0
GRID*             155862               0-2.500000000E+008.1890212794E+01+
*       -7.570962438E+01               0
GRID*             155863               0-2.500000000E+008.1908714081E+01+
*       -7.871485693E+01               0
GRID*             155864               0-2.500000000E+008.1936455638E+01+
*       -8.172607571E+01               0
GRID*             155865               0-2.500000000E+008.1977712053E+01+
*       -8.474218062E+01               0
GRID*             155866               0-2.500000000E+008.2036578483E+01+
*       -8.776075938E+01               0
GRID*             155867               0-2.500000000E+008.2115543861E+01+
*       -9.077825813E+01               0
GRID*             155868               0-2.500000000E+008.2214229191E+01+
*       -9.379094163E+01               0
GRID*             155869               0-2.500000000E+008.2330265667E+01+
*       -9.679581066E+01               0
GRID*             155870               0-2.500000000E+008.2461350456E+01+
*       -9.979072981E+01               0
GRID*             155871               0-2.500000000E+008.2607246206E+01+
*       -1.027745831E+02               0
GRID*             155872               0-2.500000000E+008.2771991129E+01+
*       -1.057500672E+02               0
GRID*             155873               0-2.500000000E+007.9976476307E+01+
*       -1.059344480E+02               0
GRID*             155874               0-2.500000000E+007.7164759178E+01+
*       -1.061308276E+02               0
GRID*             155875               0-2.500000000E+007.4343421008E+01+
*       -1.063612789E+02               0
GRID*             155876               0-2.500000000E+007.1515408442E+01+
*       -1.066338347E+02               0
GRID*             155877               0-2.500000000E+006.8683232214E+01+
*       -1.069497386E+02               0
GRID*             155878               0-2.500000000E+006.5846521058E+01+
*       -1.073043547E+02               0
GRID*             155879               0-2.500000000E+006.2999979419E+01+
*       -1.076834348E+02               0
GRID*             155880               0-2.500000000E+006.0136537356E+01+
*       -1.080592903E+02               0
GRID*             155881               0-2.500000000E+005.7257306897E+01+
*       -1.083964947E+02               0
GRID*             155882               0-2.500000000E+005.4374055429E+01+
*       -1.086768775E+02               0
GRID*             155883               0-2.500000000E+005.1497334034E+01+
*       -1.088972798E+02               0
GRID*             155884               0-2.500000000E+004.8632548097E+01+
*       -1.090624892E+02               0
GRID*             155885               0-2.500000000E+004.5781565086E+01+
*       -1.091803727E+02               0
GRID*             155886               0-2.500000000E+004.2945396354E+01+
*       -1.092589190E+02               0
GRID*             155887               0-2.500000000E+004.0125711013E+01+
*       -1.093041165E+02               0
GRID*             155888               0-2.500000000E+003.7324616186E+01+
*       -1.093190748E+02               0
GRID*             155889               0-2.500000000E+003.4543808064E+01+
*       -1.093041907E+02               0
GRID*             155890               0-2.500000000E+003.1785224222E+01+
*       -1.092582015E+02               0
GRID*             155891               0-2.500000000E+002.9053762038E+01+
*       -1.091800519E+02               0
GRID*             155892               0-2.500000000E+002.6360060877E+01+
*       -1.090707604E+02               0
GRID*             155893               0-2.500000000E+002.3720145545E+01+
*       -1.089344628E+02               0
GRID*             155894               0-2.500000000E+002.1149532408E+01+
*       -1.087815881E+02               0
GRID*             155895               0-2.500000000E+001.8650283964E+01+
*       -1.086319455E+02               0
GRID*             155896               0-2.500000000E+001.6211156355E+01+
*       -1.084941456E+02               0
GRID*             155897               0-2.500000000E+001.6440065892E+01+
*       -1.056259099E+02               0
GRID*             155898               0-2.500000000E+001.6647780681E+01+
*       -1.027283480E+02               0
GRID*             155899               0-2.500000000E+001.6842109996E+01+
*       -9.981362029E+01               0
GRID*             155900               0-2.500000000E+001.7028678915E+01+
*       -9.688603468E+01               0
GRID*             155901               0-2.500000000E+001.7210073682E+01+
*       -9.394326728E+01               0
GRID*             155902               0-2.500000000E+001.7383940201E+01+
*       -9.097954550E+01               0
GRID*             155903               0-2.500000000E+001.7541953789E+01+
*       -8.799098827E+01               0
GRID*             155904               0-2.500000000E+001.7673969407E+01+
*       -8.498074393E+01               0
GRID*             155905               0-2.500000000E+001.7776633415E+01+
*       -8.195790666E+01               0
GRID*             155906               0-2.500000000E+001.7852254381E+01+
*       -7.893147441E+01               0
GRID*             155907               0-2.500000000E+001.7905552653E+01+
*       -7.590770092E+01               0
GRID*             155908               0-2.500000000E+002.0897157863E+01+
*       -7.609230476E+01               0
GRID*             155909               0-2.500000000E+002.3910479561E+01+
*       -7.627591825E+01               0
GRID*             155910               0-2.500000000E+002.6951100764E+01+
*       -7.644835719E+01               0
GRID*             155911               0-2.500000000E+003.0021690928E+01+
*       -7.659555635E+01               0
GRID*             155912               0-2.500000000E+003.3118571250E+01+
*       -7.670081788E+01               0
GRID*             155913               0-2.500000000E+003.6229218491E+01+
*       -7.675124647E+01               0
GRID*             155914               0-2.500000000E+003.9337512015E+01+
*       -7.674952927E+01               0
GRID*             155915               0-2.500000000E+004.2430679649E+01+
*       -7.670418256E+01               0
GRID*             155916               0-2.500000000E+004.5498859782E+01+
*       -7.662438182E+01               0
GRID*             155917               0-2.500000000E+004.8534429965E+01+
*       -7.652351196E+01               0
GRID*             155918               0-2.500000000E+005.1537468655E+01+
*       -7.642415684E+01               0
GRID*             155919               0-2.500000000E+005.4518354320E+01+
*       -7.634439462E+01               0
GRID*             155920               0-2.500000000E+005.7494728899E+01+
*       -7.629245736E+01               0
GRID*             155921               0-2.500000000E+006.0486905310E+01+
*       -7.626437132E+01               0
GRID*             155922               0-2.500000000E+006.3509985804E+01+
*       -7.624213770E+01               0
GRID*             155923               0-2.500000000E+006.6563655791E+01+
*       -7.620086895E+01               0
GRID*             155924               0-2.500000000E+006.9634236118E+01+
*       -7.613312476E+01               0
GRID*             155925               0-2.500000000E+007.2708464657E+01+
*       -7.604278635E+01               0
GRID*             155926               0-2.500000000E+007.5777889994E+01+
*       -7.593762105E+01               0
GRID*             155927               0-2.500000000E+007.8838450396E+01+
*       -7.582529292E+01               0
GRID*             155928               0-2.500000000E+007.8859443704E+01+
*       -7.884316232E+01               0
GRID*             155929               0-2.500000000E+007.8892325455E+01+
*       -8.187055642E+01               0
GRID*             155930               0-2.500000000E+007.8943822528E+01+
*       -8.490606774E+01               0
GRID*             155931               0-2.500000000E+007.9020916752E+01+
*       -8.794558189E+01               0
GRID*             155932               0-2.500000000E+007.9127762293E+01+
*       -9.098223105E+01               0
GRID*             155933               0-2.500000000E+007.9262188075E+01+
*       -9.400879410E+01               0
GRID*             155934               0-2.500000000E+007.9418536446E+01+
*       -9.702004180E+01               0
GRID*             155935               0-2.500000000E+007.9591362856E+01+
*       -1.000125627E+02               0
GRID*             155936               0-2.500000000E+007.9777141238E+01+
*       -1.029835878E+02               0
GRID*             155937               0-2.500000000E+007.6931491878E+01+
*       -1.032078156E+02               0
GRID*             155938               0-2.500000000E+007.4074315390E+01+
*       -1.034604346E+02               0
GRID*             155939               0-2.500000000E+007.1211161057E+01+
*       -1.037496506E+02               0
GRID*             155940               0-2.500000000E+006.8348468073E+01+
*       -1.040779454E+02               0
GRID*             155941               0-2.500000000E+006.5492443027E+01+
*       -1.044402207E+02               0
GRID*             155942               0-2.500000000E+006.2646539077E+01+
*       -1.048205816E+02               0
GRID*             155943               0-2.500000000E+005.9809623699E+01+
*       -1.051926045E+02               0
GRID*             155944               0-2.500000000E+005.6979637698E+01+
*       -1.055295983E+02               0
GRID*             155945               0-2.500000000E+005.4156879932E+01+
*       -1.058150633E+02               0
GRID*             155946               0-2.500000000E+005.1342106330E+01+
*       -1.060434103E+02               0
GRID*             155947               0-2.500000000E+004.8535227560E+01+
*       -1.062171291E+02               0
GRID*             155948               0-2.500000000E+004.5736169856E+01+
*       -1.063438229E+02               0
GRID*             155949               0-2.500000000E+004.2946993655E+01+
*       -1.064328223E+02               0
GRID*             155950               0-2.500000000E+004.0173056003E+01+
*       -1.064907897E+02               0
GRID*             155951               0-2.500000000E+003.7420727885E+01+
*       -1.065194956E+02               0
GRID*             155952               0-2.500000000E+003.4694169792E+01+
*       -1.065157820E+02               0
GRID*             155953               0-2.500000000E+003.1993903163E+01+
*       -1.064738943E+02               0
GRID*             155954               0-2.500000000E+002.9318654012E+01+
*       -1.063908208E+02               0
GRID*             155955               0-2.500000000E+002.6670106291E+01+
*       -1.062712389E+02               0
GRID*             155956               0-2.500000000E+002.4054704547E+01+
*       -1.061236478E+02               0
GRID*             155957               0-2.500000000E+002.1479129680E+01+
*       -1.059584710E+02               0
GRID*             155958               0-2.500000000E+001.8944008075E+01+
*       -1.057871456E+02               0
GRID*             155959               0-2.500000000E+001.9203133101E+01+
*       -1.029206284E+02               0
GRID*             155960               0-2.500000000E+001.9447791564E+01+
*       -1.000365086E+02               0
GRID*             155961               0-2.500000000E+001.9688400896E+01+
*       -9.713916791E+01               0
GRID*             155962               0-2.500000000E+001.9931523290E+01+
*       -9.422251264E+01               0
GRID*             155963               0-2.500000000E+002.0175184177E+01+
*       -9.127325944E+01               0
GRID*             155964               0-2.500000000E+002.0402960223E+01+
*       -8.828028317E+01               0
GRID*             155965               0-2.500000000E+002.0589815945E+01+
*       -8.524835701E+01               0
GRID*             155966               0-2.500000000E+002.0730024729E+01+
*       -8.219686385E+01               0
GRID*             155967               0-2.500000000E+002.0829437050E+01+
*       -7.914241819E+01               0
GRID*             155968               0-2.500000000E+002.3835081325E+01+
*       -7.935515029E+01               0
GRID*             155969               0-2.500000000E+002.6878836307E+01+
*       -7.956170528E+01               0
GRID*             155970               0-2.500000000E+002.9968783397E+01+
*       -7.974333172E+01               0
GRID*             155971               0-2.500000000E+003.3102728070E+01+
*       -7.987004131E+01               0
GRID*             155972               0-2.500000000E+003.6257107800E+01+
*       -7.991076947E+01               0
GRID*             155973               0-2.500000000E+003.9402663772E+01+
*       -7.988146936E+01               0
GRID*             155974               0-2.500000000E+004.2524163414E+01+
*       -7.980002897E+01               0
GRID*             155975               0-2.500000000E+004.5609988231E+01+
*       -7.967442829E+01               0
GRID*             155976               0-2.500000000E+004.8643240651E+01+
*       -7.951625857E+01               0
GRID*             155977               0-2.500000000E+005.1620438739E+01+
*       -7.937103248E+01               0
GRID*             155978               0-2.500000000E+005.4559122978E+01+
*       -7.926930429E+01               0
GRID*             155979               0-2.500000000E+005.7488892996E+01+
*       -7.922466682E+01               0
GRID*             155980               0-2.500000000E+006.0446290729E+01+
*       -7.923295001E+01               0
GRID*             155981               0-2.500000000E+006.3462903790E+01+
*       -7.926059529E+01               0
GRID*             155982               0-2.500000000E+006.6535501280E+01+
*       -7.924504708E+01               0
GRID*             155983               0-2.500000000E+006.9628727004E+01+
*       -7.918200701E+01               0
GRID*             155984               0-2.500000000E+007.2719080563E+01+
*       -7.908532812E+01               0
GRID*             155985               0-2.500000000E+007.5796548331E+01+
*       -7.896945384E+01               0
GRID*             155986               0-2.500000000E+007.5828735970E+01+
*       -8.201523799E+01               0
GRID*             155987               0-2.500000000E+007.5884573040E+01+
*       -8.507515059E+01               0
GRID*             155988               0-2.500000000E+007.5976857629E+01+
*       -8.814288120E+01               0
GRID*             155989               0-2.500000000E+007.6114299084E+01+
*       -9.120506458E+01               0
GRID*             155990               0-2.500000000E+007.6289472436E+01+
*       -9.424817050E+01               0
GRID*             155991               0-2.500000000E+007.6489752382E+01+
*       -9.726473441E+01               0
GRID*             155992               0-2.500000000E+007.6705066836E+01+
*       -1.002515202E+02               0
GRID*             155993               0-2.500000000E+007.3807448839E+01+
*       -1.005188651E+02               0
GRID*             155994               0-2.500000000E+007.0904240293E+01+
*       -1.008238016E+02               0
GRID*             155995               0-2.500000000E+006.8006230123E+01+
*       -1.011715016E+02               0
GRID*             155996               0-2.500000000E+006.5128306291E+01+
*       -1.015590568E+02               0
GRID*             155997               0-2.500000000E+006.2284466153E+01+
*       -1.019682782E+02               0
GRID*             155998               0-2.500000000E+005.9476045702E+01+
*       -1.023636697E+02               0
GRID*             155999               0-2.500000000E+005.6694673138E+01+
*       -1.027169339E+02               0
GRID*             156000               0-2.500000000E+005.3931032859E+01+
*       -1.030127619E+02               0
GRID*             156001               0-2.500000000E+005.1177644587E+01+
*       -1.032463113E+02               0
GRID*             156002               0-2.500000000E+004.8428540453E+01+
*       -1.034208633E+02               0
GRID*             156003               0-2.500000000E+004.5679913672E+01+
*       -1.035469468E+02               0
GRID*             156004               0-2.500000000E+004.2933771837E+01+
*       -1.036396210E+02               0
GRID*             156005               0-2.500000000E+004.0200516732E+01+
*       -1.037085698E+02               0
GRID*             156006               0-2.500000000E+003.7493377105E+01+
*       -1.037540736E+02               0
GRID*             156007               0-2.500000000E+003.4821184051E+01+
*       -1.037663272E+02               0
GRID*             156008               0-2.500000000E+003.2182490350E+01+
*       -1.037287696E+02               0
GRID*             156009               0-2.500000000E+002.9564993301E+01+
*       -1.036305440E+02               0
GRID*             156010               0-2.500000000E+002.6957442645E+01+
*       -1.034842975E+02               0
GRID*             156011               0-2.500000000E+002.4359057355E+01+
*       -1.033072658E+02               0
GRID*             156012               0-2.500000000E+002.1774097237E+01+
*       -1.031136154E+02               0
GRID*             156013               0-2.500000000E+002.2053250422E+01+
*       -1.002655106E+02               0
GRID*             156014               0-2.500000000E+002.2337278797E+01+
*       -9.741022964E+01               0
GRID*             156015               0-2.500000000E+002.2640963246E+01+
*       -9.453583745E+01               0
GRID*             156016               0-2.500000000E+002.2968060274E+01+
*       -9.161468972E+01               0
GRID*             156017               0-2.500000000E+002.3290309878E+01+
*       -8.861630356E+01               0
GRID*             156018               0-2.500000000E+002.3541377297E+01+
*       -8.554616823E+01               0
GRID*             156019               0-2.500000000E+002.3717379251E+01+
*       -8.244995019E+01               0
GRID*             156020               0-2.500000000E+002.6757495695E+01+
*       -8.270843031E+01               0
GRID*             156021               0-2.500000000E+002.9870810347E+01+
*       -8.295379078E+01               0
GRID*             156022               0-2.500000000E+003.3066474647E+01+
*       -8.313115937E+01               0
GRID*             156023               0-2.500000000E+003.6293070665E+01+
*       -8.314116047E+01               0
GRID*             156024               0-2.500000000E+003.9488945195E+01+
*       -8.306266304E+01               0
GRID*             156025               0-2.500000000E+004.2648891714E+01+
*       -8.293459529E+01               0
GRID*             156026               0-2.500000000E+004.5768578303E+01+
*       -8.274989124E+01               0
GRID*             156027               0-2.500000000E+004.8801960273E+01+
*       -8.248855304E+01               0
GRID*             156028               0-2.500000000E+005.1735632038E+01+
*       -8.226811308E+01               0
GRID*             156029               0-2.500000000E+005.4603485167E+01+
*       -8.213244931E+01               0
GRID*             156030               0-2.500000000E+005.7452066896E+01+
*       -8.210033884E+01               0
GRID*             156031               0-2.500000000E+006.0344592225E+01+
*       -8.217804675E+01               0
GRID*             156032               0-2.500000000E+006.3357183166E+01+
*       -8.231903560E+01               0
GRID*             156033               0-2.500000000E+006.6484259281E+01+
*       -8.233640503E+01               0
GRID*             156034               0-2.500000000E+006.9623987442E+01+
*       -8.226685537E+01               0
GRID*             156035               0-2.500000000E+007.2740534097E+01+
*       -8.215198397E+01               0
GRID*             156036               0-2.500000000E+007.2788666071E+01+
*       -8.524397582E+01               0
GRID*             156037               0-2.500000000E+007.2888660669E+01+
*       -8.835406273E+01               0
GRID*             156038               0-2.500000000E+007.3065041013E+01+
*       -9.145435080E+01               0
GRID*             156039               0-2.500000000E+007.3292890943E+01+
*       -9.451863068E+01               0
GRID*             156040               0-2.500000000E+007.3545069074E+01+
*       -9.753946721E+01               0
GRID*             156041               0-2.500000000E+007.0591387460E+01+
*       -9.785596719E+01               0
GRID*             156042               0-2.500000000E+006.7643086392E+01+
*       -9.822745401E+01               0
GRID*             156043               0-2.500000000E+006.4728793827E+01+
*       -9.865976554E+01               0
GRID*             156044               0-2.500000000E+006.1885449131E+01+
*       -9.913400457E+01               0
GRID*             156045               0-2.500000000E+005.9113700162E+01+
*       -9.958084649E+01               0
GRID*             156046               0-2.500000000E+005.6389635536E+01+
*       -9.996489534E+01               0
GRID*             156047               0-2.500000000E+005.3691511199E+01+
*       -1.002750336E+02               0
GRID*             156048               0-2.500000000E+005.1004566474E+01+
*       -1.005100261E+02               0
GRID*             156049               0-2.500000000E+004.8317089130E+01+
*       -1.006749020E+02               0
GRID*             156050               0-2.500000000E+004.5618441178E+01+
*       -1.007855883E+02               0
GRID*             156051               0-2.500000000E+004.2907149950E+01+
*       -1.008727863E+02               0
GRID*             156052               0-2.500000000E+004.0202511512E+01+
*       -1.009535908E+02               0
GRID*             156053               0-2.500000000E+003.7531215051E+01+
*       -1.010272783E+02               0
GRID*             156054               0-2.500000000E+003.4913790701E+01+
*       -1.010733682E+02               0
GRID*             156055               0-2.500000000E+003.2349344878E+01+
*       -1.010514730E+02               0
GRID*             156056               0-2.500000000E+002.9803253751E+01+
*       -1.009228167E+02               0
GRID*             156057               0-2.500000000E+002.7239686402E+01+
*       -1.007264669E+02               0
GRID*             156058               0-2.500000000E+002.4653707415E+01+
*       -1.004989709E+02               0
GRID*             156059               0-2.500000000E+002.4963813423E+01+
*       -9.770185518E+01               0
GRID*             156060               0-2.500000000E+002.5321599083E+01+
*       -9.489708028E+01               0
GRID*             156061               0-2.500000000E+002.5754285742E+01+
*       -9.203417058E+01               0
GRID*             156062               0-2.500000000E+002.6232994134E+01+
*       -8.903030446E+01               0
GRID*             156063               0-2.500000000E+002.6556864794E+01+
*       -8.588043271E+01               0
GRID*             156064               0-2.500000000E+002.9686523295E+01+
*       -8.624672994E+01               0
GRID*             156065               0-2.500000000E+003.2996995561E+01+
*       -8.657872144E+01               0
GRID*             156066               0-2.500000000E+003.6357482348E+01+
*       -8.646307354E+01               0
GRID*             156067               0-2.500000000E+003.9605108769E+01+
*       -8.629040559E+01               0
GRID*             156068               0-2.500000000E+004.2805614089E+01+
*       -8.611913881E+01               0
GRID*             156069               0-2.500000000E+004.6005248363E+01+
*       -8.589438439E+01               0
GRID*             156070               0-2.500000000E+004.9048363420E+01+
*       -8.541222507E+01               0
GRID*             156071               0-2.500000000E+005.1905342928E+01+
*       -8.507492009E+01               0
GRID*             156072               0-2.500000000E+005.4658171273E+01+
*       -8.488905602E+01               0
GRID*             156073               0-2.500000000E+005.7366318229E+01+
*       -8.486507612E+01               0
GRID*             156074               0-2.500000000E+006.0121056756E+01+
*       -8.505517380E+01               0
GRID*             156075               0-2.500000000E+006.3126120592E+01+
*       -8.549982901E+01               0
GRID*             156076               0-2.500000000E+006.6413848492E+01+
*       -8.551716479E+01               0
GRID*             156077               0-2.500000000E+006.9638782608E+01+
*       -8.540146541E+01               0
GRID*             156078               0-2.500000000E+006.9723256436E+01+
*       -8.858344493E+01               0
GRID*             156079               0-2.500000000E+006.9966011939E+01+
*       -9.174677788E+01               0
GRID*             156080               0-2.500000000E+007.0273216230E+01+
*       -9.483637740E+01               0
GRID*             156081               0-2.500000000E+006.7244124247E+01+
*       -9.522616055E+01               0
GRID*             156082               0-2.500000000E+006.4253783279E+01+
*       -9.572253051E+01               0
GRID*             156083               0-2.500000000E+006.1410215296E+01+
*       -9.633164190E+01               0
GRID*             156084               0-2.500000000E+005.8698376656E+01+
*       -9.686425117E+01               0
GRID*             156085               0-2.500000000E+005.6052090584E+01+
*       -9.728870449E+01               0
GRID*             156086               0-2.500000000E+005.3432846676E+01+
*       -9.761305103E+01               0
GRID*             156087               0-2.500000000E+005.0823327282E+01+
*       -9.784399020E+01               0
GRID*             156088               0-2.500000000E+004.8209025612E+01+
*       -9.798401339E+01               0
GRID*             156089               0-2.500000000E+004.5564608508E+01+
*       -9.804986775E+01               0
GRID*             156090               0-2.500000000E+004.2871757280E+01+
*       -9.811594192E+01               0
GRID*             156091               0-2.500000000E+004.0169929946E+01+
*       -9.821178443E+01               0
GRID*             156092               0-2.500000000E+003.7512531130E+01+
*       -9.833729159E+01               0
GRID*             156093               0-2.500000000E+003.4948741631E+01+
*       -9.846089601E+01               0
GRID*             156094               0-2.500000000E+003.2493440065E+01+
*       -9.849707907E+01               0
GRID*             156095               0-2.500000000E+003.0058245525E+01+
*       -9.829878568E+01               0
GRID*             156096               0-2.500000000E+002.7546576315E+01+
*       -9.800872806E+01               0
GRID*             156097               0-2.500000000E+002.7932344704E+01+
*       -9.531913576E+01               0
GRID*             156098               0-2.500000000E+002.8489753615E+01+
*       -9.258897032E+01               0
GRID*             156099               0-2.500000000E+002.9312721317E+01+
*       -8.959927967E+01               0
GRID*             156100               0-2.500000000E+003.2863969777E+01+
*       -9.059385102E+01               0
GRID*             156101               0-2.500000000E+003.6529830778E+01+
*       -8.985074228E+01               0
GRID*             156102               0-2.500000000E+003.9758888277E+01+
*       -8.951577262E+01               0
GRID*             156103               0-2.500000000E+004.2948895726E+01+
*       -8.934874102E+01               0
GRID*             156104               0-2.500000000E+004.6396629193E+01+
*       -8.931587497E+01               0
GRID*             156105               0-2.500000000E+004.9455975590E+01+
*       -8.820078976E+01               0
GRID*             156106               0-2.500000000E+005.2162409115E+01+
*       -8.773136602E+01               0
GRID*             156107               0-2.500000000E+005.4745144834E+01+
*       -8.748524290E+01               0
GRID*             156108               0-2.500000000E+005.7228187409E+01+
*       -8.742358941E+01               0
GRID*             156109               0-2.500000000E+005.9661823511E+01+
*       -8.769006704E+01               0
GRID*             156110               0-2.500000000E+006.2536581879E+01+
*       -8.916924417E+01               0
GRID*             156111               0-2.500000000E+006.6390065582E+01+
*       -8.884218627E+01               0
GRID*             156112               0-2.500000000E+006.6803780017E+01+
*       -9.212090009E+01               0
GRID*             156113               0-2.500000000E+006.3618331934E+01+
*       -9.267119104E+01               0
GRID*             156114               0-2.500000000E+006.0796025790E+01+
*       -9.360670951E+01               0
GRID*             156115               0-2.500000000E+005.8207624133E+01+
*       -9.425561711E+01               0
GRID*             156116               0-2.500000000E+005.5675763910E+01+
*       -9.471137301E+01               0
GRID*             156117               0-2.500000000E+005.3151730726E+01+
*       -9.504180387E+01               0
GRID*             156118               0-2.500000000E+005.0634276145E+01+
*       -9.526590011E+01               0
GRID*             156119               0-2.500000000E+004.8120254074E+01+
*       -9.536623166E+01               0
GRID*             156120               0-2.500000000E+004.5552682611E+01+
*       -9.531538582E+01               0
GRID*             156121               0-2.500000000E+004.2841790179E+01+
*       -9.533223936E+01               0
GRID*             156122               0-2.500000000E+004.0089475782E+01+
*       -9.544629395E+01               0
GRID*             156123               0-2.500000000E+003.7393974710E+01+
*       -9.565930033E+01               0
GRID*             156124               0-2.500000000E+003.4866492187E+01+
*       -9.595064935E+01               0
GRID*             156125               0-2.500000000E+003.2611597833E+01+
*       -9.619099371E+01               0
GRID*             156126               0-2.500000000E+003.0392062072E+01+
*       -9.579059668E+01               0
GRID*             156127               0-2.500000000E+003.0992068468E+01+
*       -9.337217907E+01               0
GRID*             156128               0-2.500000000E+003.7094117669E+01+
*       -9.290541135E+01               0
GRID*             156129               0-2.500000000E+003.2692999037E+01+
*       -9.443263263E+01               0
GRID*             156130               0-2.500000000E+003.4485571382E+01+
*       -9.350207003E+01               0
GRID*             156131               0-2.500000000E+005.9951328500E+01+
*       -9.113783251E+01               0
GRID*             156132               0-2.500000000E+005.8841862651E+01+
*       -8.950778841E+01               0
GRID*             156133               0-2.500000000E+005.7645986221E+01+
*       -9.183228138E+01               0
GRID*             156134               0-2.500000000E+005.7127649882E+01+
*       -8.966972993E+01               0
GRID*             156135               0-2.500000000E+003.9947939508E+01+
*       -9.258220238E+01               0
GRID*             156136               0-2.500000000E+005.5275835806E+01+
*       -9.225455112E+01               0
GRID*             156137               0-2.500000000E+005.4916643676E+01+
*       -8.989797114E+01               0
GRID*             156138               0-2.500000000E+004.2852069383E+01+
*       -9.244828869E+01               0
GRID*             156139               0-2.500000000E+005.2848632603E+01+
*       -9.257066965E+01               0
GRID*             156140               0-2.500000000E+005.2522465399E+01+
*       -9.017352391E+01               0
GRID*             156141               0-2.500000000E+005.0428531119E+01+
*       -9.280488024E+01               0
GRID*             156142               0-2.500000000E+005.0148349960E+01+
*       -9.048817912E+01               0
GRID*             156143               0-2.500000000E+004.5685840950E+01+
*       -9.250943296E+01               0
GRID*             156144               0-2.500000000E+004.8104690750E+01+
*       -9.080920319E+01               0
GRID*             156145               0-2.500000000E+004.8075093230E+01+
*       -9.289145168E+01               0
GRID*             156146               0-2.500000000E+008.5054776307E+01+
*       -3.937552478E+01               0
GRID*             156147               0-2.500000000E+008.1988141492E+01+
*       -3.927058760E+01               0
GRID*             156148               0-2.500000000E+007.8795395049E+01+
*       -3.928989787E+01               0
GRID*             156149               0-2.500000000E+007.5481619739E+01+
*       -3.956069107E+01               0
GRID*             156150               0-2.500000000E+007.2252562902E+01+
*       -4.013625020E+01               0
GRID*             156151               0-2.500000000E+006.9166539515E+01+
*       -4.056607040E+01               0
GRID*             156152               0-2.500000000E+006.6135851847E+01+
*       -4.088674929E+01               0
GRID*             156153               0-2.500000000E+006.3120266309E+01+
*       -4.113081632E+01               0
GRID*             156154               0-2.500000000E+006.0104287016E+01+
*       -4.131732060E+01               0
GRID*             156155               0-2.500000000E+005.7082603758E+01+
*       -4.145703895E+01               0
GRID*             156156               0-2.500000000E+005.4053876811E+01+
*       -4.155636256E+01               0
GRID*             156157               0-2.500000000E+005.1018350416E+01+
*       -4.161919102E+01               0
GRID*             156158               0-2.500000000E+004.7977033892E+01+
*       -4.164779897E+01               0
GRID*             156159               0-2.500000000E+004.4931506779E+01+
*       -4.164325219E+01               0
GRID*             156160               0-2.500000000E+004.1883960926E+01+
*       -4.160564076E+01               0
GRID*             156161               0-2.500000000E+003.8837308806E+01+
*       -4.153426122E+01               0
GRID*             156162               0-2.500000000E+003.5795135037E+01+
*       -4.142785393E+01               0
GRID*             156163               0-2.500000000E+003.2761396981E+01+
*       -4.128488396E+01               0
GRID*             156164               0-2.500000000E+002.9740132203E+01+
*       -4.110390803E+01               0
GRID*             156165               0-2.500000000E+002.6735038157E+01+
*       -4.088469266E+01               0
GRID*             156166               0-2.500000000E+002.3748308428E+01+
*       -4.063147067E+01               0
GRID*             156167               0-2.500000000E+002.0780155476E+01+
*       -4.036033362E+01               0
GRID*             156168               0-2.500000000E+001.7827996976E+01+
*       -4.010697664E+01               0
GRID*             156169               0-2.500000000E+001.4879633856E+01+
*       -3.988827599E+01               0
GRID*             156170               0-2.500000000E+007.9038693018E+01+
*       -3.575691369E+01               0
GRID*             156171               0-2.500000000E+007.9815523907E+01+
*       -3.178101815E+01               0
GRID*             156172               0-2.500000000E+007.8913426984E+01+
*       -2.914374761E+01               0
GRID*             156173               0-2.500000000E+008.3533279901E+01+
*       -2.952153490E+01               0
GRID*             156174               0-2.500000000E+008.2780792035E+01+
*       -3.250650247E+01               0
GRID*             156175               0-2.500000000E+008.2254786911E+01+
*       -3.592168366E+01               0
GRID*             156176               0-2.500000000E+008.0343200841E+01+
*       -2.841292250E+01               0
GRID*             156177               0-2.500000000E+008.1615771678E+01+
*       -2.915427016E+01               0
GRID*             156178               0-2.500000000E+008.5246509558E+01+
*       -3.616425065E+01               0
GRID*             156179               0-2.500000000E+008.5565686363E+01+
*       -3.288483900E+01               0
GRID*             156180               0-2.500000000E+008.5993754469E+01+
*       -2.945839725E+01               0
GRID*             156181               0-2.500000000E+007.5389442026E+01+
*       -3.598586131E+01               0
GRID*             156182               0-2.500000000E+007.2025059119E+01+
*       -3.725236546E+01               0
GRID*             156183               0-2.500000000E+006.9010537071E+01+
*       -3.780404824E+01               0
GRID*             156184               0-2.500000000E+006.6038887441E+01+
*       -3.815469707E+01               0
GRID*             156185               0-2.500000000E+006.3058580635E+01+
*       -3.840716434E+01               0
GRID*             156186               0-2.500000000E+006.0062218568E+01+
*       -3.859551998E+01               0
GRID*             156187               0-2.500000000E+005.7050641452E+01+
*       -3.873462935E+01               0
GRID*             156188               0-2.500000000E+005.4025967836E+01+
*       -3.883230266E+01               0
GRID*             156189               0-2.500000000E+005.0990262086E+01+
*       -3.889301171E+01               0
GRID*             156190               0-2.500000000E+004.7945466506E+01+
*       -3.891922815E+01               0
GRID*             156191               0-2.500000000E+004.4893647288E+01+
*       -3.891195392E+01               0
GRID*             156192               0-2.500000000E+004.1837327530E+01+
*       -3.887095280E+01               0
GRID*             156193               0-2.500000000E+003.8779756538E+01+
*       -3.879485768E+01               0
GRID*             156194               0-2.500000000E+003.5724958779E+01+
*       -3.868120503E+01               0
GRID*             156195               0-2.500000000E+003.2677765112E+01+
*       -3.852621198E+01               0
GRID*             156196               0-2.500000000E+002.9644086921E+01+
*       -3.832423869E+01               0
GRID*             156197               0-2.500000000E+002.6630548711E+01+
*       -3.806795535E+01               0
GRID*             156198               0-2.500000000E+002.3641552019E+01+
*       -3.775195359E+01               0
GRID*             156199               0-2.500000000E+002.0680662882E+01+
*       -3.739102567E+01               0
GRID*             156200               0-2.500000000E+001.7754231049E+01+
*       -3.707079434E+01               0
GRID*             156201               0-2.500000000E+001.4825283278E+01+
*       -3.673830419E+01               0
GRID*             156202               0-2.500000000E+001.4760265371E+01+
*       -3.319899137E+01               0
GRID*             156203               0-2.500000000E+001.3676875458E+01+
*       -3.003534537E+01               0
GRID*             156204               0-2.500000000E+001.5436351577E+01+
*       -2.950853771E+01               0
GRID*             156205               0-2.500000000E+001.7077625891E+01+
*       -2.924689373E+01               0
GRID*             156206               0-2.500000000E+001.8635496767E+01+
*       -2.892189901E+01               0
GRID*             156207               0-2.500000000E+001.9764881401E+01+
*       -2.829741996E+01               0
GRID*             156208               0-2.500000000E+002.1102985825E+01+
*       -2.895661915E+01               0
GRID*             156209               0-2.500000000E+002.3195783934E+01+
*       -2.951707337E+01               0
GRID*             156210               0-2.500000000E+002.6065153886E+01+
*       -3.005489173E+01               0
GRID*             156211               0-2.500000000E+002.9135547438E+01+
*       -3.033887382E+01               0
GRID*             156212               0-2.500000000E+003.2299454084E+01+
*       -3.054113286E+01               0
GRID*             156213               0-2.500000000E+003.5464139808E+01+
*       -3.068908488E+01               0
GRID*             156214               0-2.500000000E+003.8607752344E+01+
*       -3.079596707E+01               0
GRID*             156215               0-2.500000000E+004.1728739337E+01+
*       -3.086829561E+01               0
GRID*             156216               0-2.500000000E+004.4829651656E+01+
*       -3.090974960E+01               0
GRID*             156217               0-2.500000000E+004.7912472574E+01+
*       -3.092259131E+01               0
GRID*             156218               0-2.500000000E+005.0978029111E+01+
*       -3.090807994E+01               0
GRID*             156219               0-2.500000000E+005.4026092440E+01+
*       -3.086647343E+01               0
GRID*             156220               0-2.500000000E+005.7055079203E+01+
*       -3.079682637E+01               0
GRID*             156221               0-2.500000000E+006.0061412967E+01+
*       -3.069814280E+01               0
GRID*             156222               0-2.500000000E+006.3038157583E+01+
*       -3.057049705E+01               0
GRID*             156223               0-2.500000000E+006.5972488565E+01+
*       -3.041721066E+01               0
GRID*             156224               0-2.500000000E+006.8842025523E+01+
*       -3.024921966E+01               0
GRID*             156225               0-2.500000000E+007.1614306072E+01+
*       -3.008994316E+01               0
GRID*             156226               0-2.500000000E+007.4254131259E+01+
*       -2.995147034E+01               0
GRID*             156227               0-2.500000000E+007.6817949082E+01+
*       -2.966048310E+01               0
GRID*             156228               0-2.500000000E+007.6561377294E+01+
*       -3.249282481E+01               0
GRID*             156229               0-2.500000000E+002.0278872917E+01+
*       -3.113268072E+01               0
GRID*             156230               0-2.500000000E+002.0527891073E+01+
*       -3.435732758E+01               0
GRID*             156231               0-2.500000000E+001.7767664143E+01+
*       -3.143956456E+01               0
GRID*             156232               0-2.500000000E+001.7668007249E+01+
*       -3.400280057E+01               0
GRID*             156233               0-2.500000000E+001.5937179530E+01+
*       -3.147814832E+01               0
GRID*             156234               0-2.500000000E+006.8813924361E+01+
*       -3.522076561E+01               0
GRID*             156235               0-2.500000000E+006.8764695574E+01+
*       -3.272453090E+01               0
GRID*             156236               0-2.500000000E+007.1511100028E+01+
*       -3.486442216E+01               0
GRID*             156237               0-2.500000000E+007.1466182886E+01+
*       -3.250360565E+01               0
GRID*             156238               0-2.500000000E+007.3974899077E+01+
*       -3.237315465E+01               0
GRID*             156239               0-2.500000000E+007.3716571692E+01+
*       -3.451610628E+01               0
GRID*             156240               0-2.500000000E+006.5951081953E+01+
*       -3.551699979E+01               0
GRID*             156241               0-2.500000000E+006.5927326839E+01+
*       -3.294917135E+01               0
GRID*             156242               0-2.500000000E+006.3013881737E+01+
*       -3.574702723E+01               0
GRID*             156243               0-2.500000000E+006.3006065585E+01+
*       -3.314092872E+01               0
GRID*             156244               0-2.500000000E+006.0036496699E+01+
*       -3.592296205E+01               0
GRID*             156245               0-2.500000000E+006.0035978491E+01+
*       -3.329432640E+01               0
GRID*             156246               0-2.500000000E+005.7032998070E+01+
*       -3.605378297E+01               0
GRID*             156247               0-2.500000000E+005.7034530456E+01+
*       -3.341063986E+01               0
GRID*             156248               0-2.500000000E+005.4010391767E+01+
*       -3.614541250E+01               0
GRID*             156249               0-2.500000000E+005.4010533552E+01+
*       -3.349246227E+01               0
GRID*             156250               0-2.500000000E+005.0972687304E+01+
*       -3.620161253E+01               0
GRID*             156251               0-2.500000000E+005.0968630294E+01+
*       -3.354209278E+01               0
GRID*             156252               0-2.500000000E+004.7922537793E+01+
*       -3.622450842E+01               0
GRID*             156253               0-2.500000000E+004.7911403075E+01+
*       -3.356098136E+01               0
GRID*             156254               0-2.500000000E+004.4862128940E+01+
*       -3.621479050E+01               0
GRID*             156255               0-2.500000000E+004.4840433380E+01+
*       -3.354935648E+01               0
GRID*             156256               0-2.500000000E+004.1793781337E+01+
*       -3.617181629E+01               0
GRID*             156257               0-2.500000000E+004.1756887511E+01+
*       -3.350621294E+01               0
GRID*             156258               0-2.500000000E+003.8720323150E+01+
*       -3.609358823E+01               0
GRID*             156259               0-2.500000000E+003.8661857830E+01+
*       -3.342919799E+01               0
GRID*             156260               0-2.500000000E+003.5645433091E+01+
*       -3.597644934E+01               0
GRID*             156261               0-2.500000000E+003.5557180865E+01+
*       -3.331400177E+01               0
GRID*             156262               0-2.500000000E+003.2574617413E+01+
*       -3.581398622E+01               0
GRID*             156263               0-2.500000000E+003.2448229669E+01+
*       -3.315245702E+01               0
GRID*             156264               0-2.500000000E+002.9517026508E+01+
*       -3.559466560E+01               0
GRID*             156265               0-2.500000000E+002.9349808935E+01+
*       -3.292777256E+01               0
GRID*             156266               0-2.500000000E+002.6485797839E+01+
*       -3.529832753E+01               0
GRID*             156267               0-2.500000000E+002.6292409310E+01+
*       -3.260260607E+01               0
GRID*             156268               0-2.500000000E+002.3487146045E+01+
*       -3.489118520E+01               0
GRID*             156269               0-2.500000000E+002.3281728489E+01+
*       -3.206492203E+01               0
GRID*             156270               0-2.500000000E+008.4957385090E+01+
*       -4.252014887E+01               0
GRID*             156271               0-2.500000000E+008.4911328916E+01+
*       -4.560921191E+01               0
GRID*             156272               0-2.500000000E+008.4892522329E+01+
*       -4.865825685E+01               0
GRID*             156273               0-2.500000000E+008.4887389985E+01+
*       -5.168042762E+01               0
GRID*             156274               0-2.500000000E+008.4888729207E+01+
*       -5.468530886E+01               0
GRID*             156275               0-2.500000000E+008.4892909141E+01+
*       -5.767950658E+01               0
GRID*             156276               0-2.500000000E+008.4898227155E+01+
*       -6.066749826E+01               0
GRID*             156277               0-2.500000000E+008.4903966061E+01+
*       -6.365238480E+01               0
GRID*             156278               0-2.500000000E+008.1849744413E+01+
*       -6.373713599E+01               0
GRID*             156279               0-2.500000000E+007.8790458924E+01+
*       -6.382866455E+01               0
GRID*             156280               0-2.500000000E+007.5727712533E+01+
*       -6.392513036E+01               0
GRID*             156281               0-2.500000000E+007.2664058848E+01+
*       -6.402337830E+01               0
GRID*             156282               0-2.500000000E+006.9602278381E+01+
*       -6.411979562E+01               0
GRID*             156283               0-2.500000000E+006.6544781591E+01+
*       -6.421116810E+01               0
GRID*             156284               0-2.500000000E+006.3493175028E+01+
*       -6.429526940E+01               0
GRID*             156285               0-2.500000000E+006.0447934540E+01+
*       -6.437100964E+01               0
GRID*             156286               0-2.500000000E+005.7408235482E+01+
*       -6.443806642E+01               0
GRID*             156287               0-2.500000000E+005.4372121387E+01+
*       -6.449611578E+01               0
GRID*             156288               0-2.500000000E+005.1337054058E+01+
*       -6.454410259E+01               0
GRID*             156289               0-2.500000000E+004.8300658434E+01+
*       -6.457990371E+01               0
GRID*             156290               0-2.500000000E+004.5261400080E+01+
*       -6.460050964E+01               0
GRID*             156291               0-2.500000000E+004.2218991350E+01+
*       -6.460259144E+01               0
GRID*             156292               0-2.500000000E+003.9174432202E+01+
*       -6.458318829E+01               0
GRID*             156293               0-2.500000000E+003.6129737508E+01+
*       -6.454027863E+01               0
GRID*             156294               0-2.500000000E+003.3087484087E+01+
*       -6.447325648E+01               0
GRID*             156295               0-2.500000000E+003.0050284127E+01+
*       -6.438336805E+01               0
GRID*             156296               0-2.500000000E+002.7020278164E+01+
*       -6.427395817E+01               0
GRID*             156297               0-2.500000000E+002.3998766686E+01+
*       -6.415022297E+01               0
GRID*             156298               0-2.500000000E+002.0986055781E+01+
*       -6.401835408E+01               0
GRID*             156299               0-2.500000000E+001.7981494903E+01+
*       -6.388424843E+01               0
GRID*             156300               0-2.500000000E+001.4983645218E+01+
*       -6.375212359E+01               0
GRID*             156301               0-2.500000000E+001.4983884157E+01+
*       -6.077305839E+01               0
GRID*             156302               0-2.500000000E+001.4980956175E+01+
*       -5.779899299E+01               0
GRID*             156303               0-2.500000000E+001.4975242117E+01+
*       -5.482899219E+01               0
GRID*             156304               0-2.500000000E+001.4966799267E+01+
*       -5.186142347E+01               0
GRID*             156305               0-2.500000000E+001.4955067185E+01+
*       -4.889319620E+01               0
GRID*             156306               0-2.500000000E+001.4938355317E+01+
*       -4.591842745E+01               0
GRID*             156307               0-2.500000000E+001.4913440467E+01+
*       -4.292553288E+01               0
GRID*             156308               0-2.500000000E+001.7874009133E+01+
*       -4.310483937E+01               0
GRID*             156309               0-2.500000000E+002.0840080258E+01+
*       -4.331225649E+01               0
GRID*             156310               0-2.500000000E+002.3816976888E+01+
*       -4.353092250E+01               0
GRID*             156311               0-2.500000000E+002.6807330907E+01+
*       -4.374096818E+01               0
GRID*             156312               0-2.500000000E+002.9811642139E+01+
*       -4.392927720E+01               0
GRID*             156313               0-2.500000000E+003.2828766464E+01+
*       -4.408919185E+01               0
GRID*             156314               0-2.500000000E+003.5856386012E+01+
*       -4.421794053E+01               0
GRID*             156315               0-2.500000000E+003.8891636210E+01+
*       -4.431471195E+01               0
GRID*             156316               0-2.500000000E+004.1931553384E+01+
*       -4.437956205E+01               0
GRID*             156317               0-2.500000000E+004.4973408524E+01+
*       -4.441280363E+01               0
GRID*             156318               0-2.500000000E+004.8014953347E+01+
*       -4.441460864E+01               0
GRID*             156319               0-2.500000000E+005.1054543716E+01+
*       -4.438473315E+01               0
GRID*             156320               0-2.500000000E+005.4091196160E+01+
*       -4.432233152E+01               0
GRID*             156321               0-2.500000000E+005.7124700171E+01+
*       -4.422582229E+01               0
GRID*             156322               0-2.500000000E+006.0155939611E+01+
*       -4.409277575E+01               0
GRID*             156323               0-2.500000000E+006.3187671850E+01+
*       -4.391980002E+01               0
GRID*             156324               0-2.500000000E+006.6226116525E+01+
*       -4.370250571E+01               0
GRID*             156325               0-2.500000000E+006.9283572117E+01+
*       -4.343634001E+01               0
GRID*             156326               0-2.500000000E+007.2380697812E+01+
*       -4.312211056E+01               0
GRID*             156327               0-2.500000000E+007.5539400588E+01+
*       -4.278909176E+01               0
GRID*             156328               0-2.500000000E+007.8728108587E+01+
*       -4.257594468E+01               0
GRID*             156329               0-2.500000000E+008.1874729872E+01+
*       -4.249987055E+01               0
GRID*             156330               0-2.500000000E+008.1828763778E+01+
*       -4.563375683E+01               0
GRID*             156331               0-2.500000000E+008.1814678370E+01+
*       -4.870735509E+01               0
GRID*             156332               0-2.500000000E+008.1814955939E+01+
*       -5.174363339E+01               0
GRID*             156333               0-2.500000000E+008.1821320898E+01+
*       -5.475715738E+01               0
GRID*             156334               0-2.500000000E+008.1829928169E+01+
*       -5.775717786E+01               0
GRID*             156335               0-2.500000000E+008.1839136721E+01+
*       -6.074967745E+01               0
GRID*             156336               0-2.500000000E+007.8776366236E+01+
*       -6.083973744E+01               0
GRID*             156337               0-2.500000000E+007.5710511741E+01+
*       -6.093742563E+01               0
GRID*             156338               0-2.500000000E+007.2644342940E+01+
*       -6.103963695E+01               0
GRID*             156339               0-2.500000000E+006.9580548734E+01+
*       -6.114238890E+01               0
GRID*             156340               0-2.500000000E+006.6521161060E+01+
*       -6.124169399E+01               0
GRID*             156341               0-2.500000000E+006.3467300947E+01+
*       -6.133422308E+01               0
GRID*             156342               0-2.500000000E+006.0419106994E+01+
*       -6.141757760E+01               0
GRID*             156343               0-2.500000000E+005.7375804778E+01+
*       -6.149013648E+01               0
GRID*             156344               0-2.500000000E+005.4335939074E+01+
*       -6.155061693E+01               0
GRID*             156345               0-2.500000000E+005.1297766918E+01+
*       -6.159761260E+01               0
GRID*             156346               0-2.500000000E+004.8259726982E+01+
*       -6.162933357E+01               0
GRID*             156347               0-2.500000000E+004.5220854866E+01+
*       -6.164364399E+01               0
GRID*             156348               0-2.500000000E+004.2181030264E+01+
*       -6.163834924E+01               0
GRID*             156349               0-2.500000000E+003.9140999878E+01+
*       -6.161160173E+01               0
GRID*             156350               0-2.500000000E+003.6102196603E+01+
*       -6.156230857E+01               0
GRID*             156351               0-2.500000000E+003.3066429687E+01+
*       -6.149053003E+01               0
GRID*             156352               0-2.500000000E+003.0035527790E+01+
*       -6.139787275E+01               0
GRID*             156353               0-2.500000000E+002.7011001898E+01+
*       -6.128773141E+01               0
GRID*             156354               0-2.500000000E+002.3993781387E+01+
*       -6.116507803E+01               0
GRID*             156355               0-2.500000000E+002.0984058140E+01+
*       -6.103558455E+01               0
GRID*             156356               0-2.500000000E+001.7981241536E+01+
*       -6.090440154E+01               0
GRID*             156357               0-2.500000000E+001.7976144799E+01+
*       -5.793025371E+01               0
GRID*             156358               0-2.500000000E+001.7966884769E+01+
*       -5.496320754E+01               0
GRID*             156359               0-2.500000000E+001.7953349528E+01+
*       -5.200145096E+01               0
GRID*             156360               0-2.500000000E+001.7934566830E+01+
*       -4.904202135E+01               0
GRID*             156361               0-2.500000000E+001.7908216955E+01+
*       -4.607997280E+01               0
GRID*             156362               0-2.500000000E+002.0884425464E+01+
*       -4.625755053E+01               0
GRID*             156363               0-2.500000000E+002.3869031050E+01+
*       -4.644231784E+01               0
GRID*             156364               0-2.500000000E+002.6863929696E+01+
*       -4.662159530E+01               0
GRID*             156365               0-2.500000000E+002.9869698941E+01+
*       -4.678517759E+01               0
GRID*             156366               0-2.500000000E+003.2885720828E+01+
*       -4.692640216E+01               0
GRID*             156367               0-2.500000000E+003.5910476522E+01+
*       -4.704144282E+01               0
GRID*             156368               0-2.500000000E+003.8941934916E+01+
*       -4.712835611E+01               0
GRID*             156369               0-2.500000000E+004.1977911334E+01+
*       -4.718631432E+01               0
GRID*             156370               0-2.500000000E+004.5016366952E+01+
*       -4.721505326E+01               0
GRID*             156371               0-2.500000000E+004.8055638105E+01+
*       -4.721447996E+01               0
GRID*             156372               0-2.500000000E+005.1094591944E+01+
*       -4.718440610E+01               0
GRID*             156373               0-2.500000000E+005.4132740667E+01+
*       -4.712439563E+01               0
GRID*             156374               0-2.500000000E+005.7170380352E+01+
*       -4.703373145E+01               0
GRID*             156375               0-2.500000000E+006.0208841697E+01+
*       -4.691152824E+01               0
GRID*             156376               0-2.500000000E+006.3250943684E+01+
*       -4.675705837E+01               0
GRID*             156377               0-2.500000000E+006.6301645782E+01+
*       -4.657048961E+01               0
GRID*             156378               0-2.500000000E+006.9368505572E+01+
*       -4.635468972E+01               0
GRID*             156379               0-2.500000000E+007.2460440708E+01+
*       -4.611977545E+01               0
GRID*             156380               0-2.500000000E+007.5581158818E+01+
*       -4.589251138E+01               0
GRID*             156381               0-2.500000000E+007.8713889036E+01+
*       -4.572496998E+01               0
GRID*             156382               0-2.500000000E+007.8719155654E+01+
*       -4.880017583E+01               0
GRID*             156383               0-2.500000000E+007.8731853593E+01+
*       -5.183564079E+01               0
GRID*             156384               0-2.500000000E+007.8746654607E+01+
*       -5.484826082E+01               0
GRID*             156385               0-2.500000000E+007.8761334697E+01+
*       -5.784797896E+01               0
GRID*             156386               0-2.500000000E+007.5690863029E+01+
*       -5.794931190E+01               0
GRID*             156387               0-2.500000000E+007.2620613695E+01+
*       -5.805885916E+01               0
GRID*             156388               0-2.500000000E+006.9553629488E+01+
*       -5.817146613E+01               0
GRID*             156389               0-2.500000000E+006.6491818805E+01+
*       -5.828173141E+01               0
GRID*             156390               0-2.500000000E+006.3435932010E+01+
*       -5.838493808E+01               0
GRID*             156391               0-2.500000000E+006.0385742816E+01+
*       -5.847749044E+01               0
GRID*             156392               0-2.500000000E+005.7340332819E+01+
*       -5.855684219E+01               0
GRID*             156393               0-2.500000000E+005.4298401841E+01+
*       -5.862114619E+01               0
GRID*             156394               0-2.500000000E+005.1258590089E+01+
*       -5.866886158E+01               0
GRID*             156395               0-2.500000000E+004.8219789520E+01+
*       -5.869848907E+01               0
GRID*             156396               0-2.500000000E+004.5181394338E+01+
*       -5.870850999E+01               0
GRID*             156397               0-2.500000000E+004.2143436636E+01+
*       -5.869751335E+01               0
GRID*             156398               0-2.500000000E+003.9106577440E+01+
*       -5.866444260E+01               0
GRID*             156399               0-2.500000000E+003.6071963752E+01+
*       -5.860890034E+01               0
GRID*             156400               0-2.500000000E+003.3040997046E+01+
*       -5.853149679E+01               0
GRID*             156401               0-2.500000000E+003.0015068608E+01+
*       -5.843421376E+01               0
GRID*             156402               0-2.500000000E+002.6995305798E+01+
*       -5.832062996E+01               0
GRID*             156403               0-2.500000000E+002.3982359638E+01+
*       -5.819572293E+01               0
GRID*             156404               0-2.500000000E+002.0976267196E+01+
*       -5.806477128E+01               0
GRID*             156405               0-2.500000000E+002.0963005185E+01+
*       -5.510227409E+01               0
GRID*             156406               0-2.500000000E+002.0944075276E+01+
*       -5.214896214E+01               0
GRID*             156407               0-2.500000000E+002.0918123568E+01+
*       -4.920263741E+01               0
GRID*             156408               0-2.500000000E+002.3909272572E+01+
*       -4.936474217E+01               0
GRID*             156409               0-2.500000000E+002.6908844360E+01+
*       -4.952209544E+01               0
GRID*             156410               0-2.500000000E+002.9917255265E+01+
*       -4.966657315E+01               0
GRID*             156411               0-2.500000000E+003.2934087814E+01+
*       -4.979220781E+01               0
GRID*             156412               0-2.500000000E+003.5958249016E+01+
*       -4.989502665E+01               0
GRID*             156413               0-2.500000000E+003.8988227678E+01+
*       -4.997266274E+01               0
GRID*             156414               0-2.500000000E+004.2022371834E+01+
*       -5.002389792E+01               0
GRID*             156415               0-2.500000000E+004.5059145515E+01+
*       -5.004823898E+01               0
GRID*             156416               0-2.500000000E+004.8097340636E+01+
*       -5.004557585E+01               0
GRID*             156417               0-2.500000000E+005.1136233993E+01+
*       -5.001594012E+01               0
GRID*             156418               0-2.500000000E+005.4175699450E+01+
*       -4.995938008E+01               0
GRID*             156419               0-2.500000000E+005.7216304322E+01+
*       -4.987597915E+01               0
GRID*             156420               0-2.500000000E+006.0259426650E+01+
*       -4.976605915E+01               0
GRID*             156421               0-2.500000000E+006.3307402196E+01+
*       -4.963062811E+01               0
GRID*             156422               0-2.500000000E+006.6363600779E+01+
*       -4.947217968E+01               0
GRID*             156423               0-2.500000000E+006.9432085777E+01+
*       -4.929607246E+01               0
GRID*             156424               0-2.500000000E+007.2516139635E+01+
*       -4.911274866E+01               0
GRID*             156425               0-2.500000000E+007.5614885216E+01+
*       -4.894002026E+01               0
GRID*             156426               0-2.500000000E+007.5643650089E+01+
*       -5.195686178E+01               0
GRID*             156427               0-2.500000000E+007.5668463703E+01+
*       -5.495781928E+01               0
GRID*             156428               0-2.500000000E+007.2592177586E+01+
*       -5.507943289E+01               0
GRID*             156429               0-2.500000000E+006.9520896540E+01+
*       -5.520684929E+01               0
GRID*             156430               0-2.500000000E+006.6456461413E+01+
*       -5.533237552E+01               0
GRID*             156431               0-2.500000000E+006.3399111158E+01+
*       -5.544952922E+01               0
GRID*             156432               0-2.500000000E+006.0348014079E+01+
*       -5.555360661E+01               0
GRID*             156433               0-2.500000000E+005.7301837443E+01+
*       -5.564145973E+01               0
GRID*             156434               0-2.500000000E+005.4259155873E+01+
*       -5.571102123E+01               0
GRID*             156435               0-2.500000000E+005.1218727553E+01+
*       -5.576083895E+01               0
GRID*             156436               0-2.500000000E+004.8179689691E+01+
*       -5.578974995E+01               0
GRID*             156437               0-2.500000000E+004.5141687631E+01+
*       -5.579674087E+01               0
GRID*             156438               0-2.500000000E+004.2104923628E+01+
*       -5.578098126E+01               0
GRID*             156439               0-2.500000000E+003.9070111176E+01+
*       -5.574198648E+01               0
GRID*             156440               0-2.500000000E+003.6038339304E+01+
*       -5.567987049E+01               0
GRID*             156441               0-2.500000000E+003.3010872352E+01+
*       -5.559566666E+01               0
GRID*             156442               0-2.500000000E+002.9988921103E+01+
*       -5.549167059E+01               0
GRID*             156443               0-2.500000000E+002.6973418210E+01+
*       -5.537168753E+01               0
GRID*             156444               0-2.500000000E+002.3964821613E+01+
*       -5.524108299E+01               0
GRID*             156445               0-2.500000000E+002.3940632863E+01+
*       -5.229822677E+01               0
GRID*             156446               0-2.500000000E+002.6944721384E+01+
*       -5.244028601E+01               0
GRID*             156447               0-2.500000000E+002.9956438094E+01+
*       -5.257037526E+01               0
GRID*             156448               0-2.500000000E+003.2975360893E+01+
*       -5.268353742E+01               0
GRID*             156449               0-2.500000000E+003.6000563030E+01+
*       -5.277598558E+01               0
GRID*             156450               0-2.500000000E+003.9030789483E+01+
*       -5.284529893E+01               0
GRID*             156451               0-2.500000000E+004.2064685717E+01+
*       -5.289020918E+01               0
GRID*             156452               0-2.500000000E+004.5101027678E+01+
*       -5.291027728E+01               0
GRID*             156453               0-2.500000000E+004.8138920123E+01+
*       -5.290558794E+01               0
GRID*             156454               0-2.500000000E+005.1177941079E+01+
*       -5.287651662E+01               0
GRID*             156455               0-2.500000000E+005.4218224109E+01+
*       -5.282360177E+01               0
GRID*             156456               0-2.500000000E+005.7260485705E+01+
*       -5.274755809E+01               0
GRID*             156457               0-2.500000000E+006.0306012046E+01+
*       -5.264947002E+01               0
GRID*             156458               0-2.500000000E+006.3356597179E+01+
*       -5.253119470E+01               0
GRID*             156459               0-2.500000000E+006.6414358214E+01+
*       -5.239598761E+01               0
GRID*             156460               0-2.500000000E+006.9481246560E+01+
*       -5.224934442E+01               0
GRID*             156461               0-2.500000000E+007.2558012781E+01+
*       -5.209994380E+01               0
GRID*             156462               0-2.500000000E+001.2828590831E+01+
*       -1.616594573E+01               0
GRID*             156463               0-2.500000000E+001.4088066699E+01+
*       -1.524794405E+01               0
GRID*             156464               0-2.500000000E+001.2504772279E+01+
*       -2.263960046E+01               0
GRID*             156465               0-2.500000000E+001.2466247310E+01+
*       -2.401958721E+01               0
GRID*             156466               0-2.500000000E+008.6024143949E+01+
*       -1.131598452E+02               0
GRID*             156467               0-2.500000000E+008.7490761009E+01+
*       -1.130937010E+02               0
GRID*             156468               0-2.500000000E+008.4522974678E+01+
*       -1.132571351E+02               0
GRID*             156469               0-2.500000000E+008.1905924522E+01+
*       -1.720776483E+01               0
GRID*             156470               0-2.500000000E+008.7178373767E+01+
*       -3.213670009E+02               0
GRID*             156471               0-2.500000000E+001.8097662001E+01+
*       -3.254209453E+02               0
GRID*             156472               0-2.500000000E+001.2796809526E+01+
*       -3.184751366E+02               0
GRID*             156473               0-2.500000000E+001.8100002289E+01+
*       -1.889999890E+01               0
GRID*             156474               0-2.500000000E+001.6599999428E+01+
*       -1.889999890E+01               0
GRID*             156475               0-2.500000000E+001.7350000858E+01+
*       -1.814999819E+01               0
GRID*             156476               0-2.500000000E+001.5099996567E+01+
*       -1.889999890E+01               0
GRID*             156477               0-2.500000000E+001.5849997997E+01+
*       -1.814999819E+01               0
GRID*             156478               0-2.500000000E+001.4349995852E+01+
*       -1.964999962E+01               0
GRID*             156479               0-2.500000000E+001.3599995136E+01+
*       -1.889999890E+01               0
GRID*             156480               0-2.500000000E+001.4349995852E+01+
*       -1.814999819E+01               0
GRID*             156481               0-2.500000000E+001.4349996209E+01+
*       -2.114999962E+01               0
GRID*             156482               0-2.500000000E+001.3599995494E+01+
*       -2.039999962E+01               0
GRID*             156483               0-2.500000000E+001.4349996567E+01+
*       -2.264999962E+01               0
GRID*             156484               0-2.500000000E+001.3599996209E+01+
*       -2.189999962E+01               0
GRID*             156485               0-2.500000000E+001.4349996209E+01+
*       -2.414999962E+01               0
GRID*             156486               0-2.500000000E+001.3599996209E+01+
*       -2.339999962E+01               0
GRID*             156487               0-2.500000000E+001.4349995852E+01+
*       -2.564999962E+01               0
GRID*             156488               0-2.500000000E+001.3599995494E+01+
*       -2.489999962E+01               0
GRID*             156489               0-2.500000000E+001.5099996567E+01+
*       -2.640000033E+01               0
GRID*             156490               0-2.500000000E+001.4349995852E+01+
*       -2.715000105E+01               0
GRID*             156491               0-2.500000000E+001.3599995136E+01+
*       -2.640000033E+01               0
GRID*             156492               0-2.500000000E+001.6599999428E+01+
*       -2.640000033E+01               0
GRID*             156493               0-2.500000000E+001.5849997997E+01+
*       -2.715000105E+01               0
GRID*             156494               0-2.500000000E+001.8100002289E+01+
*       -2.640000033E+01               0
GRID*             156495               0-2.500000000E+001.7350000858E+01+
*       -2.715000105E+01               0
GRID*             156496               0-2.500000000E+001.9600002289E+01+
*       -2.639999998E+01               0
GRID*             156497               0-2.500000000E+001.8850002289E+01+
*       -2.715000069E+01               0
GRID*             156498               0-2.500000000E+002.1100002289E+01+
*       -2.639999962E+01               0
GRID*             156499               0-2.500000000E+002.0350002289E+01+
*       -2.714999998E+01               0
GRID*             156500               0-2.500000000E+002.1850002289E+01+
*       -2.564999962E+01               0
GRID*             156501               0-2.500000000E+002.2600002289E+01+
*       -2.639999962E+01               0
GRID*             156502               0-2.500000000E+002.1850002289E+01+
*       -2.714999962E+01               0
GRID*             156503               0-2.500000000E+002.1850002289E+01+
*       -2.414999962E+01               0
GRID*             156504               0-2.500000000E+002.2600002289E+01+
*       -2.489999962E+01               0
GRID*             156505               0-2.500000000E+002.1850002289E+01+
*       -2.264999962E+01               0
GRID*             156506               0-2.500000000E+002.2600002289E+01+
*       -2.339999962E+01               0
GRID*             156507               0-2.500000000E+002.1850002289E+01+
*       -2.114999962E+01               0
GRID*             156508               0-2.500000000E+002.2600002289E+01+
*       -2.189999962E+01               0
GRID*             156509               0-2.500000000E+002.1850002289E+01+
*       -1.964999962E+01               0
GRID*             156510               0-2.500000000E+002.2600002289E+01+
*       -2.039999962E+01               0
GRID*             156511               0-2.500000000E+002.1100002289E+01+
*       -1.889999962E+01               0
GRID*             156512               0-2.500000000E+002.1850002289E+01+
*       -1.814999962E+01               0
GRID*             156513               0-2.500000000E+002.2600002289E+01+
*       -1.889999962E+01               0
GRID*             156514               0-2.500000000E+001.9600002289E+01+
*       -1.889999926E+01               0
GRID*             156515               0-2.500000000E+002.0350002289E+01+
*       -1.814999926E+01               0
GRID*             156516               0-2.500000000E+001.8850002289E+01+
*       -1.814999855E+01               0
GRID*             156517               0-2.500000000E+001.4349996209E+01+
*       -3.215000000E+02               0
GRID*             156518               0-2.500000000E+001.4349995852E+01+
*       -3.230000000E+02               0
GRID*             156519               0-2.500000000E+001.3599995494E+01+
*       -3.222500000E+02               0
GRID*             156520               0-2.500000000E+001.5099996567E+01+
*       -3.237500007E+02               0
GRID*             156521               0-2.500000000E+001.4349995852E+01+
*       -3.245000014E+02               0
GRID*             156522               0-2.500000000E+001.3599995136E+01+
*       -3.237500007E+02               0
GRID*             156523               0-2.500000000E+001.6599999428E+01+
*       -3.237500007E+02               0
GRID*             156524               0-2.500000000E+001.5849997997E+01+
*       -3.245000014E+02               0
GRID*             156525               0-2.500000000E+001.8100002289E+01+
*       -3.237500007E+02               0
GRID*             156526               0-2.500000000E+001.7350000858E+01+
*       -3.245000014E+02               0
GRID*             156527               0-2.500000000E+001.9600002289E+01+
*       -3.237500004E+02               0
GRID*             156528               0-2.500000000E+001.8850002289E+01+
*       -3.245000011E+02               0
GRID*             156529               0-2.500000000E+002.1100002289E+01+
*       -3.237500000E+02               0
GRID*             156530               0-2.500000000E+002.0350002289E+01+
*       -3.245000004E+02               0
GRID*             156531               0-2.500000000E+002.1850002289E+01+
*       -3.230000000E+02               0
GRID*             156532               0-2.500000000E+002.2600002289E+01+
*       -3.237500000E+02               0
GRID*             156533               0-2.500000000E+002.1850002289E+01+
*       -3.245000000E+02               0
GRID*             156534               0-2.500000000E+002.1850002289E+01+
*       -3.215000000E+02               0
GRID*             156535               0-2.500000000E+002.2600002289E+01+
*       -3.222500000E+02               0
GRID*             156536               0-2.500000000E+002.1850002289E+01+
*       -3.200000000E+02               0
GRID*             156537               0-2.500000000E+002.2600002289E+01+
*       -3.207500000E+02               0
GRID*             156538               0-2.500000000E+002.1850002289E+01+
*       -3.185000000E+02               0
GRID*             156539               0-2.500000000E+002.2600002289E+01+
*       -3.192500000E+02               0
GRID*             156540               0-2.500000000E+002.1850002289E+01+
*       -3.170000000E+02               0
GRID*             156541               0-2.500000000E+002.2600002289E+01+
*       -3.177500000E+02               0
GRID*             156542               0-2.500000000E+002.1100002289E+01+
*       -3.162500000E+02               0
GRID*             156543               0-2.500000000E+002.1850002289E+01+
*       -3.155000000E+02               0
GRID*             156544               0-2.500000000E+002.2600002289E+01+
*       -3.162500000E+02               0
GRID*             156545               0-2.500000000E+001.9600002289E+01+
*       -3.162499996E+02               0
GRID*             156546               0-2.500000000E+002.0350002289E+01+
*       -3.154999996E+02               0
GRID*             156547               0-2.500000000E+001.8100002289E+01+
*       -3.162499993E+02               0
GRID*             156548               0-2.500000000E+001.8850002289E+01+
*       -3.154999989E+02               0
GRID*             156549               0-2.500000000E+001.6599999428E+01+
*       -3.162499993E+02               0
GRID*             156550               0-2.500000000E+001.7350000858E+01+
*       -3.154999986E+02               0
GRID*             156551               0-2.500000000E+001.5099996567E+01+
*       -3.162499993E+02               0
GRID*             156552               0-2.500000000E+001.5849997997E+01+
*       -3.154999986E+02               0
GRID*             156553               0-2.500000000E+001.4349995852E+01+
*       -3.170000000E+02               0
GRID*             156554               0-2.500000000E+001.3599995136E+01+
*       -3.162499993E+02               0
GRID*             156555               0-2.500000000E+001.4349995852E+01+
*       -3.154999986E+02               0
GRID*             156556               0-2.500000000E+001.4349996209E+01+
*       -3.185000000E+02               0
GRID*             156557               0-2.500000000E+001.3599995494E+01+
*       -3.177500000E+02               0
GRID*             156558               0-2.500000000E+001.4349996567E+01+
*       -3.200000000E+02               0
GRID*             156559               0-2.500000000E+001.3599996209E+01+
*       -3.192500000E+02               0
GRID*             156560               0-2.500000000E+001.3599996209E+01+
*       -3.207500000E+02               0
GRID*             156561               0-2.500000000E+008.5650001526E+01+
*       -3.200000000E+02               0
GRID*             156562               0-2.500000000E+008.5650001526E+01+
*       -3.185000000E+02               0
GRID*             156563               0-2.500000000E+008.6400001526E+01+
*       -3.192500000E+02               0
GRID*             156564               0-2.500000000E+008.5650001526E+01+
*       -3.170000000E+02               0
GRID*             156565               0-2.500000000E+008.6400001526E+01+
*       -3.177500000E+02               0
GRID*             156566               0-2.500000000E+008.4900001526E+01+
*       -3.162500000E+02               0
GRID*             156567               0-2.500000000E+008.5650001526E+01+
*       -3.155000000E+02               0
GRID*             156568               0-2.500000000E+008.6400001526E+01+
*       -3.162500000E+02               0
GRID*             156569               0-2.500000000E+008.3400001526E+01+
*       -3.162500000E+02               0
GRID*             156570               0-2.500000000E+008.4150001526E+01+
*       -3.155000000E+02               0
GRID*             156571               0-2.500000000E+008.1900001526E+01+
*       -3.162500000E+02               0
GRID*             156572               0-2.500000000E+008.2650001526E+01+
*       -3.155000000E+02               0
GRID*             156573               0-2.500000000E+008.0400001526E+01+
*       -3.162500000E+02               0
GRID*             156574               0-2.500000000E+008.1150001526E+01+
*       -3.155000000E+02               0
GRID*             156575               0-2.500000000E+007.8900001526E+01+
*       -3.162500000E+02               0
GRID*             156576               0-2.500000000E+007.9650001526E+01+
*       -3.155000000E+02               0
GRID*             156577               0-2.500000000E+007.8150001526E+01+
*       -3.170000000E+02               0
GRID*             156578               0-2.500000000E+007.7400001526E+01+
*       -3.162500000E+02               0
GRID*             156579               0-2.500000000E+007.8150001526E+01+
*       -3.155000000E+02               0
GRID*             156580               0-2.500000000E+007.8150001526E+01+
*       -3.185000000E+02               0
GRID*             156581               0-2.500000000E+007.7400001526E+01+
*       -3.177500000E+02               0
GRID*             156582               0-2.500000000E+007.8150001526E+01+
*       -3.200000000E+02               0
GRID*             156583               0-2.500000000E+007.7400001526E+01+
*       -3.192500000E+02               0
GRID*             156584               0-2.500000000E+007.8150001526E+01+
*       -3.215000000E+02               0
GRID*             156585               0-2.500000000E+007.7400001526E+01+
*       -3.207500000E+02               0
GRID*             156586               0-2.500000000E+007.8150001526E+01+
*       -3.230000000E+02               0
GRID*             156587               0-2.500000000E+007.7400001526E+01+
*       -3.222500000E+02               0
GRID*             156588               0-2.500000000E+007.8900001526E+01+
*       -3.237500000E+02               0
GRID*             156589               0-2.500000000E+007.8150001526E+01+
*       -3.245000000E+02               0
GRID*             156590               0-2.500000000E+007.7400001526E+01+
*       -3.237500000E+02               0
GRID*             156591               0-2.500000000E+008.0400001526E+01+
*       -3.237500000E+02               0
GRID*             156592               0-2.500000000E+007.9650001526E+01+
*       -3.245000000E+02               0
GRID*             156593               0-2.500000000E+008.1900001526E+01+
*       -3.237500000E+02               0
GRID*             156594               0-2.500000000E+008.1150001526E+01+
*       -3.245000000E+02               0
GRID*             156595               0-2.500000000E+008.3400001526E+01+
*       -3.237500000E+02               0
GRID*             156596               0-2.500000000E+008.2650001526E+01+
*       -3.245000000E+02               0
GRID*             156597               0-2.500000000E+008.4900001526E+01+
*       -3.237500000E+02               0
GRID*             156598               0-2.500000000E+008.4150001526E+01+
*       -3.245000000E+02               0
GRID*             156599               0-2.500000000E+008.5650001526E+01+
*       -3.230000000E+02               0
GRID*             156600               0-2.500000000E+008.6400001526E+01+
*       -3.237500000E+02               0
GRID*             156601               0-2.500000000E+008.5650001526E+01+
*       -3.245000000E+02               0
GRID*             156602               0-2.500000000E+008.5650001526E+01+
*       -3.215000000E+02               0
GRID*             156603               0-2.500000000E+008.6400001526E+01+
*       -3.222500000E+02               0
GRID*             156604               0-2.500000000E+008.6400001526E+01+
*       -3.207500000E+02               0
GRID*             156605               0-2.500000000E+008.5650001526E+01+
*       -2.114999962E+01               0
GRID*             156606               0-2.500000000E+008.5650001526E+01+
*       -1.964999962E+01               0
GRID*             156607               0-2.500000000E+008.6400001526E+01+
*       -2.039999962E+01               0
GRID*             156608               0-2.500000000E+008.4900001526E+01+
*       -1.889999962E+01               0
GRID*             156609               0-2.500000000E+008.5650001526E+01+
*       -1.814999962E+01               0
GRID*             156610               0-2.500000000E+008.6400001526E+01+
*       -1.889999962E+01               0
GRID*             156611               0-2.500000000E+008.3400001526E+01+
*       -1.889999962E+01               0
GRID*             156612               0-2.500000000E+008.4150001526E+01+
*       -1.814999962E+01               0
GRID*             156613               0-2.500000000E+008.1900001526E+01+
*       -1.889999962E+01               0
GRID*             156614               0-2.500000000E+008.2650001526E+01+
*       -1.814999962E+01               0
GRID*             156615               0-2.500000000E+008.0400001526E+01+
*       -1.889999962E+01               0
GRID*             156616               0-2.500000000E+008.1150001526E+01+
*       -1.814999962E+01               0
GRID*             156617               0-2.500000000E+007.8900001526E+01+
*       -1.889999962E+01               0
GRID*             156618               0-2.500000000E+007.9650001526E+01+
*       -1.814999962E+01               0
GRID*             156619               0-2.500000000E+007.8150001526E+01+
*       -1.964999962E+01               0
GRID*             156620               0-2.500000000E+007.7400001526E+01+
*       -1.889999962E+01               0
GRID*             156621               0-2.500000000E+007.8150001526E+01+
*       -1.814999962E+01               0
GRID*             156622               0-2.500000000E+007.8150001526E+01+
*       -2.114999962E+01               0
GRID*             156623               0-2.500000000E+007.7400001526E+01+
*       -2.039999962E+01               0
GRID*             156624               0-2.500000000E+007.8150001526E+01+
*       -2.264999962E+01               0
GRID*             156625               0-2.500000000E+007.7400001526E+01+
*       -2.189999962E+01               0
GRID*             156626               0-2.500000000E+007.8150001526E+01+
*       -2.414999962E+01               0
GRID*             156627               0-2.500000000E+007.7400001526E+01+
*       -2.339999962E+01               0
GRID*             156628               0-2.500000000E+007.8150001526E+01+
*       -2.564999962E+01               0
GRID*             156629               0-2.500000000E+007.7400001526E+01+
*       -2.489999962E+01               0
GRID*             156630               0-2.500000000E+007.8900001526E+01+
*       -2.639999962E+01               0
GRID*             156631               0-2.500000000E+007.8150001526E+01+
*       -2.714999962E+01               0
GRID*             156632               0-2.500000000E+007.7400001526E+01+
*       -2.639999962E+01               0
GRID*             156633               0-2.500000000E+008.0400001526E+01+
*       -2.639999962E+01               0
GRID*             156634               0-2.500000000E+007.9650001526E+01+
*       -2.714999962E+01               0
GRID*             156635               0-2.500000000E+008.1900001526E+01+
*       -2.639999962E+01               0
GRID*             156636               0-2.500000000E+008.1150001526E+01+
*       -2.714999962E+01               0
GRID*             156637               0-2.500000000E+008.3400001526E+01+
*       -2.639999962E+01               0
GRID*             156638               0-2.500000000E+008.2650001526E+01+
*       -2.714999962E+01               0
GRID*             156639               0-2.500000000E+008.4900001526E+01+
*       -2.639999962E+01               0
GRID*             156640               0-2.500000000E+008.4150001526E+01+
*       -2.714999962E+01               0
GRID*             156641               0-2.500000000E+008.5650001526E+01+
*       -2.564999962E+01               0
GRID*             156642               0-2.500000000E+008.6400001526E+01+
*       -2.639999962E+01               0
GRID*             156643               0-2.500000000E+008.5650001526E+01+
*       -2.714999962E+01               0
GRID*             156644               0-2.500000000E+008.5650001526E+01+
*       -2.414999962E+01               0
GRID*             156645               0-2.500000000E+008.6400001526E+01+
*       -2.489999962E+01               0
GRID*             156646               0-2.500000000E+008.5650001526E+01+
*       -2.264999962E+01               0
GRID*             156647               0-2.500000000E+008.6400001526E+01+
*       -2.339999962E+01               0
GRID*             156648               0-2.500000000E+008.6400001526E+01+
*       -2.189999962E+01               0
GRID*             156649               0-2.500000000E+008.7916651980E+01+
*       -1.142309518E+01               0
GRID*             156650               0-2.500000000E+008.9435170534E+01+
*       -1.290920629E+01               0
GRID*             156651               0-2.500000000E+008.9316289443E+01+
*       -1.590244121E+01               0
GRID*             156652               0-2.500000000E+008.7751459977E+01+
*       -1.435331416E+01               0
GRID*             156653               0-2.500000000E+008.9504714838E+01+
*       -1.888144352E+01               0
GRID*             156654               0-2.500000000E+008.7821004281E+01+
*       -1.735332918E+01               0
GRID*             156655               0-2.500000000E+008.9592833021E+01+
*       -2.189020549E+01               0
GRID*             156656               0-2.500000000E+008.8097547859E+01+
*       -2.036887123E+01               0
GRID*             156657               0-2.500000000E+008.9692325982E+01+
*       -2.483728451E+01               0
GRID*             156658               0-2.500000000E+008.8285159002E+01+
*       -2.335249000E+01               0
GRID*             156659               0-2.500000000E+008.9981983829E+01+
*       -2.773287917E+01               0
GRID*             156660               0-2.500000000E+008.8674309810E+01+
*       -2.622294146E+01               0
GRID*             156661               0-2.500000000E+008.9760693332E+01+
*       -3.054461712E+01               0
GRID*             156662               0-2.500000000E+008.8742677161E+01+
*       -2.895805184E+01               0
GRID*             156663               0-2.500000000E+008.9646574193E+01+
*       -3.356842236E+01               0
GRID*             156664               0-2.500000000E+008.8407267525E+01+
*       -3.182137281E+01               0
GRID*             156665               0-2.500000000E+008.9569652789E+01+
*       -3.660426477E+01               0
GRID*             156666               0-2.500000000E+008.8216226982E+01+
*       -3.490879824E+01               0
GRID*             156667               0-2.500000000E+008.9521941230E+01+
*       -3.963151581E+01               0
GRID*             156668               0-2.500000000E+008.8091594019E+01+
*       -3.799966948E+01               0
GRID*             156669               0-2.500000000E+008.9495547741E+01+
*       -4.264556349E+01               0
GRID*             156670               0-2.500000000E+008.8017488971E+01+
*       -4.106874597E+01               0
GRID*             156671               0-2.500000000E+008.9482138407E+01+
*       -4.564740691E+01               0
GRID*             156672               0-2.500000000E+008.7977686149E+01+
*       -4.411241484E+01               0
GRID*             156673               0-2.500000000E+008.9476098048E+01+
*       -4.863974624E+01               0
GRID*             156674               0-2.500000000E+008.7958236455E+01+
*       -4.713437537E+01               0
GRID*             156675               0-2.500000000E+008.9473982318E+01+
*       -5.162533116E+01               0
GRID*             156676               0-2.500000000E+008.7950080366E+01+
*       -5.014007739E+01               0
GRID*             156677               0-2.500000000E+008.9473829444E+01+
*       -5.460639532E+01               0
GRID*             156678               0-2.500000000E+008.7947811762E+01+
*       -5.313450425E+01               0
GRID*             156679               0-2.500000000E+008.9474597593E+01+
*       -5.758458097E+01               0
GRID*             156680               0-2.500000000E+008.7948427036E+01+
*       -5.612153184E+01               0
GRID*             156681               0-2.500000000E+008.9475780799E+01+
*       -6.056103673E+01               0
GRID*             156682               0-2.500000000E+008.7950378391E+01+
*       -5.910395103E+01               0
GRID*             156683               0-2.500000000E+008.9477169825E+01+
*       -6.353654965E+01               0
GRID*             156684               0-2.500000000E+008.7952950624E+01+
*       -6.208369749E+01               0
GRID*             156685               0-2.500000000E+008.9478741917E+01+
*       -6.651162409E+01               0
GRID*             156686               0-2.500000000E+008.7955911742E+01+
*       -6.506206263E+01               0
GRID*             156687               0-2.500000000E+008.9480245211E+01+
*       -6.948703171E+01               0
GRID*             156688               0-2.500000000E+008.7958987128E+01+
*       -6.804032246E+01               0
GRID*             156689               0-2.500000000E+008.9482088023E+01+
*       -7.246281560E+01               0
GRID*             156690               0-2.500000000E+008.7962333234E+01+
*       -7.101929175E+01               0
GRID*             156691               0-2.500000000E+008.9484486892E+01+
*       -7.543931013E+01               0
GRID*             156692               0-2.500000000E+008.7966574916E+01+
*       -7.399934796E+01               0
GRID*             156693               0-2.500000000E+008.9487865910E+01+
*       -7.841663417E+01               0
GRID*             156694               0-2.500000000E+008.7972352803E+01+
*       -7.698094430E+01               0
GRID*             156695               0-2.500000000E+008.9492768883E+01+
*       -8.139478134E+01               0
GRID*             156696               0-2.500000000E+008.7980634794E+01+
*       -7.996419330E+01               0
GRID*             156697               0-2.500000000E+008.9499797184E+01+
*       -8.437362387E+01               0
GRID*             156698               0-2.500000000E+008.7992566067E+01+
*       -8.294896077E+01               0
GRID*             156699               0-2.500000000E+008.9509520688E+01+
*       -8.735290979E+01               0
GRID*             156700               0-2.500000000E+008.8009317872E+01+
*       -8.593486700E+01               0
GRID*             156701               0-2.500000000E+008.9522349619E+01+
*       -9.033230285E+01               0
GRID*             156702               0-2.500000000E+008.8031870306E+01+
*       -8.892132376E+01               0
GRID*             156703               0-2.500000000E+008.9538394609E+01+
*       -9.331148200E+01               0
GRID*             156704               0-2.500000000E+008.8060744227E+01+
*       -9.190767374E+01               0
GRID*             156705               0-2.500000000E+008.9557466499E+01+
*       -9.629024787E+01               0
GRID*             156706               0-2.500000000E+008.8095861108E+01+
*       -9.489339654E+01               0
GRID*             156707               0-2.500000000E+008.9579367034E+01+
*       -9.926859697E+01               0
GRID*             156708               0-2.500000000E+008.8136833533E+01+
*       -9.787828928E+01               0
GRID*             156709               0-2.500000000E+008.9604358605E+01+
*       -1.022470660E+02               0
GRID*             156710               0-2.500000000E+008.8183725640E+01+
*       -1.008628852E+02               0
GRID*             156711               0-2.500000000E+008.9633479547E+01+
*       -1.052286120E+02               0
GRID*             156712               0-2.500000000E+008.8237838153E+01+
*       -1.038506780E+02               0
GRID*             156713               0-2.500000000E+008.9668402916E+01+
*       -1.082283037E+02               0
GRID*             156714               0-2.500000000E+008.8301882464E+01+
*       -1.068596934E+02               0
GRID*             156715               0-2.500000000E+008.9709493363E+01+
*       -1.113360704E+02               0
GRID*             156716               0-2.500000000E+008.8377896280E+01+
*       -1.099949296E+02               0
GRID*             156717               0-2.500000000E+009.0126907772E+01+
*       -1.142219821E+02               0
GRID*             156718               0-2.500000000E+008.8836401136E+01+
*       -1.130163858E+02               0
GRID*             156719               0-2.500000000E+008.9376907772E+01+
*       -1.157080932E+02               0
GRID*             156720               0-2.500000000E+008.7869161100E+01+
*       -1.159238367E+02               0
GRID*             156721               0-2.500000000E+008.8496068872E+01+
*       -1.146319299E+02               0
GRID*             156722               0-2.500000000E+008.6350681988E+01+
*       -1.159906817E+02               0
GRID*             156723               0-2.500000000E+008.6969843088E+01+
*       -1.149145184E+02               0
GRID*             156724               0-2.500000000E+008.4789604612E+01+
*       -1.159836862E+02               0
GRID*             156725               0-2.500000000E+008.5390286600E+01+
*       -1.149743679E+02               0
GRID*             156726               0-2.500000000E+008.3913957470E+01+
*       -1.168552781E+02               0
GRID*             156727               0-2.500000000E+008.2780194840E+01+
*       -1.156217791E+02               0
GRID*             156728               0-2.500000000E+008.3655841982E+01+
*       -1.147501872E+02               0
GRID*             156729               0-2.500000000E+008.3994237391E+01+
*       -1.185298210E+02               0
GRID*             156730               0-2.500000000E+008.2908194860E+01+
*       -1.176350991E+02               0
GRID*             156731               0-2.500000000E+008.4100513607E+01+
*       -1.201143604E+02               0
GRID*             156732               0-2.500000000E+008.3094750998E+01+
*       -1.193941814E+02               0
GRID*             156733               0-2.500000000E+008.4214500636E+01+
*       -1.216214309E+02               0
GRID*             156734               0-2.500000000E+008.3315014243E+01+
*       -1.209857912E+02               0
GRID*             156735               0-2.500000000E+008.4134534282E+01+
*       -1.231850494E+02               0
GRID*             156736               0-2.500000000E+008.3349034918E+01+
*       -1.225564803E+02               0
GRID*             156737               0-2.500000000E+008.4891757414E+01+
*       -1.240365053E+02               0
GRID*             156738               0-2.500000000E+008.3948984129E+01+
*       -1.252821649E+02               0
GRID*             156739               0-2.500000000E+008.3191760998E+01+
*       -1.244307090E+02               0
GRID*             156740               0-2.500000000E+008.6415517398E+01+
*       -1.240183364E+02               0
GRID*             156741               0-2.500000000E+008.5557274812E+01+
*       -1.250548417E+02               0
GRID*             156742               0-2.500000000E+008.7913958077E+01+
*       -1.240826967E+02               0
GRID*             156743               0-2.500000000E+008.7079475475E+01+
*       -1.251010332E+02               0
GRID*             156744               0-2.500000000E+008.9404048308E+01+
*       -1.243034998E+02               0
GRID*             156745               0-2.500000000E+008.8568006385E+01+
*       -1.253861965E+02               0
GRID*             156746               0-2.500000000E+009.0154048308E+01+
*       -1.258196288E+02               0
GRID*             156747               0-2.500000000E+008.9769359212E+01+
*       -1.287569395E+02               0
GRID*             156748               0-2.500000000E+008.8923407520E+01+
*       -1.270281813E+02               0
GRID*             156749               0-2.500000000E+008.9730619023E+01+
*       -1.319492484E+02               0
GRID*             156750               0-2.500000000E+008.8499978235E+01+
*       -1.301255427E+02               0
GRID*             156751               0-2.500000000E+008.9695702052E+01+
*       -1.350205645E+02               0
GRID*             156752               0-2.500000000E+008.8426321075E+01+
*       -1.333569096E+02               0
GRID*             156753               0-2.500000000E+008.9666238898E+01+
*       -1.380692861E+02               0
GRID*             156754               0-2.500000000E+008.8361940951E+01+
*       -1.364446893E+02               0
GRID*             156755               0-2.500000000E+008.9641225924E+01+
*       -1.411119820E+02               0
GRID*             156756               0-2.500000000E+008.8307464822E+01+
*       -1.395038488E+02               0
GRID*             156757               0-2.500000000E+008.9619734279E+01+
*       -1.441524562E+02               0
GRID*             156758               0-2.500000000E+008.8260960203E+01+
*       -1.425547608E+02               0
GRID*             156759               0-2.500000000E+008.9601117412E+01+
*       -1.471918677E+02               0
GRID*             156760               0-2.500000000E+008.8220851691E+01+
*       -1.456023884E+02               0
GRID*             156761               0-2.500000000E+008.9584917304E+01+
*       -1.502307012E+02               0
GRID*             156762               0-2.500000000E+008.8186034715E+01+
*       -1.486483753E+02               0
GRID*             156763               0-2.500000000E+008.9570790633E+01+
*       -1.532692427E+02               0
GRID*             156764               0-2.500000000E+008.8155707936E+01+
*       -1.516934923E+02               0
GRID*             156765               0-2.500000000E+008.9558478091E+01+
*       -1.563077161E+02               0
GRID*             156766               0-2.500000000E+008.8129268724E+01+
*       -1.547382492E+02               0
GRID*             156767               0-2.500000000E+008.9547800688E+01+
*       -1.593463226E+02               0
GRID*             156768               0-2.500000000E+008.8106278779E+01+
*       -1.577830710E+02               0
GRID*             156769               0-2.500000000E+008.9538668389E+01+
*       -1.623852432E+02               0
GRID*             156770               0-2.500000000E+008.8086469077E+01+
*       -1.608283400E+02               0
GRID*             156771               0-2.500000000E+008.9531090226E+01+
*       -1.654246233E+02               0
GRID*             156772               0-2.500000000E+008.8069758615E+01+
*       -1.638743827E+02               0
GRID*             156773               0-2.500000000E+008.9525176779E+01+
*       -1.684645481E+02               0
GRID*             156774               0-2.500000000E+008.8056267004E+01+
*       -1.669214295E+02               0
GRID*             156775               0-2.500000000E+008.9521126649E+01+
*       -1.715050167E+02               0
GRID*             156776               0-2.500000000E+008.8046303427E+01+
*       -1.699695648E+02               0
GRID*             156777               0-2.500000000E+008.9519190969E+01+
*       -1.745459265E+02               0
GRID*             156778               0-2.500000000E+008.8040317617E+01+
*       -1.730186851E+02               0
GRID*             156779               0-2.500000000E+008.9519617996E+01+
*       -1.775870813E+02               0
GRID*             156780               0-2.500000000E+008.8038808964E+01+
*       -1.760684916E+02               0
GRID*             156781               0-2.500000000E+008.9522594223E+01+
*       -1.806282294E+02               0
GRID*             156782               0-2.500000000E+008.8042212218E+01+
*       -1.791185365E+02               0
GRID*             156783               0-2.500000000E+008.9528212556E+01+
*       -1.836691274E+02               0
GRID*             156784               0-2.500000000E+008.8050806778E+01+
*       -1.821683245E+02               0
GRID*             156785               0-2.500000000E+008.9536490805E+01+
*       -1.867096036E+02               0
GRID*             156786               0-2.500000000E+008.8064703360E+01+
*       -1.852174407E+02               0
GRID*             156787               0-2.500000000E+008.9547410647E+01+
*       -1.897495983E+02               0
GRID*             156788               0-2.500000000E+008.8083901452E+01+
*       -1.882656535E+02               0
GRID*             156789               0-2.500000000E+008.9560912746E+01+
*       -1.927891825E+02               0
GRID*             156790               0-2.500000000E+008.8108323393E+01+
*       -1.913129743E+02               0
GRID*             156791               0-2.500000000E+008.9576888454E+01+
*       -1.958285747E+02               0
GRID*             156792               0-2.500000000E+008.8137801200E+01+
*       -1.943596927E+02               0
GRID*             156793               0-2.500000000E+008.9595348114E+01+
*       -1.988681833E+02               0
GRID*             156794               0-2.500000000E+008.8172236568E+01+
*       -1.974064354E+02               0
GRID*             156795               0-2.500000000E+008.9616783482E+01+
*       -2.019089839E+02               0
GRID*             156796               0-2.500000000E+008.8212131596E+01+
*       -2.004545866E+02               0
GRID*             156797               0-2.500000000E+008.9642461990E+01+
*       -2.049545111E+02               0
GRID*             156798               0-2.500000000E+008.8259245472E+01+
*       -2.035086564E+02               0
GRID*             156799               0-2.500000000E+008.9674314601E+01+
*       -2.080210202E+02               0
GRID*             156800               0-2.500000000E+008.8316776592E+01+
*       -2.065884345E+02               0
GRID*             156801               0-2.500000000E+008.9712858199E+01+
*       -2.112049436E+02               0
GRID*             156802               0-2.500000000E+008.8387172800E+01+
*       -2.098066089E+02               0
GRID*             156803               0-2.500000000E+009.0129068030E+01+
*       -2.141601843E+02               0
GRID*             156804               0-2.500000000E+008.8841926228E+01+
*       -2.129135150E+02               0
GRID*             156805               0-2.500000000E+008.9379068030E+01+
*       -2.156763133E+02               0
GRID*             156806               0-2.500000000E+008.7869002648E+01+
*       -2.158882335E+02               0
GRID*             156807               0-2.500000000E+008.8498070678E+01+
*       -2.145645468E+02               0
GRID*             156808               0-2.500000000E+008.6348226207E+01+
*       -2.159483994E+02               0
GRID*             156809               0-2.500000000E+008.6967228855E+01+
*       -2.148366328E+02               0
GRID*             156810               0-2.500000000E+008.4783103612E+01+
*       -2.159249245E+02               0
GRID*             156811               0-2.500000000E+008.5381329819E+01+
*       -2.148733238E+02               0
GRID*             156812               0-2.500000000E+008.3910105711E+01+
*       -2.167971956E+02               0
GRID*             156813               0-2.500000000E+008.2770238340E+01+
*       -2.154697845E+02               0
GRID*             156814               0-2.500000000E+008.3643236240E+01+
*       -2.145975134E+02               0
GRID*             156815               0-2.500000000E+008.3993469543E+01+
*       -2.184884743E+02               0
GRID*             156816               0-2.500000000E+008.2903575254E+01+
*       -2.175356700E+02               0
GRID*             156817               0-2.500000000E+008.4100652900E+01+
*       -2.200800982E+02               0
GRID*             156818               0-2.500000000E+008.3094122443E+01+
*       -2.193185725E+02               0
GRID*             156819               0-2.500000000E+008.4210608212E+01+
*       -2.215905763E+02               0
GRID*             156820               0-2.500000000E+008.3311261112E+01+
*       -2.209206744E+02               0
GRID*             156821               0-2.500000000E+008.4126429394E+01+
*       -2.231458029E+02               0
GRID*             156822               0-2.500000000E+008.3337037607E+01+
*       -2.224863792E+02               0
GRID*             156823               0-2.500000000E+008.4889048473E+01+
*       -2.239879592E+02               0
GRID*             156824               0-2.500000000E+008.3938687196E+01+
*       -2.251630498E+02               0
GRID*             156825               0-2.500000000E+008.3176068117E+01+
*       -2.243208935E+02               0
GRID*             156826               0-2.500000000E+008.6412806556E+01+
*       -2.239810439E+02               0
GRID*             156827               0-2.500000000E+008.5551855029E+01+
*       -2.249690031E+02               0
GRID*             156828               0-2.500000000E+008.7911051059E+01+
*       -2.240496340E+02               0
GRID*             156829               0-2.500000000E+008.7073857615E+01+
*       -2.250306779E+02               0
GRID*             156830               0-2.500000000E+008.9400351675E+01+
*       -2.242729125E+02               0
GRID*             156831               0-2.500000000E+008.8561402734E+01+
*       -2.253225465E+02               0
GRID*             156832               0-2.500000000E+009.0150351675E+01+
*       -2.257590236E+02               0
GRID*             156833               0-2.500000000E+008.9763247725E+01+
*       -2.286314574E+02               0
GRID*             156834               0-2.500000000E+008.8913599400E+01+
*       -2.269321477E+02               0
GRID*             156835               0-2.500000000E+008.9721455018E+01+
*       -2.317514485E+02               0
GRID*             156836               0-2.500000000E+008.8484702743E+01+
*       -2.299523504E+02               0
GRID*             156837               0-2.500000000E+008.9684768201E+01+
*       -2.347577438E+02               0
GRID*             156838               0-2.500000000E+008.8406223219E+01+
*       -2.331064146E+02               0
GRID*             156839               0-2.500000000E+008.9653527198E+01+
*       -2.377439660E+02               0
GRID*             156840               0-2.500000000E+008.8338295399E+01+
*       -2.361267098E+02               0
GRID*             156841               0-2.500000000E+008.9626840415E+01+
*       -2.407254599E+02               0
GRID*             156842               0-2.500000000E+008.8280367613E+01+
*       -2.391222036E+02               0
GRID*             156843               0-2.500000000E+008.9603951463E+01+
*       -2.437053836E+02               0
GRID*             156844               0-2.500000000E+008.8230791878E+01+
*       -2.421113990E+02               0
GRID*             156845               0-2.500000000E+008.9584341154E+01+
*       -2.466844803E+02               0
GRID*             156846               0-2.500000000E+008.8188292617E+01+
*       -2.450981972E+02               0
GRID*             156847               0-2.500000000E+008.9567640092E+01+
*       -2.496629290E+02               0
GRID*             156848               0-2.500000000E+008.8151981246E+01+
*       -2.480835204E+02               0
GRID*             156849               0-2.500000000E+008.9553557271E+01+
*       -2.526407482E+02               0
GRID*             156850               0-2.500000000E+008.8121197363E+01+
*       -2.510675660E+02               0
GRID*             156851               0-2.500000000E+008.9541836305E+01+
*       -2.556178961E+02               0
GRID*             156852               0-2.500000000E+008.8095393576E+01+
*       -2.540503110E+02               0
GRID*             156853               0-2.500000000E+008.9532231794E+01+
*       -2.585942982E+02               0
GRID*             156854               0-2.500000000E+008.8074068099E+01+
*       -2.570316388E+02               0
GRID*             156855               0-2.500000000E+008.9524501441E+01+
*       -2.615698647E+02               0
GRID*             156856               0-2.500000000E+008.8056733235E+01+
*       -2.600113852E+02               0
GRID*             156857               0-2.500000000E+008.9518410195E+01+
*       -2.645445217E+02               0
GRID*             156858               0-2.500000000E+008.8042911636E+01+
*       -2.629893864E+02               0
GRID*             156859               0-2.500000000E+008.9513739011E+01+
*       -2.675182354E+02               0
GRID*             156860               0-2.500000000E+008.8032149206E+01+
*       -2.659655349E+02               0
GRID*             156861               0-2.500000000E+008.9510290568E+01+
*       -2.704910102E+02               0
GRID*             156862               0-2.500000000E+008.8024029580E+01+
*       -2.689398012E+02               0
GRID*             156863               0-2.500000000E+008.9507890345E+01+
*       -2.734628697E+02               0
GRID*             156864               0-2.500000000E+008.8018180913E+01+
*       -2.719122132E+02               0
GRID*             156865               0-2.500000000E+008.9506390053E+01+
*       -2.764338977E+02               0
GRID*             156866               0-2.500000000E+008.8014280397E+01+
*       -2.748828785E+02               0
GRID*             156867               0-2.500000000E+008.9505582450E+01+
*       -2.794035045E+02               0
GRID*             156868               0-2.500000000E+008.8011972502E+01+
*       -2.778512911E+02               0
GRID*             156869               0-2.500000000E+008.9505431924E+01+
*       -2.823722232E+02               0
GRID*             156870               0-2.500000000E+008.8011014374E+01+
*       -2.808173944E+02               0
GRID*             156871               0-2.500000000E+008.9505854323E+01+
*       -2.853398752E+02               0
GRID*             156872               0-2.500000000E+008.8011286247E+01+
*       -2.837815428E+02               0
GRID*             156873               0-2.500000000E+008.9506817824E+01+
*       -2.883066272E+02               0
GRID*             156874               0-2.500000000E+008.8012672147E+01+
*       -2.867437247E+02               0
GRID*             156875               0-2.500000000E+008.9508332158E+01+
*       -2.912729257E+02               0
GRID*             156876               0-2.500000000E+008.8015149982E+01+
*       -2.897045529E+02               0
GRID*             156877               0-2.500000000E+008.9510554298E+01+
*       -2.942397824E+02               0
GRID*             156878               0-2.500000000E+008.8018886456E+01+
*       -2.926654859E+02               0
GRID*             156879               0-2.500000000E+008.9514015499E+01+
*       -2.972092974E+02               0
GRID*             156880               0-2.500000000E+008.8024569797E+01+
*       -2.956296353E+02               0
GRID*             156881               0-2.500000000E+008.9519879652E+01+
*       -3.001856613E+02               0
GRID*             156882               0-2.500000000E+008.8033895150E+01+
*       -2.986032920E+02               0
GRID*             156883               0-2.500000000E+008.9530387452E+01+
*       -3.031772761E+02               0
GRID*             156884               0-2.500000000E+008.8050267104E+01+
*       -3.015990486E+02               0
GRID*             156885               0-2.500000000E+008.9552680858E+01+
*       -3.061994433E+02               0
GRID*             156886               0-2.500000000E+008.8083068310E+01+
*       -3.046406084E+02               0
GRID*             156887               0-2.500000000E+008.9607109856E+01+
*       -3.092718728E+02               0
GRID*             156888               0-2.500000000E+008.8159790714E+01+
*       -3.077629828E+02               0
GRID*             156889               0-2.500000000E+008.9779547134E+01+
*       -3.123179438E+02               0
GRID*             156890               0-2.500000000E+008.8386656990E+01+
*       -3.109092610E+02               0
GRID*             156891               0-2.500000000E+008.9791403800E+01+
*       -3.154069408E+02               0
GRID*             156892               0-2.500000000E+008.8570950934E+01+
*       -3.140721068E+02               0
GRID*             156893               0-2.500000000E+009.0097852945E+01+
*       -3.182401410E+02               0
GRID*             156894               0-2.500000000E+008.8889256745E+01+
*       -3.170220818E+02               0
GRID*             156895               0-2.500000000E+008.9936407085E+01+
*       -3.211436143E+02               0
GRID*             156896               0-2.500000000E+008.9034260030E+01+
*       -3.197865330E+02               0
GRID*             156897               0-2.500000000E+009.0029132048E+01+
*       -3.239499348E+02               0
GRID*             156898               0-2.500000000E+008.8965539133E+01+
*       -3.225241046E+02               0
GRID*             156899               0-2.500000000E+008.9402008867E+01+
*       -3.267394734E+02               0
GRID*             156900               0-2.500000000E+008.8431140915E+01+
*       -3.251477416E+02               0
GRID*             156901               0-2.500000000E+008.7883490313E+01+
*       -3.282255845E+02               0
GRID*             156902               0-2.500000000E+008.4822019999E+01+
*       -3.284274343E+02               0
GRID*             156903               0-2.500000000E+008.6261065973E+01+
*       -3.266530188E+02               0
GRID*             156904               0-2.500000000E+008.1926971512E+01+
*       -3.288228921E+02               0
GRID*             156905               0-2.500000000E+008.3341584280E+01+
*       -3.272503264E+02               0
GRID*             156906               0-2.500000000E+007.9054388803E+01+
*       -3.285647142E+02               0
GRID*             156907               0-2.500000000E+008.0610990192E+01+
*       -3.273876063E+02               0
GRID*             156908               0-2.500000000E+007.6134055239E+01+
*       -3.286806693E+02               0
GRID*             156909               0-2.500000000E+007.7855111027E+01+
*       -3.272453835E+02               0
GRID*             156910               0-2.500000000E+007.2966683325E+01+
*       -3.288414255E+02               0
GRID*             156911               0-2.500000000E+007.4804442657E+01+
*       -3.275220949E+02               0
GRID*             156912               0-2.500000000E+006.9870089138E+01+
*       -3.288840822E+02               0
GRID*             156913               0-2.500000000E+007.1577513663E+01+
*       -3.277255077E+02               0
GRID*             156914               0-2.500000000E+006.6800139217E+01+
*       -3.288885639E+02               0
GRID*             156915               0-2.500000000E+006.8448006663E+01+
*       -3.277726461E+02               0
GRID*             156916               0-2.500000000E+006.3743009423E+01+
*       -3.288805442E+02               0
GRID*             156917               0-2.500000000E+006.5357964056E+01+
*       -3.277691081E+02               0
GRID*             156918               0-2.500000000E+006.0692986756E+01+
*       -3.288700375E+02               0
GRID*             156919               0-2.500000000E+006.2287848702E+01+
*       -3.277505817E+02               0
GRID*             156920               0-2.500000000E+005.7647582782E+01+
*       -3.288607590E+02               0
GRID*             156921               0-2.500000000E+005.9229459168E+01+
*       -3.277307965E+02               0
GRID*             156922               0-2.500000000E+005.4605575492E+01+
*       -3.288540155E+02               0
GRID*             156923               0-2.500000000E+005.6179085012E+01+
*       -3.277147744E+02               0
GRID*             156924               0-2.500000000E+005.1566287966E+01+
*       -3.288502618E+02               0
GRID*             156925               0-2.500000000E+005.3134827304E+01+
*       -3.277042772E+02               0
GRID*             156926               0-2.500000000E+004.8529345017E+01+
*       -3.288496491E+02               0
GRID*             156927               0-2.500000000E+005.0095633937E+01+
*       -3.276999109E+02               0
GRID*             156928               0-2.500000000E+004.5494582358E+01+
*       -3.288521865E+02               0
GRID*             156929               0-2.500000000E+004.7060965436E+01+
*       -3.277018356E+02               0
GRID*             156930               0-2.500000000E+004.2461992068E+01+
*       -3.288577360E+02               0
GRID*             156931               0-2.500000000E+004.4030649595E+01+
*       -3.277099224E+02               0
GRID*             156932               0-2.500000000E+003.9431657659E+01+
*       -3.288658546E+02               0
GRID*             156933               0-2.500000000E+004.1004762004E+01+
*       -3.277235906E+02               0
GRID*             156934               0-2.500000000E+003.6403614942E+01+
*       -3.288753361E+02               0
GRID*             156935               0-2.500000000E+003.7983421986E+01+
*       -3.277411907E+02               0
GRID*             156936               0-2.500000000E+003.3377375291E+01+
*       -3.288830372E+02               0
GRID*             156937               0-2.500000000E+003.4966176725E+01+
*       -3.277583733E+02               0
GRID*             156938               0-2.500000000E+003.0349635831E+01+
*       -3.288808213E+02               0
GRID*             156939               0-2.500000000E+003.1949234722E+01+
*       -3.277638585E+02               0
GRID*             156940               0-2.500000000E+002.7301313202E+01+
*       -3.288465770E+02               0
GRID*             156941               0-2.500000000E+002.8910209740E+01+
*       -3.277273983E+02               0
GRID*             156942               0-2.500000000E+002.4110746002E+01+
*       -3.287046078E+02               0
GRID*             156943               0-2.500000000E+002.5708357019E+01+
*       -3.275511848E+02               0
GRID*             156944               0-2.500000000E+002.1107753704E+01+
*       -3.289278813E+02               0
GRID*             156945               0-2.500000000E+002.2551834629E+01+
*       -3.276324890E+02               0
GRID*             156946               0-2.500000000E+001.8105625974E+01+
*       -3.287404042E+02               0
GRID*             156947               0-2.500000000E+001.9583751708E+01+
*       -3.276682855E+02               0
GRID*             156948               0-2.500000000E+001.5101141093E+01+
*       -3.288842897E+02               0
GRID*             156949               0-2.500000000E+001.6614176204E+01+
*       -3.276246939E+02               0
GRID*             156950               0-2.500000000E+001.2148445439E+01+
*       -3.284861377E+02               0
GRID*             156951               0-2.500000000E+001.3694032778E+01+
*       -3.273704274E+02               0
GRID*             156952               0-2.500000000E+001.0629926886E+01+
*       -3.270000266E+02               0
GRID*             156953               0-2.500000000E+001.0342229429E+01+
*       -3.240421691E+02               0
GRID*             156954               0-2.500000000E+001.1972158222E+01+
*       -3.255005290E+02               0
GRID*             156955               0-2.500000000E+009.9215705816E+00+
*       -3.211763236E+02               0
GRID*             156956               0-2.500000000E+001.1263801918E+01+
*       -3.226490482E+02               0
GRID*             156957               0-2.500000000E+001.0050440886E+01+
*       -3.182221217E+02               0
GRID*             156958               0-2.500000000E+001.0972013375E+01+
*       -3.198012231E+02               0
GRID*             156959               0-2.500000000E+009.9369060140E+00+
*       -3.152523769E+02               0
GRID*             156960               0-2.500000000E+001.0987348808E+01+
*       -3.168494986E+02               0
GRID*             156961               0-2.500000000E+001.0410921465E+01+
*       -3.124119889E+02               0
GRID*             156962               0-2.500000000E+001.1347829386E+01+
*       -3.140115880E+02               0
GRID*             156963               0-2.500000000E+001.0452440981E+01+
*       -3.092683734E+02               0
GRID*             156964               0-2.500000000E+001.1863364353E+01+
*       -3.109998067E+02               0
GRID*             156965               0-2.500000000E+001.0486715011E+01+
*       -3.062391999E+02               0
GRID*             156966               0-2.500000000E+001.1939157900E+01+
*       -3.077992400E+02               0
GRID*             156967               0-2.500000000E+001.0511570261E+01+
*       -3.032369780E+02               0
GRID*             156968               0-2.500000000E+001.1998287179E+01+
*       -3.047400668E+02               0
GRID*             156969               0-2.500000000E+001.0525770042E+01+
*       -3.002443016E+02               0
GRID*             156970               0-2.500000000E+001.2037342210E+01+
*       -3.017173907E+02               0
GRID*             156971               0-2.500000000E+001.0532089120E+01+
*       -2.972585978E+02               0
GRID*             156972               0-2.500000000E+001.2057861068E+01+
*       -2.987112327E+02               0
GRID*             156973               0-2.500000000E+001.0533544557E+01+
*       -2.942784797E+02               0
GRID*             156974               0-2.500000000E+001.2065635584E+01+
*       -2.957176330E+02               0
GRID*             156975               0-2.500000000E+001.0532393365E+01+
*       -2.913024988E+02               0
GRID*             156976               0-2.500000000E+001.2065939829E+01+
*       -2.927337562E+02               0
GRID*             156977               0-2.500000000E+001.0530033481E+01+
*       -2.883293150E+02               0
GRID*             156978               0-2.500000000E+001.2062428753E+01+
*       -2.897568138E+02               0
GRID*             156979               0-2.500000000E+001.0527212146E+01+
*       -2.853578818E+02               0
GRID*             156980               0-2.500000000E+001.2057247535E+01+
*       -2.867844191E+02               0
GRID*             156981               0-2.500000000E+001.0524262555E+01+
*       -2.823874828E+02               0
GRID*             156982               0-2.500000000E+001.2051476608E+01+
*       -2.838148091E+02               0
GRID*             156983               0-2.500000000E+001.0521289857E+01+
*       -2.794176760E+02               0
GRID*             156984               0-2.500000000E+001.2045554319E+01+
*       -2.808468255E+02               0
GRID*             156985               0-2.500000000E+001.0518287467E+01+
*       -2.764482251E+02               0
GRID*             156986               0-2.500000000E+001.2039579231E+01+
*       -2.778797900E+02               0
GRID*             156987               0-2.500000000E+001.0515724517E+01+
*       -2.734781650E+02               0
GRID*             156988               0-2.500000000E+001.2034013891E+01+
*       -2.749125012E+02               0
GRID*             156989               0-2.500000000E+001.0513300794E+01+
*       -2.705078203E+02               0
GRID*             156990               0-2.500000000E+001.2029027219E+01+
*       -2.719443186E+02               0
GRID*             156991               0-2.500000000E+001.0510953622E+01+
*       -2.675371878E+02               0
GRID*             156992               0-2.500000000E+001.2024256323E+01+
*       -2.689755636E+02               0
GRID*             156993               0-2.500000000E+001.0508669519E+01+
*       -2.645662133E+02               0
GRID*             156994               0-2.500000000E+001.2019625049E+01+
*       -2.660061789E+02               0
GRID*             156995               0-2.500000000E+001.0506448554E+01+
*       -2.615948131E+02               0
GRID*             156996               0-2.500000000E+001.2015119981E+01+
*       -2.630360264E+02               0
GRID*             156997               0-2.500000000E+001.0504293586E+01+
*       -2.586228416E+02               0
GRID*             156998               0-2.500000000E+001.2010744047E+01+
*       -2.600648769E+02               0
GRID*             156999               0-2.500000000E+001.0502195505E+01+
*       -2.556500411E+02               0
GRID*             157000               0-2.500000000E+001.2006490998E+01+
*       -2.570923272E+02               0
GRID*             157001               0-2.500000000E+001.0500103421E+01+
*       -2.526759710E+02               0
GRID*             157002               0-2.500000000E+001.2002300833E+01+
*       -2.541176788E+02               0
GRID*             157003               0-2.500000000E+001.0497864502E+01+
*       -2.496999127E+02               0
GRID*             157004               0-2.500000000E+001.1997969830E+01+
*       -2.511397726E+02               0
GRID*             157005               0-2.500000000E+001.0495065534E+01+
*       -2.467207066E+02               0
GRID*             157006               0-2.500000000E+001.1992931943E+01+
*       -2.481567304E+02               0
GRID*             157007               0-2.500000000E+001.0490664415E+01+
*       -2.437364309E+02               0
GRID*             157008               0-2.500000000E+001.1985731856E+01+
*       -2.451654708E+02               0
GRID*             157009               0-2.500000000E+001.0482469572E+01+
*       -2.407440911E+02               0
GRID*             157010               0-2.500000000E+001.1973135894E+01+
*       -2.421610775E+02               0
GRID*             157011               0-2.500000000E+001.0466398067E+01+
*       -2.377399810E+02               0
GRID*             157012               0-2.500000000E+001.1948869546E+01+
*       -2.391368498E+02               0
GRID*             157013               0-2.500000000E+001.0434563959E+01+
*       -2.347223192E+02               0
GRID*             157014               0-2.500000000E+001.1900963933E+01+
*       -2.360873001E+02               0
GRID*             157015               0-2.500000000E+001.0371727376E+01+
*       -2.317017552E+02               0
GRID*             157016               0-2.500000000E+001.1806293242E+01+
*       -2.330212966E+02               0
GRID*             157017               0-2.500000000E+001.0259938820E+01+
*       -2.287389912E+02               0
GRID*             157018               0-2.500000000E+001.1631668102E+01+
*       -2.300101909E+02               0
GRID*             157019               0-2.500000000E+001.0237019265E+01+
*       -2.258459444E+02               0
GRID*             157020               0-2.500000000E+001.1496959992E+01+
*       -2.271266022E+02               0
GRID*             157021               0-2.500000000E+001.1737018311E+01+
*       -2.243598333E+02               0
GRID*             157022               0-2.500000000E+001.3522091856E+01+
*       -2.242407081E+02               0
GRID*             157023               0-2.500000000E+001.2509112314E+01+
*       -2.256005414E+02               0
GRID*             157024               0-2.500000000E+001.5215942573E+01+
*       -2.241118114E+02               0
GRID*             157025               0-2.500000000E+001.4488033237E+01+
*       -2.253525195E+02               0
GRID*             157026               0-2.500000000E+001.6029003752E+01+
*       -2.230593174E+02               0
GRID*             157027               0-2.500000000E+001.7174899315E+01+
*       -2.240414119E+02               0
GRID*             157028               0-2.500000000E+001.6361838135E+01+
*       -2.250939058E+02               0
GRID*             157029               0-2.500000000E+001.5922622803E+01+
*       -2.214729148E+02               0
GRID*             157030               0-2.500000000E+001.6951623695E+01+
*       -2.222822322E+02               0
GRID*             157031               0-2.500000000E+001.5833282390E+01+
*       -2.199651537E+02               0
GRID*             157032               0-2.500000000E+001.6755902332E+01+
*       -2.206880685E+02               0
GRID*             157033               0-2.500000000E+001.5955496974E+01+
*       -2.184311822E+02               0
GRID*             157034               0-2.500000000E+001.6788776504E+01+
*       -2.191463359E+02               0
GRID*             157035               0-2.500000000E+001.6139653919E+01+
*       -2.167222598E+02               0
GRID*             157036               0-2.500000000E+001.7095148033E+01+
*       -2.174034420E+02               0
GRID*             157037               0-2.500000000E+001.5276582216E+01+
*       -2.154836939E+02               0
GRID*             157038               0-2.500000000E+001.6673751881E+01+
*       -2.139184783E+02               0
GRID*             157039               0-2.500000000E+001.7536823585E+01+
*       -2.151570441E+02               0
GRID*             157040               0-2.500000000E+001.3497979836E+01+
*       -2.155003762E+02               0
GRID*             157041               0-2.500000000E+001.4524560859E+01+
*       -2.139840701E+02               0
GRID*             157042               0-2.500000000E+001.1699701054E+01+
*       -2.154973726E+02               0
GRID*             157043               0-2.500000000E+001.2447683036E+01+
*       -2.139977488E+02               0
GRID*             157044               0-2.500000000E+001.0199702008E+01+
*       -2.139812436E+02               0
GRID*             157045               0-2.500000000E+001.0166986324E+01+
*       -2.109694910E+02               0
GRID*             157046               0-2.500000000E+001.1366690239E+01+
*       -2.124991217E+02               0
GRID*             157047               0-2.500000000E+001.0187859902E+01+
*       -2.079549822E+02               0
GRID*             157048               0-2.500000000E+001.1354848133E+01+
*       -2.095051184E+02               0
GRID*             157049               0-2.500000000E+001.0218356450E+01+
*       -2.049351172E+02               0
GRID*             157050               0-2.500000000E+001.1406218259E+01+
*       -2.065030026E+02               0
GRID*             157051               0-2.500000000E+001.0248599823E+01+
*       -2.019116423E+02               0
GRID*             157052               0-2.500000000E+001.1466958180E+01+
*       -2.034919207E+02               0
GRID*             157053               0-2.500000000E+001.0276739148E+01+
*       -1.988867147E+02               0
GRID*             157054               0-2.500000000E+001.1525340878E+01+
*       -2.004757763E+02               0
GRID*             157055               0-2.500000000E+001.0303066690E+01+
*       -1.958614250E+02               0
GRID*             157056               0-2.500000000E+001.1579807746E+01+
*       -1.974578171E+02               0
GRID*             157057               0-2.500000000E+001.0328330501E+01+
*       -1.928357424E+02               0
GRID*             157058               0-2.500000000E+001.1631399099E+01+
*       -1.944391029E+02               0
GRID*             157059               0-2.500000000E+001.0353010304E+01+
*       -1.898088858E+02               0
GRID*             157060               0-2.500000000E+001.1681342712E+01+
*       -1.914188217E+02               0
GRID*             157061               0-2.500000000E+001.0376952890E+01+
*       -1.867798157E+02               0
GRID*             157062               0-2.500000000E+001.1729965101E+01+
*       -1.883951531E+02               0
GRID*             157063               0-2.500000000E+001.0399411825E+01+
*       -1.837477716E+02               0
GRID*             157064               0-2.500000000E+001.1776366623E+01+
*       -1.853662970E+02               0
GRID*             157065               0-2.500000000E+001.0419463751E+01+
*       -1.807126653E+02               0
GRID*             157066               0-2.500000000E+001.1818877484E+01+
*       -1.823314046E+02               0
GRID*             157067               0-2.500000000E+001.0436527464E+01+
*       -1.776750385E+02               0
GRID*             157068               0-2.500000000E+001.1855993123E+01+
*       -1.792909296E+02               0
GRID*             157069               0-2.500000000E+001.0450447063E+01+
*       -1.746357022E+02               0
GRID*             157070               0-2.500000000E+001.1886976435E+01+
*       -1.762462246E+02               0
GRID*             157071               0-2.500000000E+001.0461405261E+01+
*       -1.715954616E+02               0
GRID*             157072               0-2.500000000E+001.1911854232E+01+
*       -1.731989058E+02               0
GRID*             157073               0-2.500000000E+001.0469822822E+01+
*       -1.685549662E+02               0
GRID*             157074               0-2.500000000E+001.1931229991E+01+
*       -1.701504278E+02               0
GRID*             157075               0-2.500000000E+001.0476229706E+01+
*       -1.655146315E+02               0
GRID*             157076               0-2.500000000E+001.1946054436E+01+
*       -1.671018558E+02               0
GRID*             157077               0-2.500000000E+001.0481145113E+01+
*       -1.624746172E+02               0
GRID*             157078               0-2.500000000E+001.1957376727E+01+
*       -1.640537649E+02               0
GRID*             157079               0-2.500000000E+001.0484996204E+01+
*       -1.594348393E+02               0
GRID*             157080               0-2.500000000E+001.1966143224E+01+
*       -1.610062308E+02               0
GRID*             157081               0-2.500000000E+001.0488075965E+01+
*       -1.563949839E+02               0
GRID*             157082               0-2.500000000E+001.1973074076E+01+
*       -1.579588555E+02               0
GRID*             157083               0-2.500000000E+001.0490520903E+01+
*       -1.533544924E+02               0
GRID*             157084               0-2.500000000E+001.1978598776E+01+
*       -1.549107666E+02               0
GRID*             157085               0-2.500000000E+001.0492279352E+01+
*       -1.503125037E+02               0
GRID*             157086               0-2.500000000E+001.1982802163E+01+
*       -1.518605446E+02               0
GRID*             157087               0-2.500000000E+001.0492985286E+01+
*       -1.472676939E+02               0
GRID*             157088               0-2.500000000E+001.1985266545E+01+
*       -1.488060041E+02               0
GRID*             157089               0-2.500000000E+001.0491586618E+01+
*       -1.442178896E+02               0
GRID*             157090               0-2.500000000E+001.1984573811E+01+
*       -1.457436480E+02               0
GRID*             157091               0-2.500000000E+001.0485755084E+01+
*       -1.411596150E+02               0
GRID*             157092               0-2.500000000E+001.1977343610E+01+
*       -1.426678272E+02               0
GRID*             157093               0-2.500000000E+001.0471040461E+01+
*       -1.380883194E+02               0
GRID*             157094               0-2.500000000E+001.1956797453E+01+
*       -1.395705150E+02               0
GRID*             157095               0-2.500000000E+001.0438825309E+01+
*       -1.350011002E+02               0
GRID*             157096               0-2.500000000E+001.1909867678E+01+
*       -1.364442583E+02               0
GRID*             157097               0-2.500000000E+001.0372610199E+01+
*       -1.319084550E+02               0
GRID*             157098               0-2.500000000E+001.1811437415E+01+
*       -1.332966520E+02               0
GRID*             157099               0-2.500000000E+001.0254365549E+01+
*       -1.288751865E+02               0
GRID*             157100               0-2.500000000E+001.1626977655E+01+
*       -1.302029963E+02               0
GRID*             157101               0-2.500000000E+001.0230188564E+01+
*       -1.259153834E+02               0
GRID*             157102               0-2.500000000E+001.1484556020E+01+
*       -1.272421828E+02               0
GRID*             157103               0-2.500000000E+001.1730187610E+01+
*       -1.243992544E+02               0
GRID*             157104               0-2.500000000E+001.3515815914E+01+
*       -1.242897839E+02               0
GRID*             157105               0-2.500000000E+001.2496005670E+01+
*       -1.256890382E+02               0
GRID*             157106               0-2.500000000E+001.5214993196E+01+
*       -1.241764640E+02               0
GRID*             157107               0-2.500000000E+001.4480807918E+01+
*       -1.254662479E+02               0
GRID*             157108               0-2.500000000E+001.6038574401E+01+
*       -1.231176421E+02               0
GRID*             157109               0-2.500000000E+001.7195082411E+01+
*       -1.241935342E+02               0
GRID*             157110               0-2.500000000E+001.6371501206E+01+
*       -1.252523561E+02               0
GRID*             157111               0-2.500000000E+001.5929669061E+01+
*       -1.215139036E+02               0
GRID*             157112               0-2.500000000E+001.6968240601E+01+
*       -1.223815457E+02               0
GRID*             157113               0-2.500000000E+001.5845203531E+01+
*       -1.199986123E+02               0
GRID*             157114               0-2.500000000E+001.6774869731E+01+
*       -1.207625159E+02               0
GRID*             157115               0-2.500000000E+001.5974957314E+01+
*       -1.184690354E+02               0
GRID*             157116               0-2.500000000E+001.6820157984E+01+
*       -1.192176476E+02               0
GRID*             157117               0-2.500000000E+001.6164945851E+01+
*       -1.167814075E+02               0
GRID*             157118               0-2.500000000E+001.7139900304E+01+
*       -1.175004429E+02               0
GRID*             157119               0-2.500000000E+001.5297443683E+01+
*       -1.155630289E+02               0
GRID*             157120               0-2.500000000E+001.6730081116E+01+
*       -1.141143175E+02               0
GRID*             157121               0-2.500000000E+001.7597583284E+01+
*       -1.153326962E+02               0
GRID*             157122               0-2.500000000E+001.3514261267E+01+
*       -1.155577902E+02               0
GRID*             157123               0-2.500000000E+001.4561703757E+01+
*       -1.141208191E+02               0
GRID*             157124               0-2.500000000E+001.1711229313E+01+
*       -1.155402690E+02               0
GRID*             157125               0-2.500000000E+001.2475492726E+01+
*       -1.140980593E+02               0
GRID*             157126               0-2.500000000E+001.0211230267E+01+
*       -1.140541579E+02               0
GRID*             157127               0-2.500000000E+001.0181718959E+01+
*       -1.111090639E+02               0
GRID*             157128               0-2.500000000E+001.1392951133E+01+
*       -1.126215551E+02               0
GRID*             157129               0-2.500000000E+001.0206535845E+01+
*       -1.081586918E+02               0
GRID*             157130               0-2.500000000E+001.1388256711E+01+
*       -1.096983112E+02               0
GRID*             157131               0-2.500000000E+001.0241943875E+01+
*       -1.052014460E+02               0
GRID*             157132               0-2.500000000E+001.1448481627E+01+
*       -1.067629156E+02               0
GRID*             157133               0-2.500000000E+001.0277688526E+01+
*       -1.022391337E+02               0
GRID*             157134               0-2.500000000E+001.1519634309E+01+
*       -1.038155797E+02               0
GRID*             157135               0-2.500000000E+001.0311528389E+01+
*       -9.927368524E+01               0
GRID*             157136               0-2.500000000E+001.1589218822E+01+
*       -1.008600412E+02               0
GRID*             157137               0-2.500000000E+001.0343244489E+01+
*       -9.630599247E+01               0
GRID*             157138               0-2.500000000E+001.1654774785E+01+
*       -9.789912216E+01               0
GRID*             157139               0-2.500000000E+001.0372865587E+01+
*       -9.333603158E+01               0
GRID*             157140               0-2.500000000E+001.1716111983E+01+
*       -9.493369072E+01               0
GRID*             157141               0-2.500000000E+001.0400045229E+01+
*       -9.036340749E+01               0
GRID*             157142               0-2.500000000E+001.1772912723E+01+
*       -9.196332796E+01               0
GRID*             157143               0-2.500000000E+001.0424067401E+01+
*       -8.738795336E+01               0
GRID*             157144               0-2.500000000E+001.1824114538E+01+
*       -8.898747196E+01               0
GRID*             157145               0-2.500000000E+001.0444237666E+01+
*       -8.441008743E+01               0
GRID*             157146               0-2.500000000E+001.1868306974E+01+
*       -8.600637412E+01               0
GRID*             157147               0-2.500000000E+001.0460321429E+01+
*       -8.143069744E+01               0
GRID*             157148               0-2.500000000E+001.1904561002E+01+
*       -8.302134043E+01               0
GRID*             157149               0-2.500000000E+001.0472562765E+01+
*       -7.845073388E+01               0
GRID*             157150               0-2.500000000E+001.1932886101E+01+
*       -8.003420910E+01               0
GRID*             157151               0-2.500000000E+001.0481483959E+01+
*       -7.547092987E+01               0
GRID*             157152               0-2.500000000E+001.1954048631E+01+
*       -7.704666375E+01               0
GRID*             157153               0-2.500000000E+001.0487683134E+01+
*       -7.249172349E+01               0
GRID*             157154               0-2.500000000E+001.1969169001E+01+
*       -7.405987558E+01               0
GRID*             157155               0-2.500000000E+001.0491707687E+01+
*       -6.951327003E+01               0
GRID*             157156               0-2.500000000E+001.1979392728E+01+
*       -7.107443796E+01               0
GRID*             157157               0-2.500000000E+001.0494065394E+01+
*       -6.653632224E+01               0
GRID*             157158               0-2.500000000E+001.1985774988E+01+
*       -6.809125894E+01               0
GRID*             157159               0-2.500000000E+001.0495213998E+01+
*       -6.356141377E+01               0
GRID*             157160               0-2.500000000E+001.1989281299E+01+
*       -6.511162490E+01               0
GRID*             157161               0-2.500000000E+001.0495358030E+01+
*       -6.058755471E+01               0
GRID*             157162               0-2.500000000E+001.1990573935E+01+
*       -6.213507959E+01               0
GRID*             157163               0-2.500000000E+001.0494702916E+01+
*       -5.761480151E+01               0
GRID*             157164               0-2.500000000E+001.1990062853E+01+
*       -5.916068956E+01               0
GRID*             157165               0-2.500000000E+001.0493363285E+01+
*       -5.464293440E+01               0
GRID*             157166               0-2.500000000E+001.1988068108E+01+
*       -5.618829146E+01               0
GRID*             157167               0-2.500000000E+001.0491389639E+01+
*       -5.167146798E+01               0
GRID*             157168               0-2.500000000E+001.1984754831E+01+
*       -5.321718016E+01               0
GRID*             157169               0-2.500000000E+001.0488683854E+01+
*       -4.869940445E+01               0
GRID*             157170               0-2.500000000E+001.1980075400E+01+
*       -5.024587243E+01               0
GRID*             157171               0-2.500000000E+001.0484794995E+01+
*       -4.572476855E+01               0
GRID*             157172               0-2.500000000E+001.1973480756E+01+
*       -4.727139522E+01               0
GRID*             157173               0-2.500000000E+001.0478702427E+01+
*       -4.274370963E+01               0
GRID*             157174               0-2.500000000E+001.1963499329E+01+
*       -4.428792263E+01               0
GRID*             157175               0-2.500000000E+001.0468452640E+01+
*       -3.974859622E+01               0
GRID*             157176               0-2.500000000E+001.1947156974E+01+
*       -4.128397252E+01               0
GRID*             157177               0-2.500000000E+001.0447594981E+01+
*       -3.672518898E+01               0
GRID*             157178               0-2.500000000E+001.1916049528E+01+
*       -3.823767410E+01               0
GRID*             157179               0-2.500000000E+001.0397288738E+01+
*       -3.365613737E+01               0
GRID*             157180               0-2.500000000E+001.1844885626E+01+
*       -3.511743747E+01               0
GRID*             157181               0-2.500000000E+001.0228237631E+01+
*       -3.063325379E+01               0
GRID*             157182               0-2.500000000E+001.1625528276E+01+
*       -3.199772450E+01               0
GRID*             157183               0-2.500000000E+001.0206071420E+01+
*       -2.767009288E+01               0
GRID*             157184               0-2.500000000E+001.1434310958E+01+
*       -2.898390223E+01               0
GRID*             157185               0-2.500000000E+001.0346053930E+01+
*       -2.481880494E+01               0
GRID*             157186               0-2.500000000E+001.1552127257E+01+
*       -2.614167560E+01               0
GRID*             157187               0-2.500000000E+001.0395646095E+01+
*       -2.183850007E+01               0
GRID*             157188               0-2.500000000E+001.1741701932E+01+
*       -2.328230501E+01               0
GRID*             157189               0-2.500000000E+001.0417992403E+01+
*       -1.884411256E+01               0
GRID*             157190               0-2.500000000E+001.1813640406E+01+
*       -2.027983485E+01               0
GRID*             157191               0-2.500000000E+001.0153874559E+01+
*       -1.599481584E+01               0
GRID*             157192               0-2.500000000E+001.1571868869E+01+
*       -1.740837284E+01               0
GRID*             157193               0-2.500000000E+001.0688584929E+01+
*       -1.317531627E+01               0
GRID*             157194               0-2.500000000E+001.1842461395E+01+
*       -1.471179878E+01               0
GRID*             157195               0-2.500000000E+001.2207103483E+01+
*       -1.168920516E+01               0
GRID*             157196               0-2.500000000E+001.5276242445E+01+
*       -1.131109439E+01               0
GRID*             157197               0-2.500000000E+001.3927792174E+01+
*       -1.300029955E+01               0
GRID*             157198               0-2.500000000E+001.8164777153E+01+
*       -1.124972246E+01               0
GRID*             157199               0-2.500000000E+001.6848428736E+01+
*       -1.256081686E+01               0
GRID*             157200               0-2.500000000E+002.1059504872E+01+
*       -1.133462725E+01               0
GRID*             157201               0-2.500000000E+001.9594654055E+01+
*       -1.258434971E+01               0
GRID*             157202               0-2.500000000E+002.4003469244E+01+
*       -1.132699961E+01               0
GRID*             157203               0-2.500000000E+002.2396309038E+01+
*       -1.266162686E+01               0
GRID*             157204               0-2.500000000E+002.7028541057E+01+
*       -1.130089343E+01               0
GRID*             157205               0-2.500000000E+002.5328308116E+01+
*       -1.262789304E+01               0
GRID*             157206               0-2.500000000E+003.0084236001E+01+
*       -1.129950577E+01               0
GRID*             157207               0-2.500000000E+002.8372037765E+01+
*       -1.260039921E+01               0
GRID*             157208               0-2.500000000E+003.3152528495E+01+
*       -1.130487261E+01               0
GRID*             157209               0-2.500000000E+003.1458988096E+01+
*       -1.260437838E+01               0
GRID*             157210               0-2.500000000E+003.6219232882E+01+
*       -1.131152164E+01               0
GRID*             157211               0-2.500000000E+003.4556947869E+01+
*       -1.261639425E+01               0
GRID*             157212               0-2.500000000E+003.9280101099E+01+
*       -1.131743763E+01               0
GRID*             157213               0-2.500000000E+003.7647483365E+01+
*       -1.262895927E+01               0
GRID*             157214               0-2.500000000E+004.2335045934E+01+
*       -1.132195138E+01               0
GRID*             157215               0-2.500000000E+004.0726259310E+01+
*       -1.263938900E+01               0
GRID*             157216               0-2.500000000E+004.5385167346E+01+
*       -1.132488930E+01               0
GRID*             157217               0-2.500000000E+004.3794288449E+01+
*       -1.264684068E+01               0
GRID*             157218               0-2.500000000E+004.8431669886E+01+
*       -1.132633147E+01               0
GRID*             157219               0-2.500000000E+004.6853875293E+01+
*       -1.265122076E+01               0
GRID*             157220               0-2.500000000E+005.1475626199E+01+
*       -1.132655738E+01               0
GRID*             157221               0-2.500000000E+004.9907297038E+01+
*       -1.265288884E+01               0
GRID*             157222               0-2.500000000E+005.4518030968E+01+
*       -1.132593820E+01               0
GRID*             157223               0-2.500000000E+005.2956621013E+01+
*       -1.265249558E+01               0
GRID*             157224               0-2.500000000E+005.7559948104E+01+
*       -1.132461501E+01               0
GRID*             157225               0-2.500000000E+005.6003905810E+01+
*       -1.265055321E+01               0
GRID*             157226               0-2.500000000E+006.0603039235E+01+
*       -1.132290963E+01               0
GRID*             157227               0-2.500000000E+005.9051876970E+01+
*       -1.264752464E+01               0
GRID*             157228               0-2.500000000E+006.3650328051E+01+
*       -1.132139647E+01               0
GRID*             157229               0-2.500000000E+006.2105219809E+01+
*       -1.264430610E+01               0
GRID*             157230               0-2.500000000E+006.6707733745E+01+
*       -1.132072533E+01               0
GRID*             157231               0-2.500000000E+006.5172877211E+01+
*       -1.264212180E+01               0
GRID*             157232               0-2.500000000E+006.9786938307E+01+
*       -1.132049948E+01               0
GRID*             157233               0-2.500000000E+006.8272450359E+01+
*       -1.264122481E+01               0
GRID*             157234               0-2.500000000E+007.2904140998E+01+
*       -1.131156815E+01               0
GRID*             157235               0-2.500000000E+007.1431820505E+01+
*       -1.263206763E+01               0
GRID*             157236               0-2.500000000E+007.5953376279E+01+
*       -1.119250501E+01               0
GRID*             157237               0-2.500000000E+007.4561221370E+01+
*       -1.250407316E+01               0
GRID*             157238               0-2.500000000E+007.8917352525E+01+
*       -1.117091049E+01               0
GRID*             157239               0-2.500000000E+007.7537395789E+01+
*       -1.236341550E+01               0
GRID*             157240               0-2.500000000E+008.1909096720E+01+
*       -1.125096179E+01               0
GRID*             157241               0-2.500000000E+008.0456079122E+01+
*       -1.242187228E+01               0
GRID*             157242               0-2.500000000E+008.4913686521E+01+
*       -1.126755740E+01               0
GRID*             157243               0-2.500000000E+008.3415376011E+01+
*       -1.251851919E+01               0
GRID*             157244               0-2.500000000E+008.6385894163E+01+
*       -1.269065258E+01               0
GRID*             157245               0-2.500000000E+008.7034308106E+01+
*       -3.240386385E+02               0
GRID*             157246               0-2.500000000E+008.8363439391E+01+
*       -3.237107955E+02               0
GRID*             157247               0-2.500000000E+008.7102009630E+01+
*       -3.254755845E+02               0
GRID*             157248               0-2.500000000E+008.4809057869E+01+
*       -3.256774343E+02               0
GRID*             157249               0-2.500000000E+007.9078463781E+01+
*       -3.258147142E+02               0
GRID*             157250               0-2.500000000E+008.0403113847E+01+
*       -3.252417492E+02               0
GRID*             157251               0-2.500000000E+007.9831576102E+01+
*       -3.265564634E+02               0
GRID*             157252               0-2.500000000E+008.1924173596E+01+
*       -3.252474446E+02               0
GRID*             157253               0-2.500000000E+008.1177285917E+01+
*       -3.259891939E+02               0
GRID*             157254               0-2.500000000E+008.1956700007E+01+
*       -3.268203367E+02               0
GRID*             157255               0-2.500000000E+008.4109100896E+01+
*       -3.263581703E+02               0
GRID*             157256               0-2.500000000E+008.3450044553E+01+
*       -3.251807360E+02               0
GRID*             157257               0-2.500000000E+008.2724216622E+01+
*       -3.259281806E+02               0
GRID*             157258               0-2.500000000E+002.1053327767E+01+
*       -3.252878711E+02               0
GRID*             157259               0-2.500000000E+002.0140839200E+01+
*       -3.259949469E+02               0
GRID*             157260               0-2.500000000E+001.9437513723E+01+
*       -3.252070762E+02               0
GRID*             157261               0-2.500000000E+001.8687583844E+01+
*       -3.266974800E+02               0
GRID*             157262               0-2.500000000E+002.1037007064E+01+
*       -3.269657524E+02               0
GRID*             157263               0-2.500000000E+002.2611827235E+01+
*       -3.252693644E+02               0
GRID*             157264               0-2.500000000E+002.1815152713E+01+
*       -3.260572356E+02               0
GRID*             157265               0-2.500000000E+002.3695812553E+01+
*       -3.248677544E+02               0
GRID*             157266               0-2.500000000E+002.4413965595E+01+
*       -3.263223622E+02               0
GRID*             157267               0-2.500000000E+002.3329980277E+01+
*       -3.267239722E+02               0
GRID*             157268               0-2.500000000E+002.6233833839E+01+
*       -3.253787681E+02               0
GRID*             157269               0-2.500000000E+002.7528225263E+01+
*       -3.266075906E+02               0
GRID*             157270               0-2.500000000E+002.9158125217E+01+
*       -3.255554313E+02               0
GRID*             157271               0-2.500000000E+003.0540109694E+01+
*       -3.266752390E+02               0
GRID*             157272               0-2.500000000E+003.2130643043E+01+
*       -3.255816873E+02               0
GRID*             157273               0-2.500000000E+003.3539768071E+01+
*       -3.266703068E+02               0
GRID*             157274               0-2.500000000E+003.5116925083E+01+
*       -3.255549472E+02               0
GRID*             157275               0-2.500000000E+003.6543333738E+01+
*       -3.266430137E+02               0
GRID*             157276               0-2.500000000E+003.8113575802E+01+
*       -3.255147466E+02               0
GRID*             157277               0-2.500000000E+003.9553664050E+01+
*       -3.266129237E+02               0
GRID*             157278               0-2.500000000E+004.1119835936E+01+
*       -3.254771769E+02               0
GRID*             157279               0-2.500000000E+004.2570933890E+01+
*       -3.265878438E+02               0
GRID*             157280               0-2.500000000E+004.4135103041E+01+
*       -3.254487662E+02               0
GRID*             157281               0-2.500000000E+004.5594818747E+01+
*       -3.265708448E+02               0
GRID*             157282               0-2.500000000E+004.7158913508E+01+
*       -3.254320910E+02               0
GRID*             157283               0-2.500000000E+004.8625060198E+01+
*       -3.265630818E+02               0
GRID*             157284               0-2.500000000E+005.0191122490E+01+
*       -3.254281063E+02               0
GRID*             157285               0-2.500000000E+005.1661696229E+01+
*       -3.265649354E+02               0
GRID*             157286               0-2.500000000E+005.3232074963E+01+
*       -3.254370817E+02               0
GRID*             157287               0-2.500000000E+005.4705206038E+01+
*       -3.265764235E+02               0
GRID*             157288               0-2.500000000E+005.6282772449E+01+
*       -3.254588702E+02               0
GRID*             157289               0-2.500000000E+005.7756651423E+01+
*       -3.265972211E+02               0
GRID*             157290               0-2.500000000E+005.9345120262E+01+
*       -3.254926495E+02               0
GRID*             157291               0-2.500000000E+006.0817928007E+01+
*       -3.266262249E+02               0
GRID*             157292               0-2.500000000E+006.2422564369E+01+
*       -3.255356227E+02               0
GRID*             157293               0-2.500000000E+006.3892485064E+01+
*       -3.266599795E+02               0
GRID*             157294               0-2.500000000E+006.5522108613E+01+
*       -3.255789526E+02               0
GRID*             157295               0-2.500000000E+006.6987587604E+01+
*       -3.266880812E+02               0
GRID*             157296               0-2.500000000E+006.8661008252E+01+
*       -3.255963748E+02               0
GRID*             157297               0-2.500000000E+007.0121427311E+01+
*       -3.266809397E+02               0
GRID*             157298               0-2.500000000E+007.1892736747E+01+
*       -3.255067119E+02               0
GRID*             157299               0-2.500000000E+007.3348823100E+01+
*       -3.265512798E+02               0
GRID*             157300               0-2.500000000E+007.5471029214E+01+
*       -3.249598543E+02               0
GRID*             157301               0-2.500000000E+007.6926648771E+01+
*       -3.259306693E+02               0
GRID*             157302               0-2.500000000E+002.5188520157E+01+
*       -3.224617895E+02               0
GRID*             157303               0-2.500000000E+002.6684754270E+01+
*       -3.215564717E+02               0
GRID*             157304               0-2.500000000E+002.8004356480E+01+
*       -3.225161537E+02               0
GRID*             157305               0-2.500000000E+002.6508122367E+01+
*       -3.234214715E+02               0
GRID*             157306               0-2.500000000E+002.9542922010E+01+
*       -3.214915616E+02               0
GRID*             157307               0-2.500000000E+003.0908156845E+01+
*       -3.224661375E+02               0
GRID*             157308               0-2.500000000E+002.9369591315E+01+
*       -3.234907296E+02               0
GRID*             157309               0-2.500000000E+003.2454604636E+01+
*       -3.213818671E+02               0
GRID*             157310               0-2.500000000E+003.3847697618E+01+
*       -3.223761201E+02               0
GRID*             157311               0-2.500000000E+003.2301249828E+01+
*       -3.234603905E+02               0
GRID*             157312               0-2.500000000E+003.5394970637E+01+
*       -3.212636205E+02               0
GRID*             157313               0-2.500000000E+003.6808618027E+01+
*       -3.222812780E+02               0
GRID*             157314               0-2.500000000E+003.5261345009E+01+
*       -3.233937776E+02               0
GRID*             157315               0-2.500000000E+003.8356254187E+01+
*       -3.211565352E+02               0
GRID*             157316               0-2.500000000E+003.9786729176E+01+
*       -3.221981189E+02               0
GRID*             157317               0-2.500000000E+003.8239093016E+01+
*       -3.233228616E+02               0
GRID*             157318               0-2.500000000E+004.1335638510E+01+
*       -3.210699909E+02               0
GRID*             157319               0-2.500000000E+004.2780195895E+01+
*       -3.221339143E+02               0
GRID*             157320               0-2.500000000E+004.1231286561E+01+
*       -3.232620423E+02               0
GRID*             157321               0-2.500000000E+004.4331518601E+01+
*       -3.210081228E+02               0
GRID*             157322               0-2.500000000E+004.5787836376E+01+
*       -3.220916770E+02               0
GRID*             157323               0-2.500000000E+004.4236513670E+01+
*       -3.232174685E+02               0
GRID*             157324               0-2.500000000E+004.7342813863E+01+
*       -3.209726288E+02               0
GRID*             157325               0-2.500000000E+004.8808956428E+01+
*       -3.220725916E+02               0
GRID*             157326               0-2.500000000E+004.7253978942E+01+
*       -3.231916398E+02               0
GRID*             157327               0-2.500000000E+005.0369025810E+01+
*       -3.209642251E+02               0
GRID*             157328               0-2.500000000E+005.1843482541E+01+
*       -3.220771651E+02               0
GRID*             157329               0-2.500000000E+005.0283413160E+01+
*       -3.231855316E+02               0
GRID*             157330               0-2.500000000E+005.3410400616E+01+
*       -3.209833608E+02               0
GRID*             157331               0-2.500000000E+005.4892122963E+01+
*       -3.221057142E+02               0
GRID*             157332               0-2.500000000E+005.3325204888E+01+
*       -3.231995186E+02               0
GRID*             157333               0-2.500000000E+005.6468090661E+01+
*       -3.210304773E+02               0
GRID*             157334               0-2.500000000E+005.7956545983E+01+
*       -3.221584239E+02               0
GRID*             157335               0-2.500000000E+005.6380578285E+01+
*       -3.232336609E+02               0
GRID*             157336               0-2.500000000E+005.9544394972E+01+
*       -3.211057864E+02               0
GRID*             157337               0-2.500000000E+006.1039726394E+01+
*       -3.222347766E+02               0
GRID*             157338               0-2.500000000E+005.9451877405E+01+
*       -3.232874141E+02               0
GRID*             157339               0-2.500000000E+006.2643467266E+01+
*       -3.212080688E+02               0
GRID*             157340               0-2.500000000E+006.4147060798E+01+
*       -3.223314288E+02               0
GRID*             157341               0-2.500000000E+006.2543319926E+01+
*       -3.233581366E+02               0
GRID*             157342               0-2.500000000E+006.5773638747E+01+
*       -3.213314686E+02               0
GRID*             157343               0-2.500000000E+006.7289978937E+01+
*       -3.224367522E+02               0
GRID*             157344               0-2.500000000E+006.5663400989E+01+
*       -3.234367125E+02               0
GRID*             157345               0-2.500000000E+006.8953397938E+01+
*       -3.214587991E+02               0
GRID*             157346               0-2.500000000E+007.0495502115E+01+
*       -3.225188942E+02               0
GRID*             157347               0-2.500000000E+006.8832083114E+01+
*       -3.234968473E+02               0
GRID*             157348               0-2.500000000E+007.2222352857E+01+
*       -3.215500484E+02               0
GRID*             157349               0-2.500000000E+007.3827394040E+01+
*       -3.225010333E+02               0
GRID*             157350               0-2.500000000E+007.2100543298E+01+
*       -3.234698791E+02               0
GRID*             157351               0-2.500000000E+002.5332620077E+01+
*       -3.206979986E+02               0
GRID*             157352               0-2.500000000E+002.6818728809E+01+
*       -3.197209998E+02               0
GRID*             157353               0-2.500000000E+002.8170863002E+01+
*       -3.205794729E+02               0
GRID*             157354               0-2.500000000E+002.9690284386E+01+
*       -3.195154212E+02               0
GRID*             157355               0-2.500000000E+003.1062343394E+01+
*       -3.204275099E+02               0
GRID*             157356               0-2.500000000E+003.2590892634E+01+
*       -3.193193507E+02               0
GRID*             157357               0-2.500000000E+003.3983153876E+01+
*       -3.202737079E+02               0
GRID*             157358               0-2.500000000E+003.5514973685E+01+
*       -3.191455530E+02               0
GRID*             157359               0-2.500000000E+003.6926790446E+01+
*       -3.201354656E+02               0
GRID*             157360               0-2.500000000E+003.8461501451E+01+
*       -3.190004064E+02               0
GRID*             157361               0-2.500000000E+003.9890965192E+01+
*       -3.200214760E+02               0
GRID*             157362               0-2.500000000E+004.1429265444E+01+
*       -3.188872576E+02               0
GRID*             157363               0-2.500000000E+004.2873938762E+01+
*       -3.199357725E+02               0
GRID*             157364               0-2.500000000E+004.4416601112E+01+
*       -3.188076629E+02               0
GRID*             157365               0-2.500000000E+004.5874180951E+01+
*       -3.198800132E+02               0
GRID*             157366               0-2.500000000E+004.7422003102E+01+
*       -3.187622185E+02               0
GRID*             157367               0-2.500000000E+004.8890636013E+01+
*       -3.198548341E+02               0
GRID*             157368               0-2.500000000E+005.0444560187E+01+
*       -3.187512382E+02               0
GRID*             157369               0-2.500000000E+005.1922949984E+01+
*       -3.198606292E+02               0
GRID*             157370               0-2.500000000E+005.3484162851E+01+
*       -3.187752161E+02               0
GRID*             157371               0-2.500000000E+005.4971613483E+01+
*       -3.198979477E+02               0
GRID*             157372               0-2.500000000E+005.6541603038E+01+
*       -3.188350617E+02               0
GRID*             157373               0-2.500000000E+005.8038080216E+01+
*       -3.199675912E+02               0
GRID*             157374               0-2.500000000E+005.9618718464E+01+
*       -3.189320453E+02               0
GRID*             157375               0-2.500000000E+006.1125033219E+01+
*       -3.200702406E+02               0
GRID*             157376               0-2.500000000E+006.2719027708E+01+
*       -3.190672533E+02               0
GRID*             157377               0-2.500000000E+006.4237461754E+01+
*       -3.202050815E+02               0
GRID*             157378               0-2.500000000E+006.5849964414E+01+
*       -3.192403096E+02               0
GRID*             157379               0-2.500000000E+006.7386141406E+01+
*       -3.203666966E+02               0
GRID*             157380               0-2.500000000E+006.9028090581E+01+
*       -3.194470724E+02               0
GRID*             157381               0-2.500000000E+007.0595347114E+01+
*       -3.205391749E+02               0
GRID*             157382               0-2.500000000E+007.2286580369E+01+
*       -3.196751819E+02               0
GRID*             157383               0-2.500000000E+007.3913586113E+01+
*       -3.206860555E+02               0
GRID*             157384               0-2.500000000E+002.5443951908E+01+
*       -3.189402330E+02               0
GRID*             157385               0-2.500000000E+002.6939627570E+01+
*       -3.178654728E+02               0
GRID*             157386               0-2.500000000E+002.8314404471E+01+
*       -3.186462396E+02               0
GRID*             157387               0-2.500000000E+002.9823228168E+01+
*       -3.175217480E+02               0
GRID*             157388               0-2.500000000E+003.1199108083E+01+
*       -3.183909295E+02               0
GRID*             157389               0-2.500000000E+003.2711278082E+01+
*       -3.172445282E+02               0
GRID*             157390               0-2.500000000E+003.4103062633E+01+
*       -3.181729494E+02               0
GRID*             157391               0-2.500000000E+003.5618723276E+01+
*       -3.170185703E+02               0
GRID*             157392               0-2.500000000E+003.7030634328E+01+
*       -3.179911740E+02               0
GRID*             157393               0-2.500000000E+003.8551273250E+01+
*       -3.168371000E+02               0
GRID*             157394               0-2.500000000E+003.9982140374E+01+
*       -3.178463323E+02               0
GRID*             157395               0-2.500000000E+004.1508635599E+01+
*       -3.166982245E+02               0
GRID*             157396               0-2.500000000E+004.2955760669E+01+
*       -3.177391498E+02               0
GRID*             157397               0-2.500000000E+004.4488488770E+01+
*       -3.166013088E+02               0
GRID*             157398               0-2.500000000E+004.5949329214E+01+
*       -3.176698219E+02               0
GRID*             157399               0-2.500000000E+004.7488527779E+01+
*       -3.165459358E+02               0
GRID*             157400               0-2.500000000E+004.8961201667E+01+
*       -3.176383324E+02               0
GRID*             157401               0-2.500000000E+005.0507193216E+01+
*       -3.165319908E+02               0
GRID*             157402               0-2.500000000E+005.1990551736E+01+
*       -3.176448966E+02               0
GRID*             157403               0-2.500000000E+005.3543824540E+01+
*       -3.165599623E+02               0
GRID*             157404               0-2.500000000E+005.5037435655E+01+
*       -3.176902819E+02               0
GRID*             157405               0-2.500000000E+005.6598630293E+01+
*       -3.166311914E+02               0
GRID*             157406               0-2.500000000E+005.8102797676E+01+
*       -3.177759712E+02               0
GRID*             157407               0-2.500000000E+005.9672715250E+01+
*       -3.167480535E+02               0
GRID*             157408               0-2.500000000E+006.1188636037E+01+
*       -3.179041276E+02               0
GRID*             157409               0-2.500000000E+006.2768666332E+01+
*       -3.169142315E+02               0
GRID*             157410               0-2.500000000E+006.4299058003E+01+
*       -3.180773572E+02               0
GRID*             157411               0-2.500000000E+006.5892794572E+01+
*       -3.171356094E+02               0
GRID*             157412               0-2.500000000E+006.7443700982E+01+
*       -3.182985617E+02               0
GRID*             157413               0-2.500000000E+006.9060445801E+01+
*       -3.174225584E+02               0
GRID*             157414               0-2.500000000E+007.0644835400E+01+
*       -3.185710691E+02               0
GRID*             157415               0-2.500000000E+007.2304758943E+01+
*       -3.177920784E+02               0
GRID*             157416               0-2.500000000E+007.3946503912E+01+
*       -3.188961913E+02               0
GRID*             157417               0-2.500000000E+002.5559024603E+01+
*       -3.171297801E+02               0
GRID*             157418               0-2.500000000E+002.7071235755E+01+
*       -3.159319490E+02               0
GRID*             157419               0-2.500000000E+002.8451838722E+01+
*       -3.166676418E+02               0
GRID*             157420               0-2.500000000E+002.9949651516E+01+
*       -3.154704623E+02               0
GRID*             157421               0-2.500000000E+003.1321040962E+01+
*       -3.163245685E+02               0
GRID*             157422               0-2.500000000E+003.2814544934E+01+
*       -3.151314353E+02               0
GRID*             157423               0-2.500000000E+003.4204782054E+01+
*       -3.160513949E+02               0
GRID*             157424               0-2.500000000E+003.5702422417E+01+
*       -3.148631942E+02               0
GRID*             157425               0-2.500000000E+003.7116363639E+01+
*       -3.158303696E+02               0
GRID*             157426               0-2.500000000E+003.8621714143E+01+
*       -3.146500668E+02               0
GRID*             157427               0-2.500000000E+004.0056623754E+01+
*       -3.156567972E+02               0
GRID*             157428               0-2.500000000E+004.1570435889E+01+
*       -3.144878291E+02               0
GRID*             157429               0-2.500000000E+004.3022447734E+01+
*       -3.155292565E+02               0
GRID*             157430               0-2.500000000E+004.4544410013E+01+
*       -3.143747899E+02               0
GRID*             157431               0-2.500000000E+004.6010451049E+01+
*       -3.154468422E+02               0
GRID*             157432               0-2.500000000E+004.7540052703E+01+
*       -3.143098432E+02               0
GRID*             157433               0-2.500000000E+004.9018129433E+01+
*       -3.154089368E+02               0
GRID*             157434               0-2.500000000E+005.0554961671E+01+
*       -3.142924722E+02               0
GRID*             157435               0-2.500000000E+005.2044025453E+01+
*       -3.154155261E+02               0
GRID*             157436               0-2.500000000E+005.3587812556E+01+
*       -3.143230698E+02               0
GRID*             157437               0-2.500000000E+005.5087611643E+01+
*       -3.154675060E+02               0
GRID*             157438               0-2.500000000E+005.6638124553E+01+
*       -3.144032481E+02               0
GRID*             157439               0-2.500000000E+005.8149143203E+01+
*       -3.155669336E+02               0
GRID*             157440               0-2.500000000E+005.9706156737E+01+
*       -3.145362484E+02               0
GRID*             157441               0-2.500000000E+006.1229728784E+01+
*       -3.157173683E+02               0
GRID*             157442               0-2.500000000E+006.2793405476E+01+
*       -3.147279367E+02               0
GRID*             157443               0-2.500000000E+006.4332343024E+01+
*       -3.159247999E+02               0
GRID*             157444               0-2.500000000E+006.5904698923E+01+
*       -3.149895889E+02               0
GRID*             157445               0-2.500000000E+006.7465150471E+01+
*       -3.162003984E+02               0
GRID*             157446               0-2.500000000E+006.9053733590E+01+
*       -3.153449730E+02               0
GRID*             157447               0-2.500000000E+007.0649028921E+01+
*       -3.165671329E+02               0
GRID*             157448               0-2.500000000E+007.2277235360E+01+
*       -3.158458314E+02               0
GRID*             157449               0-2.500000000E+007.3932965382E+01+
*       -3.170707769E+02               0
GRID*             157450               0-2.500000000E+002.3851628906E+01+
*       -3.231757967E+02               0
GRID*             157451               0-2.500000000E+002.4947439170E+01+
*       -3.242935511E+02               0
GRID*             157452               0-2.500000000E+002.3936893539E+01+
*       -3.215359928E+02               0
GRID*             157453               0-2.500000000E+002.3995728826E+01+
*       -3.199120058E+02               0
GRID*             157454               0-2.500000000E+002.4048225371E+01+
*       -3.182782271E+02               0
GRID*             157455               0-2.500000000E+002.4110801521E+01+
*       -3.166015529E+02               0
GRID*             157456               0-2.500000000E+002.4212746807E+01+
*       -3.148151047E+02               0
GRID*             157457               0-2.500000000E+002.5723546039E+01+
*       -3.151666576E+02               0
GRID*             157458               0-2.500000000E+002.7247492525E+01+
*       -3.138346497E+02               0
GRID*             157459               0-2.500000000E+002.8595182242E+01+
*       -3.145999410E+02               0
GRID*             157460               0-2.500000000E+003.0072799652E+01+
*       -3.133367547E+02               0
GRID*             157461               0-2.500000000E+003.1427268927E+01+
*       -3.142072760E+02               0
GRID*             157462               0-2.500000000E+003.2897778863E+01+
*       -3.129701417E+02               0
GRID*             157463               0-2.500000000E+003.4285054869E+01+
*       -3.138943010E+02               0
GRID*             157464               0-2.500000000E+003.5764019143E+01+
*       -3.126713108E+02               0
GRID*             157465               0-2.500000000E+003.7181386690E+01+
*       -3.136402039E+02               0
GRID*             157466               0-2.500000000E+003.8672524474E+01+
*       -3.124310578E+02               0
GRID*             157467               0-2.500000000E+004.0112851927E+01+
*       -3.134409207E+02               0
GRID*             157468               0-2.500000000E+004.1615610251E+01+
*       -3.122478868E+02               0
GRID*             157469               0-2.500000000E+004.3073194213E+01+
*       -3.132947953E+02               0
GRID*             157470               0-2.500000000E+004.4586034357E+01+
*       -3.121202680E+02               0
GRID*             157471               0-2.500000000E+004.6057250157E+01+
*       -3.132002626E+02               0
GRID*             157472               0-2.500000000E+004.7578745726E+01+
*       -3.120465447E+02               0
GRID*             157473               0-2.500000000E+004.9061548272E+01+
*       -3.131561254E+02               0
GRID*             157474               0-2.500000000E+005.0590595577E+01+
*       -3.120257085E+02               0
GRID*             157475               0-2.500000000E+005.2084008976E+01+
*       -3.131620553E+02               0
GRID*             157476               0-2.500000000E+005.3619735486E+01+
*       -3.120579242E+02               0
GRID*             157477               0-2.500000000E+005.5123539067E+01+
*       -3.132189387E+02               0
GRID*             157478               0-2.500000000E+005.6665119797E+01+
*       -3.121448700E+02               0
GRID*             157479               0-2.500000000E+005.8179705283E+01+
*       -3.133291794E+02               0
GRID*             157480               0-2.500000000E+005.9726190280E+01+
*       -3.122901925E+02               0
GRID*             157481               0-2.500000000E+006.1252641734E+01+
*       -3.134972615E+02               0
GRID*             157482               0-2.500000000E+006.2803012250E+01+
*       -3.125006938E+02               0
GRID*             157483               0-2.500000000E+006.4343775992E+01+
*       -3.137313690E+02               0
GRID*             157484               0-2.500000000E+006.5897645662E+01+
*       -3.127897708E+02               0
GRID*             157485               0-2.500000000E+006.7458568594E+01+
*       -3.140479908E+02               0
GRID*             157486               0-2.500000000E+006.9018443527E+01+
*       -3.131869493E+02               0
GRID*             157487               0-2.500000000E+007.0613608523E+01+
*       -3.144839315E+02               0
GRID*             157488               0-2.500000000E+007.2196082695E+01+
*       -3.137677567E+02               0
GRID*             157489               0-2.500000000E+007.3859709531E+01+
*       -3.151296566E+02               0
GRID*             157490               0-2.500000000E+007.5602573950E+01+
*       -3.148089072E+02               0
GRID*             157491               0-2.500000000E+007.5657137108E+01+
*       -3.165707494E+02               0
GRID*             157492               0-2.500000000E+007.5675829801E+01+
*       -3.182500275E+02               0
GRID*             157493               0-2.500000000E+007.5670675638E+01+
*       -3.198961637E+02               0
GRID*             157494               0-2.500000000E+007.5642912001E+01+
*       -3.215398917E+02               0
GRID*             157495               0-2.500000000E+007.5584483565E+01+
*       -3.232111416E+02               0
GRID*             157496               0-2.500000000E+007.3655511254E+01+
*       -3.244209959E+02               0
GRID*             157497               0-2.500000000E+007.0337768791E+01+
*       -3.245555950E+02               0
GRID*             157498               0-2.500000000E+006.7155322575E+01+
*       -3.245376271E+02               0
GRID*             157499               0-2.500000000E+006.4030187026E+01+
*       -3.244780380E+02               0
GRID*             157500               0-2.500000000E+006.0935697268E+01+
*       -3.244157214E+02               0
GRID*             157501               0-2.500000000E+005.7861300399E+01+
*       -3.243643422E+02               0
GRID*             157502               0-2.500000000E+005.4802050335E+01+
*       -3.243281889E+02               0
GRID*             157503               0-2.500000000E+005.1755229516E+01+
*       -3.243084114E+02               0
GRID*             157504               0-2.500000000E+004.8719306134E+01+
*       -3.243052265E+02               0
GRID*             157505               0-2.500000000E+004.5693586316E+01+
*       -3.243185043E+02               0
GRID*             157506               0-2.500000000E+004.2678030395E+01+
*       -3.243477304E+02               0
GRID*             157507               0-2.500000000E+003.9673092101E+01+
*       -3.243914888E+02               0
GRID*             157508               0-2.500000000E+003.6679576717E+01+
*       -3.244461194E+02               0
GRID*             157509               0-2.500000000E+003.3698693375E+01+
*       -3.245026054E+02               0
GRID*             157510               0-2.500000000E+003.0733199496E+01+
*       -3.245394725E+02               0
GRID*             157511               0-2.500000000E+002.7794517036E+01+
*       -3.245066884E+02               0
GRID*             157512               0-2.500000000E+001.5157535157E+01+
*       -3.269031853E+02               0
GRID*             157513               0-2.500000000E+001.6053304278E+01+
*       -3.259704839E+02               0
GRID*             157514               0-2.500000000E+001.7509945325E+01+
*       -3.266919925E+02               0
GRID*             157515               0-2.500000000E+001.6759873773E+01+
*       -3.252015890E+02               0
GRID*             157516               0-2.500000000E+001.5143428502E+01+
*       -3.252688963E+02               0
GRID*             157517               0-2.500000000E+001.2642227951E+01+
*       -3.242643920E+02               0
GRID*             157518               0-2.500000000E+001.3593007446E+01+
*       -3.252357179E+02               0
GRID*             157519               0-2.500000000E+001.2922937717E+01+
*       -3.264718549E+02               0
GRID*             157520               0-2.500000000E+001.4386440097E+01+
*       -3.260046128E+02               0
GRID*             157521               0-2.500000000E+001.2969104666E+01+
*       -3.155083984E+02               0
GRID*             157522               0-2.500000000E+001.2995719084E+01+
*       -3.171494110E+02               0
GRID*             157523               0-2.500000000E+001.2364828613E+01+
*       -3.164078100E+02               0
GRID*             157524               0-2.500000000E+001.1746163356E+01+
*       -3.178159771E+02               0
GRID*             157525               0-2.500000000E+001.1606014065E+01+
*       -3.154413315E+02               0
GRID*             157526               0-2.500000000E+001.2084427550E+01+
*       -3.234777584E+02               0
GRID*             157527               0-2.500000000E+001.3042194735E+01+
*       -3.229633671E+02               0
GRID*             157528               0-2.500000000E+001.1579678966E+01+
*       -3.213215061E+02               0
GRID*             157529               0-2.500000000E+001.2400304597E+01+
*       -3.221502164E+02               0
GRID*             157530               0-2.500000000E+001.2958105357E+01+
*       -3.214368492E+02               0
GRID*             157531               0-2.500000000E+001.2346408129E+01+
*       -3.204886085E+02               0
GRID*             157532               0-2.500000000E+001.2988298981E+01+
*       -3.198017592E+02               0
GRID*             157533               0-2.500000000E+001.1738742538E+01+
*       -3.189683254E+02               0
GRID*             157534               0-2.500000000E+007.0912362530E+01+
*       -2.276265074E+02               0
GRID*             157535               0-2.500000000E+006.9641071810E+01+
*       -2.261415410E+02               0
GRID*             157536               0-2.500000000E+007.1197329973E+01+
*       -2.248342815E+02               0
GRID*             157537               0-2.500000000E+007.2468620693E+01+
*       -2.263192479E+02               0
GRID*             157538               0-2.500000000E+006.8062676897E+01+
*       -2.273928732E+02               0
GRID*             157539               0-2.500000000E+006.6837474027E+01+
*       -2.258655698E+02               0
GRID*             157540               0-2.500000000E+006.8415868940E+01+
*       -2.246142376E+02               0
GRID*             157541               0-2.500000000E+006.5190721837E+01+
*       -2.270716181E+02               0
GRID*             157542               0-2.500000000E+006.3999485674E+01+
*       -2.254445171E+02               0
GRID*             157543               0-2.500000000E+006.5646237865E+01+
*       -2.242384688E+02               0
GRID*             157544               0-2.500000000E+006.2240522469E+01+
*       -2.266736213E+02               0
GRID*             157545               0-2.500000000E+006.0991646158E+01+
*       -2.248647498E+02               0
GRID*             157546               0-2.500000000E+006.2750609363E+01+
*       -2.236356456E+02               0
GRID*             157547               0-2.500000000E+005.9177217775E+01+
*       -2.263117410E+02               0
GRID*             157548               0-2.500000000E+005.7775486411E+01+
*       -2.245646242E+02               0
GRID*             157549               0-2.500000000E+005.9589914794E+01+
*       -2.231176331E+02               0
GRID*             157550               0-2.500000000E+005.6054859335E+01+
*       -2.260665852E+02               0
GRID*             157551               0-2.500000000E+005.4594027564E+01+
*       -2.243978567E+02               0
GRID*             157552               0-2.500000000E+005.6314654640E+01+
*       -2.228958957E+02               0
GRID*             157553               0-2.500000000E+007.9405246717E+01+
*       -2.280368996E+02               0
GRID*             157554               0-2.500000000E+007.8199538629E+01+
*       -2.265403827E+02               0
GRID*             157555               0-2.500000000E+007.9646048027E+01+
*       -2.252526027E+02               0
GRID*             157556               0-2.500000000E+008.0851756115E+01+
*       -2.267491196E+02               0
GRID*             157557               0-2.500000000E+007.6611846092E+01+
*       -2.279232984E+02               0
GRID*             157558               0-2.500000000E+007.5332208328E+01+
*       -2.264372879E+02               0
GRID*             157559               0-2.500000000E+007.6919900865E+01+
*       -2.250543722E+02               0
GRID*             157560               0-2.500000000E+007.3765243142E+01+
*       -2.277940963E+02               0
GRID*             157561               0-2.500000000E+007.4035585880E+01+
*       -2.249624395E+02               0
GRID*             157562               0-2.500000000E+008.8068655998E+01+
*       -2.275779136E+02               0
GRID*             157563               0-2.500000000E+008.7716459332E+01+
*       -2.259683124E+02               0
GRID*             157564               0-2.500000000E+008.7290837683E+01+
*       -2.284722010E+02               0
GRID*             157565               0-2.500000000E+008.6125646834E+01+
*       -2.276878535E+02               0
GRID*             157566               0-2.500000000E+008.6903465150E+01+
*       -2.267935661E+02               0
GRID*             157567               0-2.500000000E+008.6260863433E+01+
*       -2.258559316E+02               0
GRID*             157568               0-2.500000000E+008.2178068815E+01+
*       -2.280376722E+02               0
GRID*             157569               0-2.500000000E+008.2011247865E+01+
*       -2.253782492E+02               0
GRID*             157570               0-2.500000000E+008.3337560564E+01+
*       -2.266668018E+02               0
GRID*             157571               0-2.500000000E+008.5471398380E+01+
*       -2.267025691E+02               0
GRID*             157572               0-2.500000000E+008.4762389976E+01+
*       -2.258156406E+02               0
GRID*             157573               0-2.500000000E+008.4815511799E+01+
*       -2.283046771E+02               0
GRID*             157574               0-2.500000000E+008.4161263345E+01+
*       -2.273193926E+02               0
GRID*             157575               0-2.500000000E+005.2947124045E+01+
*       -2.259057517E+02               0
GRID*             157576               0-2.500000000E+005.1474803277E+01+
*       -2.242967514E+02               0
GRID*             157577               0-2.500000000E+005.3121706796E+01+
*       -2.227888565E+02               0
GRID*             157578               0-2.500000000E+004.9875462430E+01+
*       -2.257976821E+02               0
GRID*             157579               0-2.500000000E+004.8408020355E+01+
*       -2.242316457E+02               0
GRID*             157580               0-2.500000000E+005.0007361202E+01+
*       -2.227307151E+02               0
GRID*             157581               0-2.500000000E+004.6838811973E+01+
*       -2.257228719E+02               0
GRID*             157582               0-2.500000000E+004.5380393392E+01+
*       -2.241882162E+02               0
GRID*             157583               0-2.500000000E+004.6949601774E+01+
*       -2.226969900E+02               0
GRID*             157584               0-2.500000000E+004.3829750069E+01+
*       -2.256694754E+02               0
GRID*             157585               0-2.500000000E+004.2380546580E+01+
*       -2.241581041E+02               0
GRID*             157586               0-2.500000000E+004.3931189903E+01+
*       -2.226768449E+02               0
GRID*             157587               0-2.500000000E+004.0840050963E+01+
*       -2.256292598E+02               0
GRID*             157588               0-2.500000000E+003.9399153928E+01+
*       -2.241352102E+02               0
GRID*             157589               0-2.500000000E+004.0939649545E+01+
*       -2.226640545E+02               0
GRID*             157590               0-2.500000000E+003.7862301560E+01+
*       -2.255954537E+02               0
GRID*             157591               0-2.500000000E+003.6428444790E+01+
*       -2.241142741E+02               0
GRID*             157592               0-2.500000000E+003.7965297157E+01+
*       -2.226540306E+02               0
GRID*             157593               0-2.500000000E+003.4890579507E+01+
*       -2.255617215E+02               0
GRID*             157594               0-2.500000000E+003.3462057983E+01+
*       -2.240903903E+02               0
GRID*             157595               0-2.500000000E+003.4999923265E+01+
*       -2.226429429E+02               0
GRID*             157596               0-2.500000000E+003.1921654011E+01+
*       -2.255216260E+02               0
GRID*             157597               0-2.500000000E+003.0495777116E+01+
*       -2.240591085E+02               0
GRID*             157598               0-2.500000000E+003.2036181088E+01+
*       -2.226278728E+02               0
GRID*             157599               0-2.500000000E+002.8958417001E+01+
*       -2.254684269E+02               0
GRID*             157600               0-2.500000000E+002.7530690470E+01+
*       -2.240177779E+02               0
GRID*             157601               0-2.500000000E+002.9068050585E+01+
*       -2.226084595E+02               0
GRID*             157602               0-2.500000000E+002.6019234106E+01+
*       -2.253958701E+02               0
GRID*             157603               0-2.500000000E+002.4579324655E+01+
*       -2.239720214E+02               0
GRID*             157604               0-2.500000000E+002.6090781019E+01+
*       -2.225939292E+02               0
GRID*             157605               0-2.500000000E+002.3164412385E+01+
*       -2.253014605E+02               0
GRID*             157606               0-2.500000000E+002.1712893159E+01+
*       -2.239554845E+02               0
GRID*             157607               0-2.500000000E+002.3127805430E+01+
*       -2.226260454E+02               0
GRID*             157608               0-2.500000000E+002.0540138427E+01+
*       -2.251935121E+02               0
GRID*             157609               0-2.500000000E+001.9226759762E+01+
*       -2.240836534E+02               0
GRID*             157610               0-2.500000000E+002.0399514495E+01+
*       -2.228456258E+02               0
GRID*             157611               0-2.500000000E+001.8301295077E+01+
*       -2.250511711E+02               0
GRID*             157612               0-2.500000000E+001.8100364000E+01+
*       -2.230738941E+02               0
GRID*             157613               0-2.500000000E+001.8081780209E+01+
*       -3.046404642E+02               0
GRID*             157614               0-2.500000000E+001.9769160866E+01+
*       -3.030017852E+02               0
GRID*             157615               0-2.500000000E+002.1285999050E+01+
*       -3.045787326E+02               0
GRID*             157616               0-2.500000000E+001.9598618393E+01+
*       -3.062174116E+02               0
GRID*             157617               0-2.500000000E+001.7834757580E+01+
*       -3.077130861E+02               0
GRID*             157618               0-2.500000000E+002.0906076960E+01+
*       -3.080170433E+02               0
GRID*             157619               0-2.500000000E+001.9142216147E+01+
*       -3.095127178E+02               0
GRID*             157620               0-2.500000000E+002.0323056061E+01+
*       -3.131066292E+02               0
GRID*             157621               0-2.500000000E+002.1151788285E+01+
*       -3.141612691E+02               0
GRID*             157622               0-2.500000000E+001.9521270066E+01+
*       -3.144453598E+02               0
GRID*             157623               0-2.500000000E+001.7931993068E+01+
*       -3.145726401E+02               0
GRID*             157624               0-2.500000000E+001.8603260845E+01+
*       -3.135180010E+02               0
GRID*             157625               0-2.500000000E+001.7488933545E+01+
*       -3.104506319E+02               0
GRID*             157626               0-2.500000000E+001.9904978253E+01+
*       -3.106652226E+02               0
GRID*             157627               0-2.500000000E+001.8251695652E+01+
*       -3.116031368E+02               0
GRID*             157628               0-2.500000000E+002.0907279041E+01+
*       -3.113112988E+02               0
GRID*             157629               0-2.500000000E+001.9320755274E+01+
*       -3.124605531E+02               0
GRID*             157630               0-2.500000000E+001.7534201222E+01+
*       -3.126605847E+02               0
GRID*             157631               0-2.500000000E+001.3468154077E+01+
*       -3.062438128E+02               0
GRID*             157632               0-2.500000000E+001.3546152344E+01+
*       -3.031966203E+02               0
GRID*             157633               0-2.500000000E+001.5016019241E+01+
*       -3.047003663E+02               0
GRID*             157634               0-2.500000000E+001.6618328004E+01+
*       -3.031247086E+02               0
GRID*             157635               0-2.500000000E+001.6479471446E+01+
*       -3.062161220E+02               0
GRID*             157636               0-2.500000000E+001.2198459983E+01+
*       -3.133261092E+02               0
GRID*             157637               0-2.500000000E+001.2456644662E+01+
*       -3.147558528E+02               0
GRID*             157638               0-2.500000000E+001.6956706023E+01+
*       -3.138157324E+02               0
GRID*             157639               0-2.500000000E+001.6374713813E+01+
*       -3.147430908E+02               0
GRID*             157640               0-2.500000000E+001.5619544856E+01+
*       -3.142746650E+02               0
GRID*             157641               0-2.500000000E+001.5094829040E+01+
*       -3.150315728E+02               0
GRID*             157642               0-2.500000000E+001.3360318070E+01+
*       -3.093192041E+02               0
GRID*             157643               0-2.500000000E+001.4889314247E+01+
*       -3.077637769E+02               0
GRID*             157644               0-2.500000000E+001.6244600381E+01+
*       -3.092607410E+02               0
GRID*             157645               0-2.500000000E+001.5445174070E+01+
*       -3.132007912E+02               0
GRID*             157646               0-2.500000000E+001.6022669270E+01+
*       -3.120456436E+02               0
GRID*             157647               0-2.500000000E+001.4778336106E+01+
*       -3.108557526E+02               0
GRID*             157648               0-2.500000000E+002.3017914940E+01+
*       -3.060850219E+02               0
GRID*             157649               0-2.500000000E+002.3030610436E+01+
*       -3.027314923E+02               0
GRID*             157650               0-2.500000000E+002.4762526325E+01+
*       -3.042377816E+02               0
GRID*             157651               0-2.500000000E+002.6302318157E+01+
*       -3.021905332E+02               0
GRID*             157652               0-2.500000000E+002.8046194908E+01+
*       -3.032021031E+02               0
GRID*             157653               0-2.500000000E+002.6506403076E+01+
*       -3.052493516E+02               0
GRID*             157654               0-2.500000000E+002.9451112771E+01+
*       -3.015764210E+02               0
GRID*             157655               0-2.500000000E+003.1081120193E+01+
*       -3.026105269E+02               0
GRID*             157656               0-2.500000000E+002.9676202330E+01+
*       -3.042362090E+02               0
GRID*             157657               0-2.500000000E+003.2497024326E+01+
*       -3.011064604E+02               0
GRID*             157658               0-2.500000000E+003.4068520546E+01+
*       -3.021804246E+02               0
GRID*             157659               0-2.500000000E+003.2652616412E+01+
*       -3.036844911E+02               0
GRID*             157660               0-2.500000000E+003.5506873178E+01+
*       -3.007418799E+02               0
GRID*             157661               0-2.500000000E+003.7050964192E+01+
*       -3.018512468E+02               0
GRID*             157662               0-2.500000000E+003.5612611559E+01+
*       -3.032897915E+02               0
GRID*             157663               0-2.500000000E+003.8507609052E+01+
*       -3.004593890E+02               0
GRID*             157664               0-2.500000000E+004.0038926495E+01+
*       -3.016002771E+02               0
GRID*             157665               0-2.500000000E+003.8582281634E+01+
*       -3.029921350E+02               0
GRID*             157666               0-2.500000000E+004.1509259566E+01+
*       -3.002463067E+02               0
GRID*             157667               0-2.500000000E+004.3034856595E+01+
*       -3.014167393E+02               0
GRID*             157668               0-2.500000000E+004.1564523524E+01+
*       -3.027707097E+02               0
GRID*             157669               0-2.500000000E+004.4515386789E+01+
*       -3.000955214E+02               0
GRID*             157670               0-2.500000000E+004.6038969861E+01+
*       -3.012946394E+02               0
GRID*             157671               0-2.500000000E+004.4558439667E+01+
*       -3.026158573E+02               0
GRID*             157672               0-2.500000000E+004.7527053568E+01+
*       -3.000028019E+02               0
GRID*             157673               0-2.500000000E+004.9050775615E+01+
*       -3.012304356E+02               0
GRID*             157674               0-2.500000000E+004.7562691908E+01+
*       -3.025222731E+02               0
GRID*             157675               0-2.500000000E+005.0544243962E+01+
*       -2.999656027E+02               0
GRID*             157676               0-2.500000000E+005.2069455148E+01+
*       -3.012221425E+02               0
GRID*             157677               0-2.500000000E+005.0575986801E+01+
*       -3.024869754E+02               0
GRID*             157678               0-2.500000000E+005.3566342669E+01+
*       -2.999825031E+02               0
GRID*             157679               0-2.500000000E+005.5093902900E+01+
*       -3.012689033E+02               0
GRID*             157680               0-2.500000000E+005.3597015379E+01+
*       -3.025085427E+02               0
GRID*             157681               0-2.500000000E+005.6592266250E+01+
*       -3.000528737E+02               0
GRID*             157682               0-2.500000000E+005.8122652947E+01+
*       -3.013707000E+02               0
GRID*             157683               0-2.500000000E+005.6624289597E+01+
*       -3.025867296E+02               0
GRID*             157684               0-2.500000000E+005.9620448852E+01+
*       -3.001765705E+02               0
GRID*             157685               0-2.500000000E+006.1153747063E+01+
*       -3.015280444E+02               0
GRID*             157686               0-2.500000000E+005.9655951158E+01+
*       -3.027221738E+02               0
GRID*             157687               0-2.500000000E+006.2648790544E+01+
*       -3.003535429E+02               0
GRID*             157688               0-2.500000000E+006.4184694557E+01+
*       -3.017416440E+02               0
GRID*             157689               0-2.500000000E+006.2689651076E+01+
*       -3.029161454E+02               0
GRID*             157690               0-2.500000000E+006.5674754717E+01+
*       -3.005834138E+02               0
GRID*             157691               0-2.500000000E+006.7212763946E+01+
*       -3.020123256E+02               0
GRID*             157692               0-2.500000000E+006.5722703786E+01+
*       -3.031705558E+02               0
GRID*             157693               0-2.500000000E+006.8695698729E+01+
*       -3.008651447E+02               0
GRID*             157694               0-2.500000000E+007.0235465419E+01+
*       -3.023411478E+02               0
GRID*             157695               0-2.500000000E+006.8752530636E+01+
*       -3.034883287E+02               0
GRID*             157696               0-2.500000000E+007.1709178316E+01+
*       -3.011962597E+02               0
GRID*             157697               0-2.500000000E+007.3250660848E+01+
*       -3.027283258E+02               0
GRID*             157698               0-2.500000000E+007.1776947951E+01+
*       -3.038732139E+02               0
GRID*             157699               0-2.500000000E+007.4712787222E+01+
*       -3.015702881E+02               0
GRID*             157700               0-2.500000000E+007.6255522678E+01+
*       -3.031685442E+02               0
GRID*             157701               0-2.500000000E+007.4793396304E+01+
*       -3.043265819E+02               0
GRID*             157702               0-2.500000000E+007.7703037097E+01+
*       -3.019709053E+02               0
GRID*             157703               0-2.500000000E+007.9241073368E+01+
*       -3.036370131E+02               0
GRID*             157704               0-2.500000000E+007.7793558948E+01+
*       -3.048346520E+02               0
GRID*             157705               0-2.500000000E+008.0676213690E+01+
*       -3.023637811E+02               0
GRID*             157706               0-2.500000000E+008.2196227864E+01+
*       -3.040561854E+02               0
GRID*             157707               0-2.500000000E+008.0761087542E+01+
*       -3.053294174E+02               0
GRID*             157708               0-2.500000000E+008.3635914242E+01+
*       -3.027188546E+02               0
GRID*             157709               0-2.500000000E+008.5142356186E+01+
*       -3.044517503E+02               0
GRID*             157710               0-2.500000000E+008.3702669808E+01+
*       -3.057890810E+02               0
GRID*             157711               0-2.500000000E+008.6587220151E+01+
*       -3.029948292E+02               0
GRID*             157712               0-2.500000000E+008.6638204345E+01+
*       -3.060975295E+02               0
GRID*             157713               0-2.500000000E+008.6729416720E+01+
*       -3.094466714E+02               0
GRID*             157714               0-2.500000000E+008.5207830351E+01+
*       -3.077812181E+02               0
GRID*             157715               0-2.500000000E+008.7446183828E+01+
*       -3.125980154E+02               0
GRID*             157716               0-2.500000000E+008.5788943558E+01+
*       -3.111354258E+02               0
GRID*             157717               0-2.500000000E+008.7491404563E+01+
*       -3.155874963E+02               0
GRID*             157718               0-2.500000000E+008.6366637457E+01+
*       -3.141134050E+02               0
GRID*             157719               0-2.500000000E+008.4735838303E+01+
*       -3.143402945E+02               0
GRID*             157720               0-2.500000000E+008.5452474234E+01+
*       -3.129536994E+02               0
GRID*             157721               0-2.500000000E+008.3167367403E+01+
*       -3.144545075E+02               0
GRID*             157722               0-2.500000000E+008.3753204180E+01+
*       -3.132948020E+02               0
GRID*             157723               0-2.500000000E+008.1639457568E+01+
*       -3.146034325E+02               0
GRID*             157724               0-2.500000000E+008.2156823445E+01+
*       -3.135579400E+02               0
GRID*             157725               0-2.500000000E+008.0321502868E+01+
*       -3.149097392E+02               0
GRID*             157726               0-2.500000000E+008.0810958911E+01+
*       -3.140131716E+02               0
GRID*             157727               0-2.500000000E+007.8897924977E+01+
*       -3.145525543E+02               0
GRID*             157728               0-2.500000000E+007.9569426319E+01+
*       -3.139622935E+02               0
GRID*             157729               0-2.500000000E+007.7053789710E+01+
*       -3.141589898E+02               0
GRID*             157730               0-2.500000000E+007.7801713161E+01+
*       -3.132115441E+02               0
GRID*             157731               0-2.500000000E+007.3708438547E+01+
*       -3.129572711E+02               0
GRID*             157732               0-2.500000000E+007.5159654307E+01+
*       -3.123073537E+02               0
GRID*             157733               0-2.500000000E+007.0543962403E+01+
*       -3.122775464E+02               0
GRID*             157734               0-2.500000000E+007.2056318255E+01+
*       -3.114670609E+02               0
GRID*             157735               0-2.500000000E+006.7427047698E+01+
*       -3.118142421E+02               0
GRID*             157736               0-2.500000000E+006.8952566574E+01+
*       -3.109048392E+02               0
GRID*             157737               0-2.500000000E+006.4333890889E+01+
*       -3.114766166E+02               0
GRID*             157738               0-2.500000000E+006.5863292925E+01+
*       -3.105010879E+02               0
GRID*             157739               0-2.500000000E+006.1256599487E+01+
*       -3.112270590E+02               0
GRID*             157740               0-2.500000000E+006.2787478125E+01+
*       -3.102029818E+02               0
GRID*             157741               0-2.500000000E+005.8193063189E+01+
*       -3.110482772E+02               0
GRID*             157742               0-2.500000000E+005.9723472396E+01+
*       -3.099851437E+02               0
GRID*             157743               0-2.500000000E+005.5143395145E+01+
*       -3.109316058E+02               0
GRID*             157744               0-2.500000000E+005.6671338538E+01+
*       -3.098350129E+02               0
GRID*             157745               0-2.500000000E+005.2108339895E+01+
*       -3.108723617E+02               0
GRID*             157746               0-2.500000000E+005.3631999553E+01+
*       -3.097460433E+02               0
GRID*             157747               0-2.500000000E+004.9088931067E+01+
*       -3.108681553E+02               0
GRID*             157748               0-2.500000000E+005.0606675384E+01+
*       -3.097148085E+02               0
GRID*             157749               0-2.500000000E+004.6086728367E+01+
*       -3.109183067E+02               0
GRID*             157750               0-2.500000000E+004.7596913708E+01+
*       -3.097399172E+02               0
GRID*             157751               0-2.500000000E+004.3104298705E+01+
*       -3.110235623E+02               0
GRID*             157752               0-2.500000000E+004.4604992715E+01+
*       -3.098216010E+02               0
GRID*             157753               0-2.500000000E+004.0145949452E+01+
*       -3.111857201E+02               0
GRID*             157754               0-2.500000000E+004.1634637906E+01+
*       -3.099613956E+02               0
GRID*             157755               0-2.500000000E+003.7218763798E+01+
*       -3.114068143E+02               0
GRID*             157756               0-2.500000000E+003.8692188775E+01+
*       -3.101614766E+02               0
GRID*             157757               0-2.500000000E+003.4333583767E+01+
*       -3.116875270E+02               0
GRID*             157758               0-2.500000000E+003.5788328422E+01+
*       -3.104230305E+02               0
GRID*             157759               0-2.500000000E+003.1503850674E+01+
*       -3.120251774E+02               0
GRID*             157760               0-2.500000000E+003.2939655579E+01+
*       -3.107425627E+02               0
GRID*             157761               0-2.500000000E+002.8734401901E+01+
*       -3.124170219E+02               0
GRID*             157762               0-2.500000000E+003.0165452924E+01+
*       -3.111054445E+02               0
GRID*             157763               0-2.500000000E+002.5980063102E+01+
*       -3.129129584E+02               0
GRID*             157764               0-2.500000000E+002.7466972478E+01+
*       -3.114953306E+02               0
GRID*             157765               0-2.500000000E+002.3014003638E+01+
*       -3.138850643E+02               0
GRID*             157766               0-2.500000000E+002.4781319933E+01+
*       -3.119829180E+02               0
GRID*             157767               0-2.500000000E+002.2315789633E+01+
*       -3.125463334E+02               0
GRID*             157768               0-2.500000000E+002.2181687797E+01+
*       -3.095414818E+02               0
GRID*             157769               0-2.500000000E+002.3590198390E+01+
*       -3.107765164E+02               0
GRID*             157770               0-2.500000000E+002.4293525777E+01+
*       -3.076094603E+02               0
GRID*             157771               0-2.500000000E+008.2284560131E+01+
*       -3.070916529E+02               0
GRID*             157772               0-2.500000000E+008.3789720674E+01+
*       -3.090837900E+02               0
GRID*             157773               0-2.500000000E+008.2590635461E+01+
*       -3.123018241E+02               0
GRID*             157774               0-2.500000000E+008.3159295016E+01+
*       -3.112038550E+02               0
GRID*             157775               0-2.500000000E+008.4321863735E+01+
*       -3.121968329E+02               0
GRID*             157776               0-2.500000000E+008.2290682631E+01+
*       -3.099090857E+02               0
GRID*             157777               0-2.500000000E+008.4658333060E+01+
*       -3.103785593E+02               0
GRID*             157778               0-2.500000000E+007.9365036741E+01+
*       -3.066084749E+02               0
GRID*             157779               0-2.500000000E+008.0888509330E+01+
*       -3.083707103E+02               0
GRID*             157780               0-2.500000000E+008.0975752458E+01+
*       -3.112894971E+02               0
GRID*             157781               0-2.500000000E+007.9573579158E+01+
*       -3.097511217E+02               0
GRID*             157782               0-2.500000000E+007.9300407851E+01+
*       -3.124947349E+02               0
GRID*             157783               0-2.500000000E+008.0541940443E+01+
*       -3.125456130E+02               0
GRID*             157784               0-2.500000000E+002.7592107360E+01+
*       -3.091721341E+02               0
GRID*             157785               0-2.500000000E+002.8819174436E+01+
*       -3.101622357E+02               0
GRID*             157786               0-2.500000000E+002.6239905401E+01+
*       -3.105052290E+02               0
GRID*             157787               0-2.500000000E+002.5048783858E+01+
*       -3.092988275E+02               0
GRID*             157788               0-2.500000000E+002.8445929661E+01+
*       -3.056890338E+02               0
GRID*             157789               0-2.500000000E+002.7623779658E+01+
*       -3.070404394E+02               0
GRID*             157790               0-2.500000000E+002.5684253073E+01+
*       -3.066007573E+02               0
GRID*             157791               0-2.500000000E+002.8776375863E+01+
*       -3.079224492E+02               0
GRID*             157792               0-2.500000000E+002.6439511155E+01+
*       -3.082901244E+02               0
GRID*             157793               0-2.500000000E+003.1287852274E+01+
*       -3.051203019E+02               0
GRID*             157794               0-2.500000000E+003.0057579605E+01+
*       -3.065731266E+02               0
GRID*             157795               0-2.500000000E+003.1458666754E+01+
*       -3.074872480E+02               0
GRID*             157796               0-2.500000000E+003.0177463012E+01+
*       -3.088365706E+02               0
GRID*             157797               0-2.500000000E+003.1523741499E+01+
*       -3.097797794E+02               0
GRID*             157798               0-2.500000000E+003.5709789411E+01+
*       -3.057423982E+02               0
GRID*             157799               0-2.500000000E+003.7190885485E+01+
*       -3.067643890E+02               0
GRID*             157800               0-2.500000000E+003.5769666548E+01+
*       -3.081099422E+02               0
GRID*             157801               0-2.500000000E+003.4288570474E+01+
*       -3.070879514E+02               0
GRID*             157802               0-2.500000000E+003.8643769769E+01+
*       -3.054478315E+02               0
GRID*             157803               0-2.500000000E+004.0133625442E+01+
*       -3.065140517E+02               0
GRID*             157804               0-2.500000000E+003.8680741158E+01+
*       -3.078306093E+02               0
GRID*             157805               0-2.500000000E+004.1606612297E+01+
*       -3.052271203E+02               0
GRID*             157806               0-2.500000000E+004.3102647866E+01+
*       -3.063314552E+02               0
GRID*             157807               0-2.500000000E+004.1629661011E+01+
*       -3.076183867E+02               0
GRID*             157808               0-2.500000000E+004.4589315604E+01+
*       -3.050732182E+02               0
GRID*             157809               0-2.500000000E+004.6090912261E+01+
*       -3.062118851E+02               0
GRID*             157810               0-2.500000000E+004.4604244522E+01+
*       -3.074701222E+02               0
GRID*             157811               0-2.500000000E+004.7587331714E+01+
*       -3.049814280E+02               0
GRID*             157812               0-2.500000000E+004.9094506308E+01+
*       -3.061521188E+02               0
GRID*             157813               0-2.500000000E+004.7598086855E+01+
*       -3.073825759E+02               0
GRID*             157814               0-2.500000000E+005.0597935950E+01+
*       -3.049489867E+02               0
GRID*             157815               0-2.500000000E+005.2110962604E+01+
*       -3.061504996E+02               0
GRID*             157816               0-2.500000000E+005.0607532962E+01+
*       -3.073536318E+02               0
GRID*             157817               0-2.500000000E+005.3619158514E+01+
*       -3.049747581E+02               0
GRID*             157818               0-2.500000000E+005.5138422595E+01+
*       -3.062068784E+02               0
GRID*             157819               0-2.500000000E+005.3630226685E+01+
*       -3.073826199E+02               0
GRID*             157820               0-2.500000000E+005.6649221275E+01+
*       -3.050590294E+02               0
GRID*             157821               0-2.500000000E+005.8175139411E+01+
*       -3.063225683E+02               0
GRID*             157822               0-2.500000000E+005.6664340732E+01+
*       -3.074704172E+02               0
GRID*             157823               0-2.500000000E+005.9686177122E+01+
*       -3.052033958E+02               0
GRID*             157824               0-2.500000000E+006.1219187134E+01+
*       -3.065004660E+02               0
GRID*             157825               0-2.500000000E+005.9708149424E+01+
*       -3.076196385E+02               0
GRID*             157826               0-2.500000000E+006.2727772201E+01+
*       -3.054109024E+02               0
GRID*             157827               0-2.500000000E+006.4268531055E+01+
*       -3.067457775E+02               0
GRID*             157828               0-2.500000000E+006.2759945988E+01+
*       -3.078353411E+02               0
GRID*             157829               0-2.500000000E+006.5771707274E+01+
*       -3.056868827E+02               0
GRID*             157830               0-2.500000000E+006.7321640521E+01+
*       -3.070681058E+02               0
GRID*             157831               0-2.500000000E+006.5818464302E+01+
*       -3.081270006E+02               0
GRID*             157832               0-2.500000000E+006.8816280162E+01+
*       -3.060407859E+02               0
GRID*             157833               0-2.500000000E+007.0378479908E+01+
*       -3.074855232E+02               0
GRID*             157834               0-2.500000000E+006.8883840268E+01+
*       -3.085128431E+02               0
GRID*             157835               0-2.500000000E+007.1860953568E+01+
*       -3.064883661E+02               0
GRID*             157836               0-2.500000000E+007.3441774128E+01+
*       -3.080315643E+02               0
GRID*             157837               0-2.500000000E+007.1959300468E+01+
*       -3.090287215E+02               0
GRID*             157838               0-2.500000000E+007.4906254517E+01+
*       -3.070523118E+02               0
GRID*             157839               0-2.500000000E+007.6523098137E+01+
*       -3.087737972E+02               0
GRID*             157840               0-2.500000000E+007.5058617747E+01+
*       -3.097530498E+02               0
GRID*             157841               0-2.500000000E+003.4191256084E+01+
*       -3.046842192E+02               0
GRID*             157842               0-2.500000000E+003.2826491946E+01+
*       -3.061200300E+02               0
GRID*             157843               0-2.500000000E+003.7131144887E+01+
*       -3.043479704E+02               0
GRID*             157844               0-2.500000000E+004.0094906516E+01+
*       -3.040919960E+02               0
GRID*             157845               0-2.500000000E+004.3076229305E+01+
*       -3.039058340E+02               0
GRID*             157846               0-2.500000000E+004.6071525967E+01+
*       -3.037832415E+02               0
GRID*             157847               0-2.500000000E+004.9078497656E+01+
*       -3.037204596E+02               0
GRID*             157848               0-2.500000000E+005.2095425096E+01+
*       -3.037155024E+02               0
GRID*             157849               0-2.500000000E+005.5120748798E+01+
*       -3.037677985E+02               0
GRID*             157850               0-2.500000000E+005.8152762074E+01+
*       -3.038779606E+02               0
GRID*             157851               0-2.500000000E+006.1189366205E+01+
*       -3.040476090E+02               0
GRID*             157852               0-2.500000000E+006.4228057071E+01+
*       -3.042794389E+02               0
GRID*             157853               0-2.500000000E+006.7266353989E+01+
*       -3.045779996E+02               0
GRID*             157854               0-2.500000000E+007.0302456809E+01+
*       -3.049511150E+02               0
GRID*             157855               0-2.500000000E+007.3335444710E+01+
*       -3.054104649E+02               0
GRID*             157856               0-2.500000000E+007.6364206111E+01+
*       -3.059684288E+02               0
GRID*             157857               0-2.500000000E+007.7935683903E+01+
*       -3.077422516E+02               0
GRID*             157858               0-2.500000000E+007.8160993391E+01+
*       -3.107826673E+02               0
GRID*             157859               0-2.500000000E+007.6662298701E+01+
*       -3.114994766E+02               0
GRID*             157860               0-2.500000000E+007.3555973354E+01+
*       -3.105609269E+02               0
GRID*             157861               0-2.500000000E+007.0459645369E+01+
*       -3.099348554E+02               0
GRID*             157862               0-2.500000000E+006.7376761473E+01+
*       -3.094828268E+02               0
GRID*             157863               0-2.500000000E+006.4304995754E+01+
*       -3.091452616E+02               0
GRID*             157864               0-2.500000000E+006.1242428359E+01+
*       -3.088930613E+02               0
GRID*             157865               0-2.500000000E+005.8189193461E+01+
*       -3.087117209E+02               0
GRID*             157866               0-2.500000000E+005.5146485809E+01+
*       -3.085937092E+02               0
GRID*             157867               0-2.500000000E+005.2115740429E+01+
*       -3.085349540E+02               0
GRID*             157868               0-2.500000000E+004.9098467917E+01+
*       -3.085334863E+02               0
GRID*             157869               0-2.500000000E+004.6096532646E+01+
*       -3.085890068E+02               0
GRID*             157870               0-2.500000000E+004.3112704591E+01+
*       -3.087027164E+02               0
GRID*             157871               0-2.500000000E+004.0151594325E+01+
*       -3.088770659E+02               0
GRID*             157872               0-2.500000000E+003.7221335608E+01+
*       -3.091150200E+02               0
GRID*             157873               0-2.500000000E+003.4336659361E+01+
*       -3.094179527E+02               0
GRID*             157874               0-2.500000000E+003.2920745282E+01+
*       -3.084551694E+02               0
GRID*             157875               0-2.500000000E+001.5095996807E+01+
*       -3.016442481E+02               0
GRID*             157876               0-2.500000000E+001.3587186674E+01+
*       -3.001650185E+02               0
GRID*             157877               0-2.500000000E+001.3603625087E+01+
*       -2.971538598E+02               0
GRID*             157878               0-2.500000000E+001.5132950692E+01+
*       -2.986076455E+02               0
GRID*             157879               0-2.500000000E+001.3605898450E+01+
*       -2.941597494E+02               0
GRID*             157880               0-2.500000000E+001.5143887952E+01+
*       -2.955959761E+02               0
GRID*             157881               0-2.500000000E+001.3601045635E+01+
*       -2.911779698E+02               0
GRID*             157882               0-2.500000000E+001.5141004255E+01+
*       -2.926039629E+02               0
GRID*             157883               0-2.500000000E+001.3593109651E+01+
*       -2.882042674E+02               0
GRID*             157884               0-2.500000000E+001.5131726533E+01+
*       -2.896254234E+02               0
GRID*             157885               0-2.500000000E+001.3584135632E+01+
*       -2.852354557E+02               0
GRID*             157886               0-2.500000000E+001.5119997749E+01+
*       -2.866553041E+02               0
GRID*             157887               0-2.500000000E+001.3574992189E+01+
*       -2.822694077E+02               0
GRID*             157888               0-2.500000000E+001.5107651214E+01+
*       -2.836900544E+02               0
GRID*             157889               0-2.500000000E+001.3565929822E+01+
*       -2.793048223E+02               0
GRID*             157890               0-2.500000000E+001.5095367692E+01+
*       -2.807274045E+02               0
GRID*             157891               0-2.500000000E+001.3556400610E+01+
*       -2.763418476E+02               0
GRID*             157892               0-2.500000000E+001.5082751201E+01+
*       -2.777668798E+02               0
GRID*             157893               0-2.500000000E+001.6598358004E+01+
*       -2.762285138E+02               0
GRID*             157894               0-2.500000000E+001.8129942146E+01+
*       -2.776463873E+02               0
GRID*             157895               0-2.500000000E+001.6614335343E+01+
*       -2.791847533E+02               0
GRID*             157896               0-2.500000000E+001.9644545151E+01+
*       -2.761076752E+02               0
GRID*             157897               0-2.500000000E+002.1181095386E+01+
*       -2.775184614E+02               0
GRID*             157898               0-2.500000000E+001.9666492382E+01+
*       -2.790571735E+02               0
GRID*             157899               0-2.500000000E+002.2694144575E+01+
*       -2.759810769E+02               0
GRID*             157900               0-2.500000000E+002.4235100427E+01+
*       -2.773853214E+02               0
GRID*             157901               0-2.500000000E+002.2722051238E+01+
*       -2.789227060E+02               0
GRID*             157902               0-2.500000000E+002.5746102786E+01+
*       -2.758513425E+02               0
GRID*             157903               0-2.500000000E+002.7290513944E+01+
*       -2.772504536E+02               0
GRID*             157904               0-2.500000000E+002.5779511585E+01+
*       -2.787844325E+02               0
GRID*             157905               0-2.500000000E+002.8799258757E+01+
*       -2.757219733E+02               0
GRID*             157906               0-2.500000000E+003.0346122883E+01+
*       -2.771178852E+02               0
GRID*             157907               0-2.500000000E+002.8837378070E+01+
*       -2.786463655E+02               0
GRID*             157908               0-2.500000000E+003.1852795999E+01+
*       -2.755966896E+02               0
GRID*             157909               0-2.500000000E+003.3401259192E+01+
*       -2.769916504E+02               0
GRID*             157910               0-2.500000000E+003.1894586075E+01+
*       -2.785128460E+02               0
GRID*             157911               0-2.500000000E+003.4906432575E+01+
*       -2.754790673E+02               0
GRID*             157912               0-2.500000000E+003.6455836334E+01+
*       -2.768755273E+02               0
GRID*             157913               0-2.500000000E+003.4950662951E+01+
*       -2.783881104E+02               0
GRID*             157914               0-2.500000000E+003.7960372916E+01+
*       -2.753724474E+02               0
GRID*             157915               0-2.500000000E+003.9510189238E+01+
*       -2.767729913E+02               0
GRID*             157916               0-2.500000000E+003.8005652656E+01+
*       -2.782760712E+02               0
GRID*             157917               0-2.500000000E+004.1015098576E+01+
*       -2.752800083E+02               0
GRID*             157918               0-2.500000000E+004.2564811192E+01+
*       -2.766872727E+02               0
GRID*             157919               0-2.500000000E+004.1059901853E+01+
*       -2.781802557E+02               0
GRID*             157920               0-2.500000000E+004.4071078600E+01+
*       -2.752048529E+02               0
GRID*             157921               0-2.500000000E+004.5620061862E+01+
*       -2.766213907E+02               0
GRID*             157922               0-2.500000000E+004.4113794454E+01+
*       -2.781038105E+02               0
GRID*             157923               0-2.500000000E+004.7128464789E+01+
*       -2.751499891E+02               0
GRID*             157924               0-2.500000000E+004.8675903222E+01+
*       -2.765780775E+02               0
GRID*             157925               0-2.500000000E+004.7167500296E+01+
*       -2.780494791E+02               0
GRID*             157926               0-2.500000000E+005.0186840866E+01+
*       -2.751181315E+02               0
GRID*             157927               0-2.500000000E+005.1731728745E+01+
*       -2.765595525E+02               0
GRID*             157928               0-2.500000000E+005.0220791101E+01+
*       -2.780194985E+02               0
GRID*             157929               0-2.500000000E+005.3245118065E+01+
*       -2.751113391E+02               0
GRID*             157930               0-2.500000000E+005.4786361531E+01+
*       -2.765672072E+02               0
GRID*             157931               0-2.500000000E+005.3272972211E+01+
*       -2.780154206E+02               0
GRID*             157932               0-2.500000000E+005.6301655037E+01+
*       -2.751306387E+02               0
GRID*             157933               0-2.500000000E+005.7838250880E+01+
*       -2.766013638E+02               0
GRID*             157934               0-2.500000000E+005.6322957373E+01+
*       -2.780379323E+02               0
GRID*             157935               0-2.500000000E+005.9354575364E+01+
*       -2.751758579E+02               0
GRID*             157936               0-2.500000000E+006.0885785825E+01+
*       -2.766612694E+02               0
GRID*             157937               0-2.500000000E+005.9369461340E+01+
*       -2.780867752E+02               0
GRID*             157938               0-2.500000000E+006.2402133137E+01+
*       -2.752457415E+02               0
GRID*             157939               0-2.500000000E+006.3927579657E+01+
*       -2.767452715E+02               0
GRID*             157940               0-2.500000000E+006.2411232345E+01+
*       -2.781607993E+02               0
GRID*             157941               0-2.500000000E+006.5442974413E+01+
*       -2.753381981E+02               0
GRID*             157942               0-2.500000000E+006.6962634693E+01+
*       -2.768509958E+02               0
GRID*             157943               0-2.500000000E+006.5447239936E+01+
*       -2.782580692E+02               0
GRID*             157944               0-2.500000000E+006.8476238617E+01+
*       -2.754504579E+02               0
GRID*             157945               0-2.500000000E+006.9990372307E+01+
*       -2.769753335E+02               0
GRID*             157946               0-2.500000000E+006.8476768383E+01+
*       -2.783758714E+02               0
GRID*             157947               0-2.500000000E+007.1501524928E+01+
*       -2.755790010E+02               0
GRID*             157948               0-2.500000000E+007.3010568053E+01+
*       -2.771142050E+02               0
GRID*             157949               0-2.500000000E+007.1499415432E+01+
*       -2.785105375E+02               0
GRID*             157950               0-2.500000000E+007.4518795042E+01+
*       -2.757193605E+02               0
GRID*             157951               0-2.500000000E+007.6023276643E+01+
*       -2.772624260E+02               0
GRID*             157952               0-2.500000000E+007.4515049654E+01+
*       -2.786572705E+02               0
GRID*             157953               0-2.500000000E+007.7528302595E+01+
*       -2.758661941E+02               0
GRID*             157954               0-2.500000000E+007.9028829843E+01+
*       -2.774141862E+02               0
GRID*             157955               0-2.500000000E+007.7523803892E+01+
*       -2.788104181E+02               0
GRID*             157956               0-2.500000000E+008.0530607717E+01+
*       -2.760139923E+02               0
GRID*             157957               0-2.500000000E+008.2027919958E+01+
*       -2.775642439E+02               0
GRID*             157958               0-2.500000000E+008.0526142084E+01+
*       -2.789644378E+02               0
GRID*             157959               0-2.500000000E+008.3526657299E+01+
*       -2.761583292E+02               0
GRID*             157960               0-2.500000000E+008.5021691045E+01+
*       -2.777094062E+02               0
GRID*             157961               0-2.500000000E+008.3522953704E+01+
*       -2.791153209E+02               0
GRID*             157962               0-2.500000000E+008.6518021935E+01+
*       -2.762984933E+02               0
GRID*             157963               0-2.500000000E+008.6515641612E+01+
*       -2.792622040E+02               0
GRID*             157964               0-2.500000000E+008.6515292893E+01+
*       -2.822238126E+02               0
GRID*             157965               0-2.500000000E+008.5019920131E+01+
*       -2.806686222E+02               0
GRID*             157966               0-2.500000000E+008.6516651947E+01+
*       -2.851818875E+02               0
GRID*             157967               0-2.500000000E+008.5020658593E+01+
*       -2.836241573E+02               0
GRID*             157968               0-2.500000000E+008.6519666211E+01+
*       -2.881369914E+02               0
GRID*             157969               0-2.500000000E+008.5023646011E+01+
*       -2.865751543E+02               0
GRID*             157970               0-2.500000000E+008.6524428929E+01+
*       -2.910902749E+02               0
GRID*             157971               0-2.500000000E+008.5028945158E+01+
*       -2.895227134E+02               0
GRID*             157972               0-2.500000000E+008.6531475345E+01+
*       -2.940442500E+02               0
GRID*             157973               0-2.500000000E+008.5037017819E+01+
*       -2.924690390E+02               0
GRID*             157974               0-2.500000000E+008.6542311433E+01+
*       -2.970040568E+02               0
GRID*             157975               0-2.500000000E+008.5049216982E+01+
*       -2.954186715E+02               0
GRID*             157976               0-2.500000000E+008.6559962344E+01+
*       -2.999799711E+02               0
GRID*             157977               0-2.500000000E+008.5068378627E+01+
*       -2.983807359E+02               0
GRID*             157978               0-2.500000000E+008.5096915392E+01+
*       -3.013757517E+02               0
GRID*             157979               0-2.500000000E+008.2136251743E+01+
*       -3.010693487E+02               0
GRID*             157980               0-2.500000000E+008.3597252893E+01+
*       -2.997262458E+02               0
GRID*             157981               0-2.500000000E+007.9167696457E+01+
*       -3.007223224E+02               0
GRID*             157982               0-2.500000000E+008.0627734511E+01+
*       -2.994278901E+02               0
GRID*             157983               0-2.500000000E+007.6184130419E+01+
*       -3.003509313E+02               0
GRID*             157984               0-2.500000000E+007.7648789779E+01+
*       -2.991023484E+02               0
GRID*             157985               0-2.500000000E+007.3187020205E+01+
*       -2.999903539E+02               0
GRID*             157986               0-2.500000000E+007.4658363403E+01+
*       -2.987709971E+02               0
GRID*             157987               0-2.500000000E+007.0179411462E+01+
*       -2.996611950E+02               0
GRID*             157988               0-2.500000000E+007.1657253351E+01+
*       -2.984552891E+02               0
GRID*             157989               0-2.500000000E+006.7163432174E+01+
*       -2.993735621E+02               0
GRID*             157990               0-2.500000000E+006.8647144907E+01+
*       -2.981696124E+02               0
GRID*             157991               0-2.500000000E+006.4141188336E+01+
*       -2.991322719E+02               0
GRID*             157992               0-2.500000000E+006.5629865793E+01+
*       -2.979224202E+02               0
GRID*             157993               0-2.500000000E+006.1115019859E+01+
*       -2.989397984E+02               0
GRID*             157994               0-2.500000000E+006.2607417650E+01+
*       -2.977185274E+02               0
GRID*             157995               0-2.500000000E+005.8087318923E+01+
*       -2.987974699E+02               0
GRID*             157996               0-2.500000000E+005.9581889930E+01+
*       -2.975606977E+02               0
GRID*             157997               0-2.500000000E+005.5060194200E+01+
*       -2.987059173E+02               0
GRID*             157998               0-2.500000000E+005.6555246873E+01+
*       -2.974505135E+02               0
GRID*             157999               0-2.500000000E+005.2035272122E+01+
*       -2.986654965E+02               0
GRID*             158000               0-2.500000000E+005.3529123653E+01+
*       -2.973889107E+02               0
GRID*             158001               0-2.500000000E+004.9013683356E+01+
*       -2.986767040E+02               0
GRID*             158002               0-2.500000000E+005.0504711516E+01+
*       -2.973765978E+02               0
GRID*             158003               0-2.500000000E+004.5996064138E+01+
*       -2.987404753E+02               0
GRID*             158004               0-2.500000000E+004.7482693926E+01+
*       -2.974143774E+02               0
GRID*             158005               0-2.500000000E+004.2982467175E+01+
*       -2.988584168E+02               0
GRID*             158006               0-2.500000000E+004.4463144524E+01+
*       -2.975033707E+02               0
GRID*             158007               0-2.500000000E+003.9972081434E+01+
*       -2.990330737E+02               0
GRID*             158008               0-2.500000000E+004.1445289043E+01+
*       -2.976451838E+02               0
GRID*             158009               0-2.500000000E+003.6962493080E+01+
*       -2.992683759E+02               0
GRID*             158010               0-2.500000000E+003.8426965462E+01+
*       -2.978420607E+02               0
GRID*             158011               0-2.500000000E+003.3947867631E+01+
*       -2.995705071E+02               0
GRID*             158012               0-2.500000000E+003.5403487533E+01+
*       -2.980970030E+02               0
GRID*             158013               0-2.500000000E+003.0914684602E+01+
*       -2.999494493E+02               0
GRID*             158014               0-2.500000000E+003.2365527907E+01+
*       -2.984134960E+02               0
GRID*             158015               0-2.500000000E+002.7832602605E+01+
*       -3.004198566E+02               0
GRID*             158016               0-2.500000000E+002.9296174437E+01+
*       -2.987928849E+02               0
GRID*             158017               0-2.500000000E+002.4641245355E+01+
*       -3.009922309E+02               0
GRID*             158018               0-2.500000000E+002.6171529804E+01+
*       -2.992215543E+02               0
GRID*             158019               0-2.500000000E+002.1382614624E+01+
*       -3.013498034E+02               0
GRID*             158020               0-2.500000000E+002.2993249544E+01+
*       -2.996105419E+02               0
GRID*             158021               0-2.500000000E+001.8199854808E+01+
*       -3.015315447E+02               0
GRID*             158022               0-2.500000000E+001.9813308567E+01+
*       -2.998795629E+02               0
GRID*             158023               0-2.500000000E+001.6677523612E+01+
*       -3.000510841E+02               0
GRID*             158024               0-2.500000000E+001.8239235400E+01+
*       -2.984623796E+02               0
GRID*             158025               0-2.500000000E+001.6694662480E+01+
*       -2.970189410E+02               0
GRID*             158026               0-2.500000000E+001.6691165550E+01+
*       -2.940168997E+02               0
GRID*             158027               0-2.500000000E+001.8241940078E+01+
*       -2.954398646E+02               0
GRID*             158028               0-2.500000000E+001.6678645571E+01+
*       -2.910347707E+02               0
GRID*             158029               0-2.500000000E+001.8228806865E+01+
*       -2.924477075E+02               0
GRID*             158030               0-2.500000000E+001.6662886583E+01+
*       -2.880647580E+02               0
GRID*             158031               0-2.500000000E+001.8209805621E+01+
*       -2.894741053E+02               0
GRID*             158032               0-2.500000000E+001.6646509739E+01+
*       -2.851015701E+02               0
GRID*             158033               0-2.500000000E+001.8189398574E+01+
*       -2.865110240E+02               0
GRID*             158034               0-2.500000000E+001.6630483068E+01+
*       -2.821418782E+02               0
GRID*             158035               0-2.500000000E+001.8169341594E+01+
*       -2.835533938E+02               0
GRID*             158036               0-2.500000000E+001.8149450719E+01+
*       -2.805992270E+02               0
GRID*             158037               0-2.500000000E+002.1206928175E+01+
*       -2.804632100E+02               0
GRID*             158038               0-2.500000000E+001.9689886513E+01+
*       -2.820052635E+02               0
GRID*             158039               0-2.500000000E+002.4267003484E+01+
*       -2.803206104E+02               0
GRID*             158040               0-2.500000000E+002.2751880421E+01+
*       -2.818611144E+02               0
GRID*             158041               0-2.500000000E+002.7327760294E+01+
*       -2.801754400E+02               0
GRID*             158042               0-2.500000000E+002.5815252193E+01+
*       -2.817116179E+02               0
GRID*             158043               0-2.500000000E+003.0387623099E+01+
*       -2.800324796E+02               0
GRID*             158044               0-2.500000000E+002.8878005324E+01+
*       -2.815615542E+02               0
GRID*             158045               0-2.500000000E+003.3445705274E+01+
*       -2.798966061E+02               0
GRID*             158046               0-2.500000000E+003.1938742298E+01+
*       -2.814162397E+02               0
GRID*             158047               0-2.500000000E+003.6501803036E+01+
*       -2.797723676E+02               0
GRID*             158048               0-2.500000000E+003.4996845358E+01+
*       -2.812808633E+02               0
GRID*             158049               0-2.500000000E+003.9556193294E+01+
*       -2.796637895E+02               0
GRID*             158050               0-2.500000000E+003.8052343675E+01+
*       -2.811600859E+02               0
GRID*             158051               0-2.500000000E+004.2609351171E+01+
*       -2.795743459E+02               0
GRID*             158052               0-2.500000000E+004.1105642612E+01+
*       -2.810578797E+02               0
GRID*             158053               0-2.500000000E+004.5661673241E+01+
*       -2.795069829E+02               0
GRID*             158054               0-2.500000000E+004.4157229958E+01+
*       -2.809775183E+02               0
GRID*             158055               0-2.500000000E+004.8713258145E+01+
*       -2.794641013E+02               0
GRID*             158056               0-2.500000000E+004.7207431091E+01+
*       -2.809216051E+02               0
GRID*             158057               0-2.500000000E+005.1763782321E+01+
*       -2.794474663E+02               0
GRID*             158058               0-2.500000000E+005.0256249365E+01+
*       -2.808920690E+02               0
GRID*             158059               0-2.500000000E+005.4812499997E+01+
*       -2.794580686E+02               0
GRID*             158060               0-2.500000000E+005.3303310107E+01+
*       -2.808901143E+02               0
GRID*             158061               0-2.500000000E+005.7858367147E+01+
*       -2.794960196E+02               0
GRID*             158062               0-2.500000000E+005.6347909770E+01+
*       -2.809161560E+02               0
GRID*             158063               0-2.500000000E+006.0900240442E+01+
*       -2.795605469E+02               0
GRID*             158064               0-2.500000000E+005.9389146248E+01+
*       -2.809697913E+02               0
GRID*             158065               0-2.500000000E+006.3937074821E+01+
*       -2.796500719E+02               0
GRID*             158066               0-2.500000000E+006.2426082918E+01+
*       -2.810498195E+02               0
GRID*             158067               0-2.500000000E+006.6968058037E+01+
*       -2.797622534E+02               0
GRID*             158068               0-2.500000000E+006.5457892923E+01+
*       -2.811542562E+02               0
GRID*             158069               0-2.500000000E+006.9992655188E+01+
*       -2.798938553E+02               0
GRID*             158070               0-2.500000000E+006.8483944843E+01+
*       -2.812802373E+02               0
GRID*             158071               0-2.500000000E+007.3010587026E+01+
*       -2.800404800E+02               0
GRID*             158072               0-2.500000000E+007.1503826782E+01+
*       -2.814237979E+02               0
GRID*             158073               0-2.500000000E+007.6021813435E+01+
*       -2.801965651E+02               0
GRID*             158074               0-2.500000000E+007.4517350806E+01+
*       -2.815797746E+02               0
GRID*             158075               0-2.500000000E+007.9026583411E+01+
*       -2.803561257E+02               0
GRID*             158076               0-2.500000000E+007.7524592954E+01+
*       -2.817422727E+02               0
GRID*             158077               0-2.500000000E+008.2025548417E+01+
*       -2.805140406E+02               0
GRID*             158078               0-2.500000000E+008.0525989744E+01+
*       -2.819057285E+02               0
GRID*             158079               0-2.500000000E+008.3522514845E+01+
*       -2.820673420E+02               0
GRID*             158080               0-2.500000000E+008.3525038683E+01+
*       -2.850146823E+02               0
GRID*             158081               0-2.500000000E+008.2026894935E+01+
*       -2.834578669E+02               0
GRID*             158082               0-2.500000000E+008.3530380254E+01+
*       -2.879563589E+02               0
GRID*             158083               0-2.500000000E+008.2031772926E+01+
*       -2.863958868E+02               0
GRID*             158084               0-2.500000000E+008.3538808883E+01+
*       -2.908937127E+02               0
GRID*             158085               0-2.500000000E+008.2040243978E+01+
*       -2.893273581E+02               0
GRID*             158086               0-2.500000000E+008.3551277594E+01+
*       -2.938295620E+02               0
GRID*             158087               0-2.500000000E+008.2053068658E+01+
*       -2.922542357E+02               0
GRID*             158088               0-2.500000000E+008.3570032733E+01+
*       -2.967693965E+02               0
GRID*             158089               0-2.500000000E+008.2072093345E+01+
*       -2.951802871E+02               0
GRID*             158090               0-2.500000000E+008.2098906999E+01+
*       -2.981149065E+02               0
GRID*             158091               0-2.500000000E+007.9122213197E+01+
*       -2.978208710E+02               0
GRID*             158092               0-2.500000000E+008.0593385685E+01+
*       -2.965078874E+02               0
GRID*             158093               0-2.500000000E+007.6135647925E+01+
*       -2.975117945E+02               0
GRID*             158094               0-2.500000000E+007.7609071343E+01+
*       -2.962303171E+02               0
GRID*             158095               0-2.500000000E+007.3138895994E+01+
*       -2.972080841E+02               0
GRID*             158096               0-2.500000000E+007.4616180517E+01+
*       -2.959488815E+02               0
GRID*             158097               0-2.500000000E+007.0133030218E+01+
*       -2.969256206E+02               0
GRID*             158098               0-2.500000000E+007.1614672861E+01+
*       -2.956784155E+02               0
GRID*             158099               0-2.500000000E+006.7119451122E+01+
*       -2.966747560E+02               0
GRID*             158100               0-2.500000000E+006.8605336433E+01+
*       -2.954307642E+02               0
GRID*             158101               0-2.500000000E+006.4099807935E+01+
*       -2.964618806E+02               0
GRID*             158102               0-2.500000000E+006.5589393265E+01+
*       -2.952142165E+02               0
GRID*             158103               0-2.500000000E+006.1075930923E+01+
*       -2.962909176E+02               0
GRID*             158104               0-2.500000000E+006.2568321209E+01+
*       -2.950342709E+02               0
GRID*             158105               0-2.500000000E+005.8049652709E+01+
*       -2.961642667E+02               0
GRID*             158106               0-2.500000000E+005.9543693703E+01+
*       -2.948944867E+02               0
GRID*             158107               0-2.500000000E+005.5022595671E+01+
*       -2.960833793E+02               0
GRID*             158108               0-2.500000000E+005.6517001507E+01+
*       -2.947971326E+02               0
GRID*             158109               0-2.500000000E+005.1996017821E+01+
*       -2.960491912E+02               0
GRID*             158110               0-2.500000000E+005.3489489840E+01+
*       -2.947436599E+02               0
GRID*             158111               0-2.500000000E+004.8970724818E+01+
*       -2.960624587E+02               0
GRID*             158112               0-2.500000000E+005.0462031123E+01+
*       -2.947350522E+02               0
GRID*             158113               0-2.500000000E+004.5946982945E+01+
*       -2.961239844E+02               0
GRID*             158114               0-2.500000000E+004.7435013837E+01+
*       -2.947720657E+02               0
GRID*             158115               0-2.500000000E+004.2924366037E+01+
*       -2.962347457E+02               0
GRID*             158116               0-2.500000000E+004.4408204458E+01+
*       -2.948553594E+02               0
GRID*             158117               0-2.500000000E+003.9901448682E+01+
*       -2.963959508E+02               0
GRID*             158118               0-2.500000000E+004.1380525675E+01+
*       -2.949855127E+02               0
GRID*             158119               0-2.500000000E+003.6875191331E+01+
*       -2.966090057E+02               0
GRID*             158120               0-2.500000000E+003.8349674551E+01+
*       -2.951628959E+02               0
GRID*             158121               0-2.500000000E+003.3839824544E+01+
*       -2.968752382E+02               0
GRID*             158122               0-2.500000000E+003.5311528341E+01+
*       -2.953872409E+02               0
GRID*             158123               0-2.500000000E+003.0785182539E+01+
*       -2.971947204E+02               0
GRID*             158124               0-2.500000000E+003.2259479176E+01+
*       -2.956564627E+02               0
GRID*             158125               0-2.500000000E+002.7695497193E+01+
*       -2.975617617E+02               0
GRID*             158126               0-2.500000000E+002.9184505295E+01+
*       -2.959635971E+02               0
GRID*             158127               0-2.500000000E+002.4554607357E+01+
*       -2.979495254E+02               0
GRID*             158128               0-2.500000000E+002.6078574746E+01+
*       -2.962897327E+02               0
GRID*             158129               0-2.500000000E+002.1385175577E+01+
*       -2.982533892E+02               0
GRID*             158130               0-2.500000000E+002.2946533390E+01+
*       -2.965923727E+02               0
GRID*             158131               0-2.500000000E+001.9811102410E+01+
*       -2.968362060E+02               0
GRID*             158132               0-2.500000000E+002.1360289409E+01+
*       -2.952356138E+02               0
GRID*             158133               0-2.500000000E+001.9791127077E+01+
*       -2.938392724E+02               0
GRID*             158134               0-2.500000000E+001.9765524728E+01+
*       -2.908667566E+02               0
GRID*             158135               0-2.500000000E+002.1327844940E+01+
*       -2.922583216E+02               0
GRID*             158136               0-2.500000000E+001.9739251447E+01+
*       -2.879073806E+02               0
GRID*             158137               0-2.500000000E+002.1294970554E+01+
*       -2.893000319E+02               0
GRID*             158138               0-2.500000000E+001.9714137379E+01+
*       -2.849544717E+02               0
GRID*             158139               0-2.500000000E+002.1263990252E+01+
*       -2.863508283E+02               0
GRID*             158140               0-2.500000000E+002.1234682298E+01+
*       -2.834063414E+02               0
GRID*             158141               0-2.500000000E+002.4301576458E+01+
*       -2.832516381E+02               0
GRID*             158142               0-2.500000000E+002.2784378335E+01+
*       -2.847968650E+02               0
GRID*             158143               0-2.500000000E+002.7368204151E+01+
*       -2.830925922E+02               0
GRID*             158144               0-2.500000000E+002.5854528416E+01+
*       -2.846326123E+02               0
GRID*             158145               0-2.500000000E+003.0432427229E+01+
*       -2.829352389E+02               0
GRID*             158146               0-2.500000000E+002.8922626057E+01+
*       -2.844662769E+02               0
GRID*             158147               0-2.500000000E+003.3493151447E+01+
*       -2.827857329E+02               0
GRID*             158148               0-2.500000000E+003.1986836379E+01+
*       -2.843047321E+02               0
GRID*             158149               0-2.500000000E+003.6550200653E+01+
*       -2.826496818E+02               0
GRID*             158150               0-2.500000000E+003.5046506742E+01+
*       -2.841545515E+02               0
GRID*             158151               0-2.500000000E+003.9604004258E+01+
*       -2.825317907E+02               0
GRID*             158152               0-2.500000000E+003.8101861236E+01+
*       -2.840213866E+02               0
GRID*             158153               0-2.500000000E+004.2655229738E+01+
*       -2.824358296E+02               0
GRID*             158154               0-2.500000000E+004.1153591384E+01+
*       -2.839097406E+02               0
GRID*             158155               0-2.500000000E+004.5704476066E+01+
*       -2.823647252E+02               0
GRID*             158156               0-2.500000000E+004.4202475847E+01+
*       -2.838230365E+02               0
GRID*             158157               0-2.500000000E+004.8752066641E+01+
*       -2.823206445E+02               0
GRID*             158158               0-2.500000000E+004.7249111616E+01+
*       -2.837637646E+02               0
GRID*             158159               0-2.500000000E+005.1797947830E+01+
*       -2.823050230E+02               0
GRID*             158160               0-2.500000000E+005.0293765107E+01+
*       -2.837335985E+02               0
GRID*             158161               0-2.500000000E+005.4841690715E+01+
*       -2.823185429E+02               0
GRID*             158162               0-2.500000000E+005.3336328438E+01+
*       -2.837334517E+02               0
GRID*             158163               0-2.500000000E+005.7882581105E+01+
*       -2.823611041E+02               0
GRID*             158164               0-2.500000000E+005.6376362049E+01+
*       -2.837634910E+02               0
GRID*             158165               0-2.500000000E+006.0919763451E+01+
*       -2.824318213E+02               0
GRID*             158166               0-2.500000000E+005.9413198308E+01+
*       -2.838231340E+02               0
GRID*             158167               0-2.500000000E+006.3952392279E+01+
*       -2.825290358E+02               0
GRID*             158168               0-2.500000000E+006.2446072812E+01+
*       -2.839110376E+02               0
GRID*             158169               0-2.500000000E+006.6979748082E+01+
*       -2.826502592E+02               0
GRID*             158170               0-2.500000000E+006.5474247438E+01+
*       -2.840250389E+02               0
GRID*             158171               0-2.500000000E+007.0001295414E+01+
*       -2.827919669E+02               0
GRID*             158172               0-2.500000000E+006.8497098654E+01+
*       -2.841619888E+02               0
GRID*             158173               0-2.500000000E+007.3016701832E+01+
*       -2.829493497E+02               0
GRID*             158174               0-2.500000000E+007.1514170464E+01+
*       -2.843175187E+02               0
GRID*             158175               0-2.500000000E+007.6025870038E+01+
*       -2.831164253E+02               0
GRID*             158176               0-2.500000000E+007.4525221063E+01+
*       -2.844860004E+02               0
GRID*             158177               0-2.500000000E+007.9029011054E+01+
*       -2.832871547E+02               0
GRID*             158178               0-2.500000000E+007.7530288138E+01+
*       -2.846613074E+02               0
GRID*             158179               0-2.500000000E+008.0529916245E+01+
*       -2.848392931E+02               0
GRID*             158180               0-2.500000000E+008.0537832372E+01+
*       -2.877654743E+02               0
GRID*             158181               0-2.500000000E+007.9035975690E+01+
*       -2.862088805E+02               0
GRID*             158182               0-2.500000000E+008.0550149019E+01+
*       -2.906834925E+02               0
GRID*             158183               0-2.500000000E+007.9047737413E+01+
*       -2.891216086E+02               0
GRID*             158184               0-2.500000000E+008.0568124959E+01+
*       -2.935954241E+02               0
GRID*             158185               0-2.500000000E+007.9065205320E+01+
*       -2.920246810E+02               0
GRID*             158186               0-2.500000000E+007.9089417299E+01+
*       -2.949230244E+02               0
GRID*             158187               0-2.500000000E+007.6099005344E+01+
*       -2.946583296E+02               0
GRID*             158188               0-2.500000000E+007.7579351300E+01+
*       -2.933510369E+02               0
GRID*             158189               0-2.500000000E+007.3100497616E+01+
*       -2.943974704E+02               0
GRID*             158190               0-2.500000000E+007.4583322443E+01+
*       -2.931069186E+02               0
GRID*             158191               0-2.500000000E+007.0094211352E+01+
*       -2.941527506E+02               0
GRID*             158192               0-2.500000000E+007.1580036107E+01+
*       -2.928718056E+02               0
GRID*             158193               0-2.500000000E+006.7080985006E+01+
*       -2.939333882E+02               0
GRID*             158194               0-2.500000000E+006.8569859925E+01+
*       -2.926553746E+02               0
GRID*             158195               0-2.500000000E+006.4061989648E+01+
*       -2.937458714E+02               0
GRID*             158196               0-2.500000000E+006.5553581389E+01+
*       -2.924650431E+02               0
GRID*             158197               0-2.500000000E+006.1038582087E+01+
*       -2.935946116E+02               0
GRID*             158198               0-2.500000000E+006.2532250525E+01+
*       -2.923062122E+02               0
GRID*             158199               0-2.500000000E+005.8012142803E+01+
*       -2.934825305E+02               0
GRID*             158200               0-2.500000000E+005.9507031187E+01+
*       -2.921826555E+02               0
GRID*             158201               0-2.500000000E+005.4983912339E+01+
*       -2.934115222E+02               0
GRID*             158202               0-2.500000000E+005.6479053634E+01+
*       -2.920969201E+02               0
GRID*             158203               0-2.500000000E+005.1954851818E+01+
*       -2.933828087E+02               0
GRID*             158204               0-2.500000000E+005.3449274317E+01+
*       -2.920506710E+02               0
GRID*             158205               0-2.500000000E+004.8925526863E+01+
*       -2.933971924E+02               0
GRID*             158206               0-2.500000000E+005.0418347559E+01+
*       -2.920449490E+02               0
GRID*             158207               0-2.500000000E+004.5895989877E+01+
*       -2.934552052E+02               0
GRID*             158208               0-2.500000000E+004.7386502904E+01+
*       -2.920803319E+02               0
GRID*             158209               0-2.500000000E+004.2865628598E+01+
*       -2.935571471E+02               0
GRID*             158210               0-2.500000000E+004.4353414018E+01+
*       -2.921569929E+02               0
GRID*             158211               0-2.500000000E+003.9832937163E+01+
*       -2.937030017E+02               0
GRID*             158212               0-2.500000000E+004.1318040086E+01+
*       -2.922746361E+02               0
GRID*             158213               0-2.500000000E+003.6795165471E+01+
*       -2.938921545E+02               0
GRID*             158214               0-2.500000000E+003.8278428083E+01+
*       -2.924322603E+02               0
GRID*             158215               0-2.500000000E+003.3747888901E+01+
*       -2.941227090E+02               0
GRID*             158216               0-2.500000000E+003.5231526031E+01+
*       -2.926276226E+02               0
GRID*             158217               0-2.500000000E+003.0684813921E+01+
*       -2.943899214E+02               0
GRID*             158218               0-2.500000000E+003.2173223646E+01+
*       -2.928561678E+02               0
GRID*             158219               0-2.500000000E+002.7598828203E+01+
*       -2.946828381E+02               0
GRID*             158220               0-2.500000000E+002.9099136828E+01+
*       -2.931091624E+02               0
GRID*             158221               0-2.500000000E+002.4486719780E+01+
*       -2.949781786E+02               0
GRID*             158222               0-2.500000000E+002.6006973237E+01+
*       -2.933712840E+02               0
GRID*             158223               0-2.500000000E+002.2900475799E+01+
*       -2.936214197E+02               0
GRID*             158224               0-2.500000000E+002.4430451596E+01+
*       -2.920357638E+02               0
GRID*             158225               0-2.500000000E+002.2857820737E+01+
*       -2.906726657E+02               0
GRID*             158226               0-2.500000000E+002.2819442222E+01+
*       -2.877327900E+02               0
GRID*             158227               0-2.500000000E+002.4382292405E+01+
*       -2.891054239E+02               0
GRID*             158228               0-2.500000000E+002.4339830304E+01+
*       -2.861788267E+02               0
GRID*             158229               0-2.500000000E+002.7413355838E+01+
*       -2.860010852E+02               0
GRID*             158230               0-2.500000000E+002.5898657727E+01+
*       -2.875472996E+02               0
GRID*             158231               0-2.500000000E+003.0482213531E+01+
*       -2.858241549E+02               0
GRID*             158232               0-2.500000000E+002.8972943313E+01+
*       -2.873589633E+02               0
GRID*             158233               0-2.500000000E+003.3545210615E+01+
*       -2.856561187E+02               0
GRID*             158234               0-2.500000000E+003.2040587767E+01+
*       -2.871755415E+02               0
GRID*             158235               0-2.500000000E+003.6602456440E+01+
*       -2.855040404E+02               0
GRID*             158236               0-2.500000000E+003.5101160313E+01+
*       -2.870056076E+02               0
GRID*             158237               0-2.500000000E+003.9654830149E+01+
*       -2.853734095E+02               0
GRID*             158238               0-2.500000000E+003.8155425353E+01+
*       -2.868560633E+02               0
GRID*             158239               0-2.500000000E+004.2703435697E+01+
*       -2.852682592E+02               0
GRID*             158240               0-2.500000000E+004.1204674462E+01+
*       -2.867319281E+02               0
GRID*             158241               0-2.500000000E+004.5749231861E+01+
*       -2.851914468E+02               0
GRID*             158242               0-2.500000000E+004.4250191711E+01+
*       -2.866366695E+02               0
GRID*             158243               0-2.500000000E+004.8792834084E+01+
*       -2.851448916E+02               0
GRID*             158244               0-2.500000000E+004.7292954328E+01+
*       -2.865725738E+02               0
GRID*             158245               0-2.500000000E+005.1834442058E+01+
*       -2.851297210E+02               0
GRID*             158246               0-2.500000000E+005.0333511035E+01+
*       -2.865410141E+02               0
GRID*             158247               0-2.500000000E+005.4873857340E+01+
*       -2.851463342E+02               0
GRID*             158248               0-2.500000000E+005.3371970959E+01+
*       -2.865426035E+02               0
GRID*             158249               0-2.500000000E+005.7910565904E+01+
*       -2.851944158E+02               0
GRID*             158250               0-2.500000000E+005.6408061195E+01+
*       -2.865772590E+02               0
GRID*             158251               0-2.500000000E+006.0943859267E+01+
*       -2.852729216E+02               0
GRID*             158252               0-2.500000000E+005.9441226863E+01+
*       -2.866442035E+02               0
GRID*             158253               0-2.500000000E+006.3972964450E+01+
*       -2.853800299E+02               0
GRID*             158254               0-2.500000000E+006.2470750906E+01+
*       -2.867419139E+02               0
GRID*             158255               0-2.500000000E+006.6997155222E+01+
*       -2.855130069E+02               0
GRID*             158256               0-2.500000000E+006.5495872234E+01+
*       -2.868679979E+02               0
GRID*             158257               0-2.500000000E+007.0015831125E+01+
*       -2.856679616E+02               0
GRID*             158258               0-2.500000000E+006.8515887693E+01+
*       -2.870189797E+02               0
GRID*             158259               0-2.500000000E+007.3028577712E+01+
*       -2.858396057E+02               0
GRID*             158260               0-2.500000000E+007.1530238373E+01+
*       -2.871900486E+02               0
GRID*             158261               0-2.500000000E+007.6035242354E+01+
*       -2.860212656E+02               0
GRID*             158262               0-2.500000000E+007.4538599004E+01+
*       -2.873748708E+02               0
GRID*             158263               0-2.500000000E+007.7540929907E+01+
*       -2.875688388E+02               0
GRID*             158264               0-2.500000000E+007.7556993861E+01+
*       -2.904646406E+02               0
GRID*             158265               0-2.500000000E+007.6050186355E+01+
*       -2.889118707E+02               0
GRID*             158266               0-2.500000000E+007.6071139841E+01+
*       -2.917909965E+02               0
GRID*             158267               0-2.500000000E+007.3070098067E+01+
*       -2.915628428E+02               0
GRID*             158268               0-2.500000000E+007.4557915465E+01+
*       -2.902469208E+02               0
GRID*             158269               0-2.500000000E+007.0062199068E+01+
*       -2.913484184E+02               0
GRID*             158270               0-2.500000000E+007.1552261028E+01+
*       -2.900394556E+02               0
GRID*             158271               0-2.500000000E+006.7047948932E+01+
*       -2.911553377E+02               0
GRID*             158272               0-2.500000000E+006.8540288075E+01+
*       -2.898483814E+02               0
GRID*             158273               0-2.500000000E+006.4028157941E+01+
*       -2.909896239E+02               0
GRID*             158274               0-2.500000000E+006.5522525485E+01+
*       -2.896799185E+02               0
GRID*             158275               0-2.500000000E+006.1003820584E+01+
*       -2.908556828E+02               0
GRID*             158276               0-2.500000000E+006.2499728000E+01+
*       -2.895390946E+02               0
GRID*             158277               0-2.500000000E+005.7975986161E+01+
*       -2.907565816E+02               0
GRID*             158278               0-2.500000000E+005.9472775558E+01+
*       -2.894296090E+02               0
GRID*             158279               0-2.500000000E+005.4945626788E+01+
*       -2.906943680E+02               0
GRID*             158280               0-2.500000000E+005.6442559315E+01+
*       -2.893540295E+02               0
GRID*             158281               0-2.500000000E+005.1913509355E+01+
*       -2.906703310E+02               0
GRID*             158282               0-2.500000000E+005.3409861826E+01+
*       -2.893140279E+02               0
GRID*             158283               0-2.500000000E+004.8880073073E+01+
*       -2.906851770E+02               0
GRID*             158284               0-2.500000000E+005.0375234870E+01+
*       -2.893105590E+02               0
GRID*             158285               0-2.500000000E+004.5845309400E+01+
*       -2.907391164E+02               0
GRID*             158286               0-2.500000000E+004.7338879569E+01+
*       -2.893439615E+02               0
GRID*             158287               0-2.500000000E+004.2808638938E+01+
*       -2.908318523E+02               0
GRID*             158288               0-2.500000000E+004.4300534320E+01+
*       -2.894139759E+02               0
GRID*             158289               0-2.500000000E+003.9768778142E+01+
*       -2.909624453E+02               0
GRID*             158290               0-2.500000000E+004.1259376994E+01+
*       -2.895196615E+02               0
GRID*             158291               0-2.500000000E+003.6723610574E+01+
*       -2.911289884E+02               0
GRID*             158292               0-2.500000000E+003.8213960633E+01+
*       -2.896591733E+02               0
GRID*             158293               0-2.500000000E+003.3670162962E+01+
*       -2.913279607E+02               0
GRID*             158294               0-2.500000000E+003.5162247504E+01+
*       -2.898293265E+02               0
GRID*             158295               0-2.500000000E+003.0604952167E+01+
*       -2.915530764E+02               0
GRID*             158296               0-2.500000000E+003.2101891483E+01+
*       -2.900248693E+02               0
GRID*             158297               0-2.500000000E+002.7525193585E+01+
*       -2.917935348E+02               0
GRID*             158298               0-2.500000000E+002.9031008923E+01+
*       -2.902374488E+02               0
GRID*             158299               0-2.500000000E+002.5948671943E+01+
*       -2.904580147E+02               0
GRID*             158300               0-2.500000000E+002.7465037265E+01+
*       -2.888998904E+02               0
GRID*             158301               0-2.500000000E+003.0538914970E+01+
*       -2.886965216E+02               0
GRID*             158302               0-2.500000000E+003.3603564280E+01+
*       -2.885038893E+02               0
GRID*             158303               0-2.500000000E+003.6659843538E+01+
*       -2.883310448E+02               0
GRID*             158304               0-2.500000000E+003.9709542447E+01+
*       -2.881841917E+02               0
GRID*             158305               0-2.500000000E+004.2754509009E+01+
*       -2.880673979E+02               0
GRID*             158306               0-2.500000000E+004.5796217023E+01+
*       -2.879832475E+02               0
GRID*             158307               0-2.500000000E+004.8835616875E+01+
*       -2.879332877E+02               0
GRID*             158308               0-2.500000000E+005.1873129030E+01+
*       -2.879182853E+02               0
GRID*             158309               0-2.500000000E+005.4908703755E+01+
*       -2.879383461E+02               0
GRID*             158310               0-2.500000000E+005.7941916754E+01+
*       -2.879929424E+02               0
GRID*             158311               0-2.500000000E+006.0972085667E+01+
*       -2.880808701E+02               0
GRID*             158312               0-2.500000000E+006.3998393238E+01+
*       -2.882001384E+02               0
GRID*             158313               0-2.500000000E+006.7020004481E+01+
*       -2.883477779E+02               0
GRID*             158314               0-2.500000000E+007.0036171287E+01+
*       -2.885195833E+02               0
GRID*             158315               0-2.500000000E+007.3046328114E+01+
*       -2.887099209E+02               0
GRID*             158316               0-2.500000000E+001.5071220748E+01+
*       -2.748052672E+02               0
GRID*             158317               0-2.500000000E+001.3548834029E+01+
*       -2.733759208E+02               0
GRID*             158318               0-2.500000000E+001.3541445064E+01+
*       -2.704094664E+02               0
GRID*             158319               0-2.500000000E+001.5061251875E+01+
*       -2.718410686E+02               0
GRID*             158320               0-2.500000000E+001.3534255919E+01+
*       -2.674421539E+02               0
GRID*             158321               0-2.500000000E+001.5051444660E+01+
*       -2.688760567E+02               0
GRID*             158322               0-2.500000000E+001.3527257495E+01+
*       -2.644737982E+02               0
GRID*             158323               0-2.500000000E+001.5041888366E+01+
*       -2.659097733E+02               0
GRID*             158324               0-2.500000000E+001.3520460349E+01+
*       -2.615041751E+02               0
GRID*             158325               0-2.500000000E+001.5032597863E+01+
*       -2.629419469E+02               0
GRID*             158326               0-2.500000000E+001.3513891450E+01+
*       -2.585328867E+02               0
GRID*             158327               0-2.500000000E+001.5023607752E+01+
*       -2.599721850E+02               0
GRID*             158328               0-2.500000000E+001.3507557782E+01+
*       -2.555592120E+02               0
GRID*             158329               0-2.500000000E+001.5014958235E+01+
*       -2.569997715E+02               0
GRID*             158330               0-2.500000000E+001.3501366457E+01+
*       -2.525819065E+02               0
GRID*             158331               0-2.500000000E+001.5006623406E+01+
*       -2.540234397E+02               0
GRID*             158332               0-2.500000000E+001.3494960389E+01+
*       -2.495989230E+02               0
GRID*             158333               0-2.500000000E+001.4998357016E+01+
*       -2.510410570E+02               0
GRID*             158334               0-2.500000000E+001.3487304342E+01+
*       -2.466068885E+02               0
GRID*             158335               0-2.500000000E+001.4989332789E+01+
*       -2.480490811E+02               0
GRID*             158336               0-2.500000000E+001.3475811738E+01+
*       -2.436001014E+02               0
GRID*             158337               0-2.500000000E+001.4977384225E+01+
*       -2.450415191E+02               0
GRID*             158338               0-2.500000000E+001.3455093135E+01+
*       -2.405692685E+02               0
GRID*             158339               0-2.500000000E+001.4957768980E+01+
*       -2.420082924E+02               0
GRID*             158340               0-2.500000000E+001.3414549236E+01+
*       -2.375008535E+02               0
GRID*             158341               0-2.500000000E+001.4920772826E+01+
*       -2.389332722E+02               0
GRID*             158342               0-2.500000000E+001.3330418773E+01+
*       -2.343800681E+02               0
GRID*             158343               0-2.500000000E+001.4844004077E+01+
*       -2.357936215E+02               0
GRID*             158344               0-2.500000000E+001.3142009694E+01+
*       -2.312184497E+02               0
GRID*             158345               0-2.500000000E+001.4666135226E+01+
*       -2.325772212E+02               0
GRID*             158346               0-2.500000000E+001.2695521722E+01+
*       -2.282950272E+02               0
GRID*             158347               0-2.500000000E+001.4205863314E+01+
*       -2.295032860E+02               0
GRID*             158348               0-2.500000000E+001.3707674044E+01+
*       -2.267689663E+02               0
GRID*             158349               0-2.500000000E+001.5692147900E+01+
*       -2.263133372E+02               0
GRID*             158350               0-2.500000000E+001.4911788707E+01+
*       -2.277297840E+02               0
GRID*             158351               0-2.500000000E+001.7356854460E+01+
*       -2.257286540E+02               0
GRID*             158352               0-2.500000000E+001.6687164225E+01+
*       -2.269480853E+02               0
GRID*             158353               0-2.500000000E+001.9196950407E+01+
*       -2.262453624E+02               0
GRID*             158354               0-2.500000000E+001.8252509790E+01+
*       -2.269228453E+02               0
GRID*             158355               0-2.500000000E+002.1683529543E+01+
*       -2.265590582E+02               0
GRID*             158356               0-2.500000000E+002.0340341523E+01+
*       -2.276109086E+02               0
GRID*             158357               0-2.500000000E+002.4494455036E+01+
*       -2.267502802E+02               0
GRID*             158358               0-2.500000000E+002.3013572194E+01+
*       -2.280078779E+02               0
GRID*             158359               0-2.500000000E+002.7421469230E+01+
*       -2.268697804E+02               0
GRID*             158360               0-2.500000000E+002.5896690159E+01+
*       -2.282241905E+02               0
GRID*             158361               0-2.500000000E+003.0383234409E+01+
*       -2.269481079E+02               0
GRID*             158362               0-2.500000000E+002.8846286638E+01+
*       -2.283494614E+02               0
GRID*             158363               0-2.500000000E+003.3353055707E+01+
*       -2.270030071E+02               0
GRID*             158364               0-2.500000000E+003.1814636105E+01+
*       -2.284294890E+02               0
GRID*             158365               0-2.500000000E+003.6323870125E+01+
*       -2.270461198E+02               0
GRID*             158366               0-2.500000000E+003.4786346326E+01+
*       -2.284874054E+02               0
GRID*             158367               0-2.500000000E+003.9296457138E+01+
*       -2.270861917E+02               0
GRID*             158368               0-2.500000000E+003.7758025703E+01+
*       -2.285368579E+02               0
GRID*             158369               0-2.500000000E+004.2275020232E+01+
*       -2.271307335E+02               0
GRID*             158370               0-2.500000000E+004.0731426407E+01+
*       -2.285876654E+02               0
GRID*             158371               0-2.500000000E+004.5265530093E+01+
*       -2.271869356E+02               0
GRID*             158372               0-2.500000000E+004.3710800256E+01+
*       -2.286481937E+02               0
GRID*             158373               0-2.500000000E+004.8274937850E+01+
*       -2.272623292E+02               0
GRID*             158374               0-2.500000000E+004.6701655970E+01+
*       -2.287263929E+02               0
GRID*             158375               0-2.500000000E+005.1310126537E+01+
*       -2.273657173E+02               0
GRID*             158376               0-2.500000000E+004.9709601958E+01+
*       -2.288303644E+02               0
GRID*             158377               0-2.500000000E+005.4375107752E+01+
*       -2.275089471E+02               0
GRID*             158378               0-2.500000000E+005.2738110244E+01+
*       -2.289689128E+02               0
GRID*             158379               0-2.500000000E+005.7463844728E+01+
*       -2.277096600E+02               0
GRID*             158380               0-2.500000000E+005.5784093145E+01+
*       -2.291520219E+02               0
GRID*             158381               0-2.500000000E+006.0544779592E+01+
*       -2.279913783E+02               0
GRID*             158382               0-2.500000000E+005.8831406545E+01+
*       -2.293892973E+02               0
GRID*             158383               0-2.500000000E+006.3544068267E+01+
*       -2.283621693E+02               0
GRID*             158384               0-2.500000000E+006.1848325390E+01+
*       -2.296799263E+02               0
GRID*             158385               0-2.500000000E+006.6458435354E+01+
*       -2.286964234E+02               0
GRID*             158386               0-2.500000000E+006.4811781784E+01+
*       -2.299869745E+02               0
GRID*             158387               0-2.500000000E+006.9332863968E+01+
*       -2.289591449E+02               0
GRID*             158388               0-2.500000000E+006.7728622425E+01+
*       -2.302626951E+02               0
GRID*             158389               0-2.500000000E+007.2197513627E+01+
*       -2.291574041E+02               0
GRID*             158390               0-2.500000000E+007.0618015065E+01+
*       -2.304900416E+02               0
GRID*             158391               0-2.500000000E+007.5057145492E+01+
*       -2.293105089E+02               0
GRID*             158392               0-2.500000000E+007.3489415977E+01+
*       -2.306738167E+02               0
GRID*             158393               0-2.500000000E+007.7890515981E+01+
*       -2.294411505E+02               0
GRID*             158394               0-2.500000000E+007.6335815381E+01+
*       -2.308283610E+02               0
GRID*             158395               0-2.500000000E+008.0652806518E+01+
*       -2.295643898E+02               0
GRID*             158396               0-2.500000000E+007.9138075782E+01+
*       -2.309686406E+02               0
GRID*             158397               0-2.500000000E+008.3412924737E+01+
*       -2.295746840E+02               0
GRID*             158398               0-2.500000000E+008.1887662440E+01+
*       -2.311014016E+02               0
GRID*             158399               0-2.500000000E+008.5961022365E+01+
*       -2.300312960E+02               0
GRID*             158400               0-2.500000000E+008.4558435302E+01+
*       -2.313013030E+02               0
GRID*             158401               0-2.500000000E+008.7154887425E+01+
*       -2.315114454E+02               0
GRID*             158402               0-2.500000000E+008.7044691755E+01+
*       -2.345192024E+02               0
GRID*             158403               0-2.500000000E+008.5793355962E+01+
*       -2.329242332E+02               0
GRID*             158404               0-2.500000000E+008.6952502343E+01+
*       -2.375184546E+02               0
GRID*             158405               0-2.500000000E+008.5658898699E+01+
*       -2.359109471E+02               0
GRID*             158406               0-2.500000000E+008.6874061114E+01+
*       -2.405135580E+02               0
GRID*             158407               0-2.500000000E+008.5546195844E+01+
*       -2.389098089E+02               0
GRID*             158408               0-2.500000000E+008.6806730511E+01+
*       -2.435064445E+02               0
GRID*             158409               0-2.500000000E+008.5449999747E+01+
*       -2.419086035E+02               0
GRID*             158410               0-2.500000000E+008.6748924367E+01+
*       -2.464977646E+02               0
GRID*             158411               0-2.500000000E+008.5367362261E+01+
*       -2.449060118E+02               0
GRID*             158412               0-2.500000000E+008.6699581225E+01+
*       -2.494876364E+02               0
GRID*             158413               0-2.500000000E+008.5296524346E+01+
*       -2.479018805E+02               0
GRID*             158414               0-2.500000000E+008.6657887343E+01+
*       -2.524759531E+02               0
GRID*             158415               0-2.500000000E+008.5236271204E+01+
*       -2.508960234E+02               0
GRID*             158416               0-2.500000000E+008.6623128968E+01+
*       -2.554624920E+02               0
GRID*             158417               0-2.500000000E+008.5185622734E+01+
*       -2.538881342E+02               0
GRID*             158418               0-2.500000000E+008.6594615722E+01+
*       -2.584469568E+02               0
GRID*             158419               0-2.500000000E+008.5143676591E+01+
*       -2.568778101E+02               0
GRID*             158420               0-2.500000000E+008.6571655443E+01+
*       -2.614290267E+02               0
GRID*             158421               0-2.500000000E+008.5109537929E+01+
*       -2.598645983E+02               0
GRID*             158422               0-2.500000000E+008.6553566520E+01+
*       -2.644084383E+02               0
GRID*             158423               0-2.500000000E+008.5082310327E+01+
*       -2.628480785E+02               0
GRID*             158424               0-2.500000000E+008.6539704987E+01+
*       -2.673850455E+02               0
GRID*             158425               0-2.500000000E+008.5061122301E+01+
*       -2.658279489E+02               0
GRID*             158426               0-2.500000000E+008.6529483862E+01+
*       -2.703587969E+02               0
GRID*             158427               0-2.500000000E+008.5045159269E+01+
*       -2.688040412E+02               0
GRID*             158428               0-2.500000000E+008.6522374070E+01+
*       -2.733296188E+02               0
GRID*             158429               0-2.500000000E+008.5033677018E+01+
*       -2.717762025E+02               0
GRID*             158430               0-2.500000000E+008.5026115607E+01+
*       -2.747452337E+02               0
GRID*             158431               0-2.500000000E+008.2034030936E+01+
*       -2.746044861E+02               0
GRID*             158432               0-2.500000000E+008.3533489245E+01+
*       -2.731913906E+02               0
GRID*             158433               0-2.500000000E+007.9035987597E+01+
*       -2.744591222E+02               0
GRID*             158434               0-2.500000000E+008.0539410817E+01+
*       -2.730496161E+02               0
GRID*             158435               0-2.500000000E+007.6030717047E+01+
*       -2.743126298E+02               0
GRID*             158436               0-2.500000000E+007.7538402049E+01+
*       -2.729055579E+02               0
GRID*             158437               0-2.500000000E+007.3017354210E+01+
*       -2.741700008E+02               0
GRID*             158438               0-2.500000000E+007.4529276215E+01+
*       -2.727632702E+02               0
GRID*             158439               0-2.500000000E+006.9995362459E+01+
*       -2.740365151E+02               0
GRID*             158440               0-2.500000000E+007.1511191741E+01+
*       -2.726275148E+02               0
GRID*             158441               0-2.500000000E+006.6964508799E+01+
*       -2.739169037E+02               0
GRID*             158442               0-2.500000000E+006.8483632641E+01+
*       -2.725029609E+02               0
GRID*             158443               0-2.500000000E+006.3924929776E+01+
*       -2.738151009E+02               0
GRID*             158444               0-2.500000000E+006.5446464162E+01+
*       -2.723938065E+02               0
GRID*             158445               0-2.500000000E+006.0877264041E+01+
*       -2.737343735E+02               0
GRID*             158446               0-2.500000000E+006.2400060680E+01+
*       -2.723037329E+02               0
GRID*             158447               0-2.500000000E+005.7822774781E+01+
*       -2.736774285E+02               0
GRID*             158448               0-2.500000000E+005.9345463458E+01+
*       -2.722359440E+02               0
GRID*             158449               0-2.500000000E+005.4763363607E+01+
*       -2.736462682E+02               0
GRID*             158450               0-2.500000000E+005.6284483350E+01+
*       -2.721930579E+02               0
GRID*             158451               0-2.500000000E+005.1701375134E+01+
*       -2.736418145E+02               0
GRID*             158452               0-2.500000000E+005.3219620676E+01+
*       -2.721767436E+02               0
GRID*             158453               0-2.500000000E+004.8639152446E+01+
*       -2.736635328E+02               0
GRID*             158454               0-2.500000000E+005.0153686714E+01+
*       -2.721872158E+02               0
GRID*             158455               0-2.500000000E+004.5578490259E+01+
*       -2.737094110E+02               0
GRID*             158456               0-2.500000000E+004.7089177916E+01+
*       -2.722229546E+02               0
GRID*             158457               0-2.500000000E+004.2520294632E+01+
*       -2.737764814E+02               0
GRID*             158458               0-2.500000000E+004.4027706291E+01+
*       -2.722810394E+02               0
GRID*             158459               0-2.500000000E+003.9464612669E+01+
*       -2.738614507E+02               0
GRID*             158460               0-2.500000000E+004.0969808725E+01+
*       -2.723579238E+02               0
GRID*             158461               0-2.500000000E+003.6410921355E+01+
*       -2.739610904E+02               0
GRID*             158462               0-2.500000000E+003.7915161108E+01+
*       -2.724500936E+02               0
GRID*             158463               0-2.500000000E+003.3358504801E+01+
*       -2.740723226E+02               0
GRID*             158464               0-2.500000000E+003.4862993582E+01+
*       -2.725543457E+02               0
GRID*             158465               0-2.500000000E+003.0306814183E+01+
*       -2.741920899E+02               0
GRID*             158466               0-2.500000000E+003.1812522984E+01+
*       -2.726677229E+02               0
GRID*             158467               0-2.500000000E+002.7255746600E+01+
*       -2.743171627E+02               0
GRID*             158468               0-2.500000000E+002.8763302026E+01+
*       -2.727872793E+02               0
GRID*             158469               0-2.500000000E+002.4205769564E+01+
*       -2.744440750E+02               0
GRID*             158470               0-2.500000000E+002.5715413379E+01+
*       -2.729098952E+02               0
GRID*             158471               0-2.500000000E+002.1157815256E+01+
*       -2.745693475E+02               0
GRID*             158472               0-2.500000000E+002.2669440245E+01+
*       -2.730323456E+02               0
GRID*             158473               0-2.500000000E+001.8112925813E+01+
*       -2.746900280E+02               0
GRID*             158474               0-2.500000000E+001.9626195918E+01+
*       -2.731517003E+02               0
GRID*             158475               0-2.500000000E+001.6585788556E+01+
*       -2.732667813E+02               0
GRID*             158476               0-2.500000000E+001.8097561771E+01+
*       -2.717305348E+02               0
GRID*             158477               0-2.500000000E+001.6573025089E+01+
*       -2.703048221E+02               0
GRID*             158478               0-2.500000000E+001.6560642766E+01+
*       -2.673412159E+02               0
GRID*             158479               0-2.500000000E+001.8082223195E+01+
*       -2.687699813E+02               0
GRID*             158480               0-2.500000000E+001.6548593702E+01+
*       -2.643758018E+02               0
GRID*             158481               0-2.500000000E+001.8067348102E+01+
*       -2.658072444E+02               0
GRID*             158482               0-2.500000000E+001.6536902502E+01+
*       -2.614083387E+02               0
GRID*             158483               0-2.500000000E+001.8052898341E+01+
*       -2.628421935E+02               0
GRID*             158484               0-2.500000000E+001.6525665214E+01+
*       -2.584383058E+02               0
GRID*             158485               0-2.500000000E+001.8038959964E+01+
*       -2.598744595E+02               0
GRID*             158486               0-2.500000000E+001.6514997683E+01+
*       -2.554646875E+02               0
GRID*             158487               0-2.500000000E+001.8025704662E+01+
*       -2.569032217E+02               0
GRID*             158488               0-2.500000000E+001.6504930860E+01+
*       -2.524856885E+02               0
GRID*             158489               0-2.500000000E+001.8013305137E+01+
*       -2.539269363E+02               0
GRID*             158490               0-2.500000000E+001.6495202533E+01+
*       -2.494983135E+02               0
GRID*             158491               0-2.500000000E+001.8001776376E+01+
*       -2.509429450E+02               0
GRID*             158492               0-2.500000000E+001.6484789864E+01+
*       -2.464975565E+02               0
GRID*             158493               0-2.500000000E+001.7990659607E+01+
*       -2.479467889E+02               0
GRID*             158494               0-2.500000000E+001.6471101588E+01+
*       -2.434748554E+02               0
GRID*             158495               0-2.500000000E+001.7978507228E+01+
*       -2.449308929E+02               0
GRID*             158496               0-2.500000000E+001.6448993174E+01+
*       -2.404154504E+02               0
GRID*             158497               0-2.500000000E+001.7962325783E+01+
*       -2.418820134E+02               0
GRID*             158498               0-2.500000000E+001.6408484464E+01+
*       -2.372926405E+02               0
GRID*             158499               0-2.500000000E+001.7936704812E+01+
*       -2.387748187E+02               0
GRID*             158500               0-2.500000000E+001.6325360071E+01+
*       -2.340488935E+02               0
GRID*             158501               0-2.500000000E+001.7889840458E+01+
*       -2.355479125E+02               0
GRID*             158502               0-2.500000000E+001.6121666702E+01+
*       -2.305023934E+02               0
GRID*             158503               0-2.500000000E+001.7780891547E+01+
*       -2.319740657E+02               0
GRID*             158504               0-2.500000000E+001.6827592096E+01+
*       -2.287288914E+02               0
GRID*             158505               0-2.500000000E+001.8392937661E+01+
*       -2.287036513E+02               0
GRID*             158506               0-2.500000000E+002.1366690364E+01+
*       -2.293145639E+02               0
GRID*             158507               0-2.500000000E+001.9419286502E+01+
*       -2.304073066E+02               0
GRID*             158508               0-2.500000000E+002.4324975041E+01+
*       -2.296047678E+02               0
GRID*             158509               0-2.500000000E+002.2678093212E+01+
*       -2.309114538E+02               0
GRID*             158510               0-2.500000000E+002.7297433332E+01+
*       -2.297637716E+02               0
GRID*             158511               0-2.500000000E+002.5725718215E+01+
*       -2.311443489E+02               0
GRID*             158512               0-2.500000000E+003.0274793716E+01+
*       -2.298609661E+02               0
GRID*             158513               0-2.500000000E+002.8725940410E+01+
*       -2.312752763E+02               0
GRID*             158514               0-2.500000000E+003.3250357751E+01+
*       -2.299276815E+02               0
GRID*             158515               0-2.500000000E+003.1710515362E+01+
*       -2.313591586E+02               0
GRID*             158516               0-2.500000000E+003.6221909920E+01+
*       -2.299809962E+02               0
GRID*             158517               0-2.500000000E+003.4685921345E+01+
*       -2.314212723E+02               0
GRID*             158518               0-2.500000000E+003.9190487175E+01+
*       -2.300323727E+02               0
GRID*             158519               0-2.500000000E+003.7654371392E+01+
*       -2.314765110E+02               0
GRID*             158520               0-2.500000000E+004.2159261544E+01+
*       -2.300911026E+02               0
GRID*             158521               0-2.500000000E+004.0618322312E+01+
*       -2.315358099E+02               0
GRID*             158522               0-2.500000000E+004.5132882434E+01+
*       -2.301656696E+02               0
GRID*             158523               0-2.500000000E+004.3581343721E+01+
*       -2.316085785E+02               0
GRID*             158524               0-2.500000000E+004.8116974521E+01+
*       -2.302641548E+02               0
GRID*             158525               0-2.500000000E+004.6548200985E+01+
*       -2.317034316E+02               0
GRID*             158526               0-2.500000000E+005.1116887259E+01+
*       -2.303940729E+02               0
GRID*             158527               0-2.500000000E+004.9524259823E+01+
*       -2.318278633E+02               0
GRID*             158528               0-2.500000000E+005.4134730473E+01+
*       -2.305620611E+02               0
GRID*             158529               0-2.500000000E+005.2513507488E+01+
*       -2.319872212E+02               0
GRID*             158530               0-2.500000000E+005.7164427396E+01+
*       -2.307736697E+02               0
GRID*             158531               0-2.500000000E+005.5515064724E+01+
*       -2.321837089E+02               0
GRID*             158532               0-2.500000000E+006.0186828489E+01+
*       -2.310312824E+02               0
GRID*             158533               0-2.500000000E+005.8519849340E+01+
*       -2.324156548E+02               0
GRID*             158534               0-2.500000000E+006.3173312805E+01+
*       -2.313231479E+02               0
GRID*             158535               0-2.500000000E+006.1511815904E+01+
*       -2.326745041E+02               0
GRID*             158536               0-2.500000000E+006.6116317161E+01+
*       -2.316036638E+02               0
GRID*             158537               0-2.500000000E+006.4477848182E+01+
*       -2.329398372E+02               0
GRID*             158538               0-2.500000000E+006.9027866694E+01+
*       -2.318475019E+02               0
GRID*             158539               0-2.500000000E+006.7415561431E+01+
*       -2.331884707E+02               0
GRID*             158540               0-2.500000000E+007.1918577964E+01+
*       -2.320511944E+02               0
GRID*             158541               0-2.500000000E+007.0328429593E+01+
*       -2.334086547E+02               0
GRID*             158542               0-2.500000000E+007.4787760225E+01+
*       -2.322236177E+02               0
GRID*             158543               0-2.500000000E+007.3216922212E+01+
*       -2.336009953E+02               0
GRID*             158544               0-2.500000000E+007.7622707639E+01+
*       -2.323788685E+02               0
GRID*             158545               0-2.500000000E+007.6074652484E+01+
*       -2.337741252E+02               0
GRID*             158546               0-2.500000000E+008.0406310745E+01+
*       -2.325298472E+02               0
GRID*             158547               0-2.500000000E+007.8890942602E+01+
*       -2.339400751E+02               0
GRID*             158548               0-2.500000000E+008.3139401748E+01+
*       -2.326835316E+02               0
GRID*             158549               0-2.500000000E+008.1658050053E+01+
*       -2.341119772E+02               0
GRID*             158550               0-2.500000000E+008.4374322408E+01+
*       -2.343064618E+02               0
GRID*             158551               0-2.500000000E+008.4227655819E+01+
*       -2.373084787E+02               0
GRID*             158552               0-2.500000000E+008.2943079527E+01+
*       -2.357039934E+02               0
GRID*             158553               0-2.500000000E+008.4102565646E+01+
*       -2.403100963E+02               0
GRID*             158554               0-2.500000000E+008.2784025621E+01+
*       -2.387087661E+02               0
GRID*             158555               0-2.500000000E+008.3994611305E+01+
*       -2.433111302E+02               0
GRID*             158556               0-2.500000000E+008.2647177205E+01+
*       -2.417126230E+02               0
GRID*             158557               0-2.500000000E+008.3901439143E+01+
*       -2.463113454E+02               0
GRID*             158558               0-2.500000000E+008.2528688187E+01+
*       -2.447164638E+02               0
GRID*             158559               0-2.500000000E+008.3821547606E+01+
*       -2.493103455E+02               0
GRID*             158560               0-2.500000000E+008.2426462403E+01+
*       -2.477198104E+02               0
GRID*             158561               0-2.500000000E+008.3753801927E+01+
*       -2.523076175E+02               0
GRID*             158562               0-2.500000000E+008.2339078329E+01+
*       -2.507219396E+02               0
GRID*             158563               0-2.500000000E+008.3697191035E+01+
*       -2.553025502E+02               0
GRID*             158564               0-2.500000000E+008.2265370228E+01+
*       -2.537220336E+02               0
GRID*             158565               0-2.500000000E+008.3650699104E+01+
*       -2.582944596E+02               0
GRID*             158566               0-2.500000000E+008.2204213548E+01+
*       -2.567191998E+02               0
GRID*             158567               0-2.500000000E+008.3613265858E+01+
*       -2.612826672E+02               0
GRID*             158568               0-2.500000000E+008.2154427032E+01+
*       -2.597125286E+02               0
GRID*             158569               0-2.500000000E+008.3583813179E+01+
*       -2.642666183E+02               0
GRID*             158570               0-2.500000000E+008.2114768709E+01+
*       -2.627012070E+02               0
GRID*             158571               0-2.500000000E+008.3561298979E+01+
*       -2.672459597E+02               0
GRID*             158572               0-2.500000000E+008.2083989857E+01+
*       -2.656846291E+02               0
GRID*             158573               0-2.500000000E+008.3544760161E+01+
*       -2.702204906E+02               0
GRID*             158574               0-2.500000000E+008.2060899872E+01+
*       -2.686624090E+02               0
GRID*             158575               0-2.500000000E+008.2044572388E+01+
*       -2.716356787E+02               0
GRID*             158576               0-2.500000000E+007.9049006681E+01+
*       -2.714925424E+02               0
GRID*             158577               0-2.500000000E+008.0554168252E+01+
*       -2.700786050E+02               0
GRID*             158578               0-2.500000000E+007.6045278309E+01+
*       -2.713490406E+02               0
GRID*             158579               0-2.500000000E+007.7555882941E+01+
*       -2.699360251E+02               0
GRID*             158580               0-2.500000000E+007.3032220145E+01+
*       -2.712096080E+02               0
GRID*             158581               0-2.500000000E+007.4548222239E+01+
*       -2.697953784E+02               0
GRID*             158582               0-2.500000000E+007.0008981106E+01+
*       -2.710788704E+02               0
GRID*             158583               0-2.500000000E+007.1530009510E+01+
*       -2.696609636E+02               0
GRID*             158584               0-2.500000000E+006.6975056213E+01+
*       -2.709611732E+02               0
GRID*             158585               0-2.500000000E+006.8500404677E+01+
*       -2.695370828E+02               0
GRID*             158586               0-2.500000000E+006.3930410628E+01+
*       -2.708604905E+02               0
GRID*             158587               0-2.500000000E+006.5459002679E+01+
*       -2.694278572E+02               0
GRID*             158588               0-2.500000000E+006.0875688002E+01+
*       -2.707805085E+02               0
GRID*             158589               0-2.500000000E+006.2406037950E+01+
*       -2.693372661E+02               0
GRID*             158590               0-2.500000000E+005.7812453161E+01+
*       -2.707246235E+02               0
GRID*             158591               0-2.500000000E+005.9342677706E+01+
*       -2.692691880E+02               0
GRID*             158592               0-2.500000000E+005.4743330770E+01+
*       -2.706956228E+02               0
GRID*             158593               0-2.500000000E+005.6271300581E+01+
*       -2.692271885E+02               0
GRID*             158594               0-2.500000000E+005.1671800777E+01+
*       -2.706949515E+02               0
GRID*             158595               0-2.500000000E+005.3195510871E+01+
*       -2.692138308E+02               0
GRID*             158596               0-2.500000000E+004.8601494952E+01+
*       -2.707218503E+02               0
GRID*             158597               0-2.500000000E+005.0119609015E+01+
*       -2.692295860E+02               0
GRID*             158598               0-2.500000000E+004.5535148305E+01+
*       -2.707731871E+02               0
GRID*             158599               0-2.500000000E+004.7047465341E+01+
*       -2.692720828E+02               0
GRID*             158600               0-2.500000000E+004.2473960187E+01+
*       -2.708446667E+02               0
GRID*             158601               0-2.500000000E+004.3981402200E+01+
*       -2.693368143E+02               0
GRID*             158602               0-2.500000000E+003.9417752035E+01+
*       -2.709320559E+02               0
GRID*             158603               0-2.500000000E+004.0921903497E+01+
*       -2.694187988E+02               0
GRID*             158604               0-2.500000000E+003.6365544011E+01+
*       -2.710317532E+02               0
GRID*             158605               0-2.500000000E+003.7868134938E+01+
*       -2.695137154E+02               0
GRID*             158606               0-2.500000000E+003.3316156346E+01+
*       -2.711407756E+02               0
GRID*             158607               0-2.500000000E+003.4818706776E+01+
*       -2.696181831E+02               0
GRID*             158608               0-2.500000000E+003.0268674268E+01+
*       -2.712564380E+02               0
GRID*             158609               0-2.500000000E+003.1772307630E+01+
*       -2.697294908E+02               0
GRID*             158610               0-2.500000000E+002.7222730103E+01+
*       -2.713760004E+02               0
GRID*             158611               0-2.500000000E+002.8728102345E+01+
*       -2.698451591E+02               0
GRID*             158612               0-2.500000000E+002.4178559110E+01+
*       -2.714965340E+02               0
GRID*             158613               0-2.500000000E+002.5685875834E+01+
*       -2.699626392E+02               0
GRID*             158614               0-2.500000000E+002.1136803151E+01+
*       -2.716151504E+02               0
GRID*             158615               0-2.500000000E+002.2645922016E+01+
*       -2.700793388E+02               0
GRID*             158616               0-2.500000000E+001.9608169004E+01+
*       -2.701939850E+02               0
GRID*             158617               0-2.500000000E+002.1116205309E+01+
*       -2.686584724E+02               0
GRID*             158618               0-2.500000000E+001.9590259500E+01+
*       -2.672344687E+02               0
GRID*             158619               0-2.500000000E+001.9572784606E+01+
*       -2.642723665E+02               0
GRID*             158620               0-2.500000000E+002.1095696004E+01+
*       -2.656995908E+02               0
GRID*             158621               0-2.500000000E+001.9555795143E+01+
*       -2.613075952E+02               0
GRID*             158622               0-2.500000000E+002.1075681408E+01+
*       -2.627377681E+02               0
GRID*             158623               0-2.500000000E+001.9539516996E+01+
*       -2.583397154E+02               0
GRID*             158624               0-2.500000000E+002.1056352174E+01+
*       -2.597728511E+02               0
GRID*             158625               0-2.500000000E+001.9524300043E+01+
*       -2.553676907E+02               0
GRID*             158626               0-2.500000000E+002.1038112377E+01+
*       -2.568041844E+02               0
GRID*             158627               0-2.500000000E+001.9510520308E+01+
*       -2.523895756E+02               0
GRID*             158628               0-2.500000000E+002.1021515214E+01+
*       -2.538303300E+02               0
GRID*             158629               0-2.500000000E+001.9498403540E+01+
*       -2.494020717E+02               0
GRID*             158630               0-2.500000000E+002.1007147471E+01+
*       -2.508487023E+02               0
GRID*             158631               0-2.500000000E+001.9487715697E+01+
*       -2.463997551E+02               0
GRID*             158632               0-2.500000000E+002.0995459629E+01+
*       -2.478550379E+02               0
GRID*             158633               0-2.500000000E+001.9477477735E+01+
*       -2.433737729E+02               0
GRID*             158634               0-2.500000000E+002.0986686205E+01+
*       -2.448426351E+02               0
GRID*             158635               0-2.500000000E+001.9466209338E+01+
*       -2.403096835E+02               0
GRID*             158636               0-2.500000000E+002.0981361290E+01+
*       -2.418014429E+02               0
GRID*             158637               0-2.500000000E+001.9452866790E+01+
*       -2.371823953E+02               0
GRID*             158638               0-2.500000000E+002.0982371316E+01+
*       -2.387172601E+02               0
GRID*             158639               0-2.500000000E+001.9438197594E+01+
*       -2.339387595E+02               0
GRID*             158640               0-2.500000000E+002.1001223926E+01+
*       -2.355732424E+02               0
GRID*             158641               0-2.500000000E+002.1076592548E+01+
*       -2.323720004E+02               0
GRID*             158642               0-2.500000000E+002.4159282629E+01+
*       -2.325872964E+02               0
GRID*             158643               0-2.500000000E+002.2557781965E+01+
*       -2.340478430E+02               0
GRID*             158644               0-2.500000000E+002.7179463079E+01+
*       -2.327181911E+02               0
GRID*             158645               0-2.500000000E+002.5613027493E+01+
*       -2.341611386E+02               0
GRID*             158646               0-2.500000000E+003.0174876299E+01+
*       -2.328036627E+02               0
GRID*             158647               0-2.500000000E+002.8628398967E+01+
*       -2.342465776E+02               0
GRID*             158648               0-2.500000000E+003.3155815137E+01+
*       -2.328653582E+02               0
GRID*             158649               0-2.500000000E+003.1620176074E+01+
*       -2.343098623E+02               0
GRID*             158650               0-2.500000000E+003.6125527358E+01+
*       -2.329174048E+02               0
GRID*             158651               0-2.500000000E+003.4595421150E+01+
*       -2.343614907E+02               0
GRID*             158652               0-2.500000000E+003.9086025871E+01+
*       -2.329706999E+02               0
GRID*             158653               0-2.500000000E+003.7557181837E+01+
*       -2.344115937E+02               0
GRID*             158654               0-2.500000000E+004.2039819161E+01+
*       -2.330350003E+02               0
GRID*             158655               0-2.500000000E+004.0507522720E+01+
*       -2.344698903E+02               0
GRID*             158656               0-2.500000000E+004.4990758296E+01+
*       -2.331197842E+02               0
GRID*             158657               0-2.500000000E+004.3449233735E+01+
*       -2.345462060E+02               0
GRID*             158658               0-2.500000000E+004.7944479417E+01+
*       -2.332339153E+02               0
GRID*             158659               0-2.500000000E+004.6387036728E+01+
*       -2.346502679E+02               0
GRID*             158660               0-2.500000000E+005.0907633322E+01+
*       -2.333839192E+02               0
GRID*             158661               0-2.500000000E+004.9327852916E+01+
*       -2.347899713E+02               0
GRID*             158662               0-2.500000000E+005.3885196910E+01+
*       -2.335715092E+02               0
GRID*             158663               0-2.500000000E+005.2279322743E+01+
*       -2.349682072E+02               0
GRID*             158664               0-2.500000000E+005.6875751317E+01+
*       -2.337924893E+02               0
GRID*             158665               0-2.500000000E+005.5245883503E+01+
*       -2.351802896E+02               0
GRID*             158666               0-2.500000000E+005.9868118275E+01+
*       -2.340396464E+02               0
GRID*             158667               0-2.500000000E+005.8224020252E+01+
*       -2.354164809E+02               0
GRID*             158668               0-2.500000000E+006.2846674134E+01+
*       -2.343001989E+02               0
GRID*             158669               0-2.500000000E+006.1202976505E+01+
*       -2.356653413E+02               0
GRID*             158670               0-2.500000000E+006.5802663220E+01+
*       -2.345532264E+02               0
GRID*             158671               0-2.500000000E+006.4171489172E+01+
*       -2.359135881E+02               0
GRID*             158672               0-2.500000000E+006.8735485909E+01+
*       -2.347842618E+02               0
GRID*             158673               0-2.500000000E+006.7122587698E+01+
*       -2.361490175E+02               0
GRID*             158674               0-2.500000000E+007.1645553745E+01+
*       -2.349896440E+02               0
GRID*             158675               0-2.500000000E+007.0052610061E+01+
*       -2.363652512E+02               0
GRID*             158676               0-2.500000000E+007.4528997930E+01+
*       -2.351743037E+02               0
GRID*             158677               0-2.500000000E+007.2957629463E+01+
*       -2.365629524E+02               0
GRID*             158678               0-2.500000000E+007.7377311959E+01+
*       -2.353480214E+02               0
GRID*             158679               0-2.500000000E+007.5831657404E+01+
*       -2.367481998E+02               0
GRID*             158680               0-2.500000000E+008.0181739358E+01+
*       -2.355218477E+02               0
GRID*             158681               0-2.500000000E+007.8668108714E+01+
*       -2.369297940E+02               0
GRID*             158682               0-2.500000000E+008.1466768832E+01+
*       -2.371138639E+02               0
GRID*             158683               0-2.500000000E+008.1303140773E+01+
*       -2.401157481E+02               0
GRID*             158684               0-2.500000000E+007.9985883983E+01+
*       -2.385208459E+02               0
GRID*             158685               0-2.500000000E+008.1160034252E+01+
*       -2.431201539E+02               0
GRID*             158686               0-2.500000000E+007.9815997820E+01+
*       -2.415232790E+02               0
GRID*             158687               0-2.500000000E+008.1035409169E+01+
*       -2.461258393E+02               0
GRID*             158688               0-2.500000000E+007.9666755234E+01+
*       -2.445295294E+02               0
GRID*             158689               0-2.500000000E+008.0927853172E+01+
*       -2.491316200E+02               0
GRID*             158690               0-2.500000000E+007.9536799938E+01+
*       -2.475376489E+02               0
GRID*             158691               0-2.500000000E+008.0836253198E+01+
*       -2.521363354E+02               0
GRID*             158692               0-2.500000000E+007.9425028040E+01+
*       -2.505460158E+02               0
GRID*             158693               0-2.500000000E+008.0759544349E+01+
*       -2.551387686E+02               0
GRID*             158694               0-2.500000000E+007.9330427319E+01+
*       -2.535530704E+02               0
GRID*             158695               0-2.500000000E+008.0696546027E+01+
*       -2.581376552E+02               0
GRID*             158696               0-2.500000000E+007.9251876828E+01+
*       -2.565572241E+02               0
GRID*             158697               0-2.500000000E+008.0645919150E+01+
*       -2.611317958E+02               0
GRID*             158698               0-2.500000000E+007.9188038144E+01+
*       -2.595569224E+02               0
GRID*             158699               0-2.500000000E+008.0606227832E+01+
*       -2.641202097E+02               0
GRID*             158700               0-2.500000000E+007.9137378273E+01+
*       -2.625507985E+02               0
GRID*             158701               0-2.500000000E+008.0576041805E+01+
*       -2.671022169E+02               0
GRID*             158702               0-2.500000000E+007.9098279780E+01+
*       -2.655377975E+02               0
GRID*             158703               0-2.500000000E+007.9069310185E+01+
*       -2.685184129E+02               0
GRID*             158704               0-2.500000000E+007.6068533948E+01+
*       -2.683753015E+02               0
GRID*             158705               0-2.500000000E+007.7581961193E+01+
*       -2.669576893E+02               0
GRID*             158706               0-2.500000000E+007.3056836407E+01+
*       -2.682360271E+02               0
GRID*             158707               0-2.500000000E+007.4577148116E+01+
*       -2.668159502E+02               0
GRID*             158708               0-2.500000000E+007.0032983088E+01+
*       -2.681047795E+02               0
GRID*             158709               0-2.500000000E+007.1559809986E+01+
*       -2.666798430E+02               0
GRID*             158710               0-2.500000000E+006.6996086746E+01+
*       -2.679856790E+02               0
GRID*             158711               0-2.500000000E+006.8528665157E+01+
*       -2.665533758E+02               0
GRID*             158712               0-2.500000000E+006.3945775385E+01+
*       -2.678828306E+02               0
GRID*             158713               0-2.500000000E+006.5482859451E+01+
*       -2.664406525E+02               0
GRID*             158714               0-2.500000000E+006.0882522953E+01+
*       -2.678005178E+02               0
GRID*             158715               0-2.500000000E+006.2422260388E+01+
*       -2.663460823E+02               0
GRID*             158716               0-2.500000000E+005.7808121717E+01+
*       -2.677432637E+02               0
GRID*             158717               0-2.500000000E+005.9347966964E+01+
*       -2.662745935E+02               0
GRID*             158718               0-2.500000000E+005.4726090123E+01+
*       -2.677153600E+02               0
GRID*             158719               0-2.500000000E+005.6262911259E+01+
*       -2.662314352E+02               0
GRID*             158720               0-2.500000000E+005.1641647432E+01+
*       -2.677194913E+02               0
GRID*             158721               0-2.500000000E+005.3172226684E+01+
*       -2.662210206E+02               0
GRID*             158722               0-2.500000000E+004.8560677388E+01+
*       -2.677547106E+02               0
GRID*             158723               0-2.500000000E+005.0082715805E+01+
*       -2.662446160E+02               0
GRID*             158724               0-2.500000000E+004.5487471096E+01+
*       -2.678156070E+02               0
GRID*             158725               0-2.500000000E+004.7000683144E+01+
*       -2.662982348E+02               0
GRID*             158726               0-2.500000000E+004.2423406833E+01+
*       -2.678954753E+02               0
GRID*             158727               0-2.500000000E+004.3929475729E+01+
*       -2.663742679E+02               0
GRID*             158728               0-2.500000000E+003.9367585657E+01+
*       -2.679886464E+02               0
GRID*             158729               0-2.500000000E+004.0869088993E+01+
*       -2.664653228E+02               0
GRID*             158730               0-2.500000000E+003.6318077218E+01+
*       -2.680910839E+02               0
GRID*             158731               0-2.500000000E+003.7817527937E+01+
*       -2.665660148E+02               0
GRID*             158732               0-2.500000000E+003.3272900816E+01+
*       -2.682000141E+02               0
GRID*             158733               0-2.500000000E+003.4772271259E+01+
*       -2.666729149E+02               0
GRID*             158734               0-2.500000000E+003.0230588558E+01+
*       -2.683132730E+02               0
GRID*             158735               0-2.500000000E+003.1731181745E+01+
*       -2.667837963E+02               0
GRID*             158736               0-2.500000000E+002.7190410638E+01+
*       -2.684287627E+02               0
GRID*             158737               0-2.500000000E+002.8692896851E+01+
*       -2.668968765E+02               0
GRID*             158738               0-2.500000000E+002.4152324386E+01+
*       -2.685442428E+02               0
GRID*             158739               0-2.500000000E+002.5656859190E+01+
*       -2.670103662E+02               0
GRID*             158740               0-2.500000000E+002.2622607679E+01+
*       -2.671233763E+02               0
GRID*             158741               0-2.500000000E+002.4126261193E+01+
*       -2.655885918E+02               0
GRID*             158742               0-2.500000000E+002.2599349518E+01+
*       -2.641648062E+02               0
GRID*             158743               0-2.500000000E+002.2576567904E+01+
*       -2.612032109E+02               0
GRID*             158744               0-2.500000000E+002.4100236014E+01+
*       -2.626302490E+02               0
GRID*             158745               0-2.500000000E+002.2554682839E+01+
*       -2.582384672E+02               0
GRID*             158746               0-2.500000000E+002.4074898568E+01+
*       -2.596688269E+02               0
GRID*             158747               0-2.500000000E+002.2534401643E+01+
*       -2.552698374E+02               0
GRID*             158748               0-2.500000000E+002.4050972105E+01+
*       -2.567041202E+02               0
GRID*             158749               0-2.500000000E+002.2516654844E+01+
*       -2.522956565E+02               0
GRID*             158750               0-2.500000000E+002.4029541273E+01+
*       -2.537351640E+02               0
GRID*             158751               0-2.500000000E+002.2502472351E+01+
*       -2.493129644E+02               0
GRID*             158752               0-2.500000000E+002.4011979724E+01+
*       -2.507599187E+02               0
GRID*             158753               0-2.500000000E+002.2492836867E+01+
*       -2.463170681E+02               0
GRID*             158754               0-2.500000000E+002.3999849588E+01+
*       -2.477749946E+02               0
GRID*             158755               0-2.500000000E+002.2488817226E+01+
*       -2.433011651E+02               0
GRID*             158756               0-2.500000000E+002.3994967888E+01+
*       -2.447755981E+02               0
GRID*             158757               0-2.500000000E+002.2492646454E+01+
*       -2.402564206E+02               0
GRID*             158758               0-2.500000000E+002.4000102390E+01+
*       -2.417561428E+02               0
GRID*             158759               0-2.500000000E+002.2510580697E+01+
*       -2.371732827E+02               0
GRID*             158760               0-2.500000000E+002.4020855835E+01+
*       -2.387124432E+02               0
GRID*             158761               0-2.500000000E+002.4067138736E+01+
*       -2.356478833E+02               0
GRID*             158762               0-2.500000000E+002.7093684015E+01+
*       -2.357158516E+02               0
GRID*             158763               0-2.500000000E+002.5547795258E+01+
*       -2.372025963E+02               0
GRID*             158764               0-2.500000000E+003.0094313545E+01+
*       -2.357690209E+02               0
GRID*             158765               0-2.500000000E+002.8559598593E+01+
*       -2.372382949E+02               0
GRID*             158766               0-2.500000000E+003.3075677291E+01+
*       -2.358119440E+02               0
GRID*             158767               0-2.500000000E+003.1549814762E+01+
*       -2.372711026E+02               0
GRID*             158768               0-2.500000000E+003.6040470357E+01+
*       -2.358519534E+02               0
GRID*             158769               0-2.500000000E+003.4520726498E+01+
*       -2.373024067E+02               0
GRID*             158770               0-2.500000000E+003.8989742590E+01+
*       -2.358974121E+02               0
GRID*             158771               0-2.500000000E+003.7473031110E+01+
*       -2.373377718E+02               0
GRID*             158772               0-2.500000000E+004.1924579721E+01+
*       -2.359578694E+02               0
GRID*             158773               0-2.500000000E+004.0406799592E+01+
*       -2.373853912E+02               0
GRID*             158774               0-2.500000000E+004.4847845647E+01+
*       -2.360442851E+02               0
GRID*             158775               0-2.500000000E+004.3323191633E+01+
*       -2.374559484E+02               0
GRID*             158776               0-2.500000000E+004.7765639323E+01+
*       -2.361678460E+02               0
GRID*             158777               0-2.500000000E+004.6226448242E+01+
*       -2.375618631E+02               0
GRID*             158778               0-2.500000000E+005.0687903165E+01+
*       -2.363363519E+02               0
GRID*             158779               0-2.500000000E+004.9125689572E+01+
*       -2.377142266E+02               0
GRID*             158780               0-2.500000000E+005.3626817192E+01+
*       -2.365478622E+02               0
GRID*             158781               0-2.500000000E+005.2035397613E+01+
*       -2.379160068E+02               0
GRID*             158782               0-2.500000000E+005.6589078182E+01+
*       -2.367859003E+02               0
GRID*             158783               0-2.500000000E+005.4970011870E+01+
*       -2.381534729E+02               0
GRID*             158784               0-2.500000000E+005.9566144269E+01+
*       -2.370362858E+02               0
GRID*             158785               0-2.500000000E+005.7931202199E+01+
*       -2.384057052E+02               0
GRID*             158786               0-2.500000000E+006.2543710251E+01+
*       -2.372875445E+02               0
GRID*             158787               0-2.500000000E+006.0906878016E+01+
*       -2.386584890E+02               0
GRID*             158788               0-2.500000000E+006.5510371265E+01+
*       -2.375289114E+02               0
GRID*             158789               0-2.500000000E+006.3882592344E+01+
*       -2.389028678E+02               0
GRID*             158790               0-2.500000000E+006.8459575492E+01+
*       -2.377534152E+02               0
GRID*             158791               0-2.500000000E+006.6847359059E+01+
*       -2.391333090E+02               0
GRID*             158792               0-2.500000000E+007.1386826767E+01+
*       -2.379597850E+02               0
GRID*             158793               0-2.500000000E+006.9793792198E+01+
*       -2.393479490E+02               0
GRID*             158794               0-2.500000000E+007.4286938538E+01+
*       -2.381519312E+02               0
GRID*             158795               0-2.500000000E+007.2716135843E+01+
*       -2.395487639E+02               0
GRID*             158796               0-2.500000000E+007.7153863224E+01+
*       -2.383369790E+02               0
GRID*             158797               0-2.500000000E+007.5609144358E+01+
*       -2.397407104E+02               0
GRID*             158798               0-2.500000000E+007.8471638493E+01+
*       -2.399280309E+02               0
GRID*             158799               0-2.500000000E+007.8298899121E+01+
*       -2.429321318E+02               0
GRID*             158800               0-2.500000000E+007.6954539794E+01+
*       -2.413368837E+02               0
GRID*             158801               0-2.500000000E+007.8146802309E+01+
*       -2.459407302E+02               0
GRID*             158802               0-2.500000000E+007.6778946195E+01+
*       -2.443433326E+02               0
GRID*             158803               0-2.500000000E+007.8014532211E+01+
*       -2.489516406E+02               0
GRID*             158804               0-2.500000000E+007.6624534582E+01+
*       -2.473547219E+02               0
GRID*             158805               0-2.500000000E+007.7901386974E+01+
*       -2.519629032E+02               0
GRID*             158806               0-2.500000000E+007.6490891145E+01+
*       -2.503685280E+02               0
GRID*             158807               0-2.500000000E+007.7806541745E+01+
*       -2.549725140E+02               0
GRID*             158808               0-2.500000000E+007.6377501400E+01+
*       -2.533823469E+02               0
GRID*             158809               0-2.500000000E+007.7728825309E+01+
*       -2.579784271E+02               0
GRID*             158810               0-2.500000000E+007.6283490227E+01+
*       -2.563937171E+02               0
GRID*             158811               0-2.500000000E+007.7666680688E+01+
*       -2.609787354E+02               0
GRID*             158812               0-2.500000000E+007.6207467853E+01+
*       -2.594002401E+02               0
GRID*             158813               0-2.500000000E+007.7618303355E+01+
*       -2.639718752E+02               0
GRID*             158814               0-2.500000000E+007.6147605770E+01+
*       -2.623998121E+02               0
GRID*             158815               0-2.500000000E+007.6101984768E+01+
*       -2.653917670E+02               0
GRID*             158816               0-2.500000000E+007.3093082633E+01+
*       -2.652498574E+02               0
GRID*             158817               0-2.500000000E+007.4617919285E+01+
*       -2.638256742E+02               0
GRID*             158818               0-2.500000000E+007.0069651034E+01+
*       -2.651149996E+02               0
GRID*             158819               0-2.500000000E+007.1602923681E+01+
*       -2.636850139E+02               0
GRID*             158820               0-2.500000000E+006.7030259116E+01+
*       -2.649910591E+02               0
GRID*             158821               0-2.500000000E+006.8571244993E+01+
*       -2.635526829E+02               0
GRID*             158822               0-2.500000000E+006.3973938510E+01+
*       -2.648822629E+02               0
GRID*             158823               0-2.500000000E+006.5521338175E+01+
*       -2.634326696E+02               0
GRID*             158824               0-2.500000000E+006.0900637068E+01+
*       -2.647936690E+02               0
GRID*             158825               0-2.500000000E+006.2452315190E+01+
*       -2.633298497E+02               0
GRID*             158826               0-2.500000000E+005.7811980554E+01+
*       -2.647315315E+02               0
GRID*             158827               0-2.500000000E+005.9364650657E+01+
*       -2.632506070E+02               0
GRID*             158828               0-2.500000000E+005.4712279669E+01+
*       -2.647028804E+02               0
GRID*             158829               0-2.500000000E+005.6261348964E+01+
*       -2.632029766E+02               0
GRID*             158830               0-2.500000000E+005.1609387642E+01+
*       -2.647132829E+02               0
GRID*             158831               0-2.500000000E+005.3149440627E+01+
*       -2.631951427E+02               0
GRID*             158832               0-2.500000000E+004.8513582629E+01+
*       -2.647621512E+02               0
GRID*             158833               0-2.500000000E+005.0040254467E+01+
*       -2.632308181E+02               0
GRID*             158834               0-2.500000000E+004.5432015895E+01+
*       -2.648388031E+02               0
GRID*             158835               0-2.500000000E+004.6944915381E+01+
*       -2.633027195E+02               0
GRID*             158836               0-2.500000000E+004.2365723374E+01+
*       -2.649321309E+02               0
GRID*             158837               0-2.500000000E+004.3868263540E+01+
*       -2.633966661E+02               0
GRID*             158838               0-2.500000000E+003.9311992685E+01+
*       -2.650346042E+02               0
GRID*             158839               0-2.500000000E+004.0808627067E+01+
*       -2.635014123E+02               0
GRID*             158840               0-2.500000000E+003.6267095893E+01+
*       -2.651420576E+02               0
GRID*             158841               0-2.500000000E+003.7761560641E+01+
*       -2.636106469E+02               0
GRID*             158842               0-2.500000000E+003.3227797275E+01+
*       -2.652523674E+02               0
GRID*             158843               0-2.500000000E+003.4722621909E+01+
*       -2.637215100E+02               0
GRID*             158844               0-2.500000000E+003.0191897540E+01+
*       -2.653642547E+02               0
GRID*             158845               0-2.500000000E+003.1688513071E+01+
*       -2.638328258E+02               0
GRID*             158846               0-2.500000000E+002.7158271420E+01+
*       -2.654765247E+02               0
GRID*             158847               0-2.500000000E+002.8657272109E+01+
*       -2.639439029E+02               0
GRID*             158848               0-2.500000000E+002.5627673424E+01+
*       -2.640547502E+02               0
GRID*             158849               0-2.500000000E+002.7125916384E+01+
*       -2.625210257E+02               0
GRID*             158850               0-2.500000000E+002.5598478974E+01+
*       -2.610965244E+02               0
GRID*             158851               0-2.500000000E+002.5570121847E+01+
*       -2.581356710E+02               0
GRID*             158852               0-2.500000000E+002.7093702253E+01+
*       -2.595633686E+02               0
GRID*             158853               0-2.500000000E+002.5543762355E+01+
*       -2.551720739E+02               0
GRID*             158854               0-2.500000000E+002.7062912097E+01+
*       -2.566036248E+02               0
GRID*             158855               0-2.500000000E+002.5521059667E+01+
*       -2.522047029E+02               0
GRID*             158856               0-2.500000000E+002.7035280749E+01+
*       -2.536416128E+02               0
GRID*             158857               0-2.500000000E+002.5504059498E+01+
*       -2.492312957E+02               0
GRID*             158858               0-2.500000000E+002.7013139441E+01+
*       -2.506760799E+02               0
GRID*             158859               0-2.500000000E+002.5495025517E+01+
*       -2.462482526E+02               0
GRID*             158860               0-2.500000000E+002.6999235426E+01+
*       -2.477045537E+02               0
GRID*             158861               0-2.500000000E+002.5496508516E+01+
*       -2.432510650E+02               0
GRID*             158862               0-2.500000000E+002.6996566144E+01+
*       -2.447237194E+02               0
GRID*             158863               0-2.500000000E+002.5512217902E+01+
*       -2.402357773E+02               0
GRID*             158864               0-2.500000000E+002.7008624027E+01+
*       -2.417306994E+02               0
GRID*             158865               0-2.500000000E+002.7039157325E+01+
*       -2.387259304E+02               0
GRID*             158866               0-2.500000000E+003.0036642857E+01+
*       -2.387431001E+02               0
GRID*             158867               0-2.500000000E+002.8516201589E+01+
*       -2.402307356E+02               0
GRID*             158868               0-2.500000000E+003.3014565576E+01+
*       -2.387603633E+02               0
GRID*             158869               0-2.500000000E+003.1501393671E+01+
*       -2.402323608E+02               0
GRID*             158870               0-2.500000000E+003.5972615033E+01+
*       -2.387802333E+02               0
GRID*             158871               0-2.500000000E+003.4466454111E+01+
*       -2.402381899E+02               0
GRID*             158872               0-2.500000000E+003.8909331559E+01+
*       -2.388086795E+02               0
GRID*             158873               0-2.500000000E+003.7408915482E+01+
*       -2.402511409E+02               0
GRID*             158874               0-2.500000000E+004.1823251960E+01+
*       -2.388552020E+02               0
GRID*             158875               0-2.500000000E+004.0325783927E+01+
*       -2.402784904E+02               0
GRID*             158876               0-2.500000000E+004.4714810066E+01+
*       -2.389332126E+02               0
GRID*             158877               0-2.500000000E+004.3214870392E+01+
*       -2.403324662E+02               0
GRID*             158878               0-2.500000000E+004.7588889307E+01+
*       -2.390591123E+02               0
GRID*             158879               0-2.500000000E+004.6077251131E+01+
*       -2.404304618E+02               0
GRID*             158880               0-2.500000000E+005.0459127036E+01+
*       -2.392478446E+02               0
GRID*             158881               0-2.500000000E+004.8922326772E+01+
*       -2.405927303E+02               0
GRID*             158882               0-2.500000000E+005.3352130242E+01+
*       -2.394991341E+02               0
GRID*             158883               0-2.500000000E+005.1775859664E+01+
*       -2.408309718E+02               0
GRID*             158884               0-2.500000000E+005.6293174673E+01+
*       -2.397682827E+02               0
GRID*             158885               0-2.500000000E+005.4675293044E+01+
*       -2.411139438E+02               0
GRID*             158886               0-2.500000000E+005.9267531851E+01+
*       -2.400335216E+02               0
GRID*             158887               0-2.500000000E+005.7629504325E+01+
*       -2.413960991E+02               0
GRID*             158888               0-2.500000000E+006.2253500810E+01+
*       -2.402866677E+02               0
GRID*             158889               0-2.500000000E+006.0614154645E+01+
*       -2.416617003E+02               0
GRID*             158890               0-2.500000000E+006.5234720911E+01+
*       -2.405243227E+02               0
GRID*             158891               0-2.500000000E+006.3605629377E+01+
*       -2.419081226E+02               0
GRID*             158892               0-2.500000000E+006.8201082533E+01+
*       -2.407455506E+02               0
GRID*             158893               0-2.500000000E+006.6588444385E+01+
*       -2.421365642E+02               0
GRID*             158894               0-2.500000000E+007.1146096610E+01+
*       -2.409519733E+02               0
GRID*             158895               0-2.500000000E+006.9553386945E+01+
*       -2.423495748E+02               0
GRID*             158896               0-2.500000000E+007.4064653192E+01+
*       -2.411476303E+02               0
GRID*             158897               0-2.500000000E+007.2494613959E+01+
*       -2.425508396E+02               0
GRID*             158898               0-2.500000000E+007.5410048628E+01+
*       -2.427438036E+02               0
GRID*             158899               0-2.500000000E+007.5233666930E+01+
*       -2.457542639E+02               0
GRID*             158900               0-2.500000000E+007.3864769363E+01+
*       -2.441547348E+02               0
GRID*             158901               0-2.500000000E+007.5079039193E+01+
*       -2.487698166E+02               0
GRID*             158902               0-2.500000000E+007.3688171542E+01+
*       -2.471693586E+02               0
GRID*             158903               0-2.500000000E+007.4946266004E+01+
*       -2.517877503E+02               0
GRID*             158904               0-2.500000000E+007.3534414052E+01+
*       -2.501890389E+02               0
GRID*             158905               0-2.500000000E+007.4835112537E+01+
*       -2.548051433E+02               0
GRID*             158906               0-2.500000000E+007.3403877141E+01+
*       -2.532105467E+02               0
GRID*             158907               0-2.500000000E+007.4744592087E+01+
*       -2.578189437E+02               0
GRID*             158908               0-2.500000000E+007.3296214397E+01+
*       -2.562303698E+02               0
GRID*             158909               0-2.500000000E+007.4672919235E+01+
*       -2.608263125E+02               0
GRID*             158910               0-2.500000000E+007.3210043470E+01+
*       -2.592450161E+02               0
GRID*             158911               0-2.500000000E+007.3143232749E+01+
*       -2.622521746E+02               0
GRID*             158912               0-2.500000000E+007.0121880583E+01+
*       -2.621107770E+02               0
GRID*             158913               0-2.500000000E+007.1662189652E+01+
*       -2.606779377E+02               0
GRID*             158914               0-2.500000000E+006.7081213418E+01+
*       -2.619784642E+02               0
GRID*             158915               0-2.500000000E+006.8631849008E+01+
*       -2.605365583E+02               0
GRID*             158916               0-2.500000000E+006.4019339407E+01+
*       -2.618593842E+02               0
GRID*             158917               0-2.500000000E+006.5579214650E+01+
*       -2.604051788E+02               0
GRID*             158918               0-2.500000000E+006.0934996728E+01+
*       -2.617593227E+02               0
GRID*             158919               0-2.500000000E+006.2502020946E+01+
*       -2.602888572E+02               0
GRID*             158920               0-2.500000000E+005.7828517706E+01+
*       -2.616867592E+02               0
GRID*             158921               0-2.500000000E+005.9398863777E+01+
*       -2.601954749E+02               0
GRID*             158922               0-2.500000000E+005.4703964350E+01+
*       -2.616533133E+02               0
GRID*             158923               0-2.500000000E+005.6271133092E+01+
*       -2.601370958E+02               0
GRID*             158924               0-2.500000000E+005.1572793713E+01+
*       -2.616714100E+02               0
GRID*             158925               0-2.500000000E+005.3127317436E+01+
*       -2.601295806E+02               0
GRID*             158926               0-2.500000000E+004.8455035469E+01+
*       -2.617442237E+02               0
GRID*             158927               0-2.500000000E+004.9987574715E+01+
*       -2.601848156E+02               0
GRID*             158928               0-2.500000000E+004.5363634084E+01+
*       -2.618466186E+02               0
GRID*             158929               0-2.500000000E+004.6873754173E+01+
*       -2.602881229E+02               0
GRID*             158930               0-2.500000000E+004.2297196038E+01+
*       -2.619597617E+02               0
GRID*             158931               0-2.500000000E+004.3792566581E+01+
*       -2.604097142E+02               0
GRID*             158932               0-2.500000000E+003.9248764818E+01+
*       -2.620747511E+02               0
GRID*             158933               0-2.500000000E+004.0737333789E+01+
*       -2.605331005E+02               0
GRID*             158934               0-2.500000000E+003.6211470457E+01+
*       -2.621885469E+02               0
GRID*             158935               0-2.500000000E+003.7698674635E+01+
*       -2.606526511E+02               0
GRID*             158936               0-2.500000000E+003.3180338744E+01+
*       -2.623006506E+02               0
GRID*             158937               0-2.500000000E+003.4669187293E+01+
*       -2.607676875E+02               0
GRID*             158938               0-2.500000000E+003.0152382955E+01+
*       -2.624112581E+02               0
GRID*             158939               0-2.500000000E+003.1644208629E+01+
*       -2.608790829E+02               0
GRID*             158940               0-2.500000000E+002.8621027230E+01+
*       -2.609883809E+02               0
GRID*             158941               0-2.500000000E+003.0112261010E+01+
*       -2.594566273E+02               0
GRID*             158942               0-2.500000000E+002.8584936032E+01+
*       -2.580316150E+02               0
GRID*             158943               0-2.500000000E+002.8550797560E+01+
*       -2.550741501E+02               0
GRID*             158944               0-2.500000000E+003.0072821495E+01+
*       -2.565021403E+02               0
GRID*             158945               0-2.500000000E+002.8521171600E+01+
*       -2.521158814E+02               0
GRID*             158946               0-2.500000000E+003.0036688411E+01+
*       -2.535484186E+02               0
GRID*             158947               0-2.500000000E+002.8499380451E+01+
*       -2.491553024E+02               0
GRID*             158948               0-2.500000000E+003.0007412610E+01+
*       -2.505951038E+02               0
GRID*             158949               0-2.500000000E+002.8489070678E+01+
*       -2.461895234E+02               0
GRID*             158950               0-2.500000000E+002.9989215703E+01+
*       -2.476402721E+02               0
GRID*             158951               0-2.500000000E+002.8493698335E+01+
*       -2.432151762E+02               0
GRID*             158952               0-2.500000000E+002.9986202870E+01+
*       -2.446809802E+02               0
GRID*             158953               0-2.500000000E+003.0001275897E+01+
*       -2.417152124E+02               0
GRID*             158954               0-2.500000000E+003.2975222030E+01+
*       -2.417049029E+02               0
GRID*             158955               0-2.500000000E+003.1475104256E+01+
*       -2.431877545E+02               0
GRID*             158956               0-2.500000000E+003.5927517025E+01+
*       -2.416993379E+02               0
GRID*             158957               0-2.500000000E+003.4436284944E+01+
*       -2.431660510E+02               0
GRID*             158958               0-2.500000000E+003.8853779296E+01+
*       -2.417026824E+02               0
GRID*             158959               0-2.500000000E+003.7372380839E+01+
*       -2.431508794E+02               0
GRID*             158960               0-2.500000000E+004.1748768367E+01+
*       -2.417241304E+02               0
GRID*             158961               0-2.500000000E+004.0276763736E+01+
*       -2.431483224E+02               0
GRID*             158962               0-2.500000000E+004.4607224512E+01+
*       -2.417795957E+02               0
GRID*             158963               0-2.500000000E+004.3141122487E+01+
*       -2.431712598E+02               0
GRID*             158964               0-2.500000000E+004.7426795275E+01+
*       -2.418939737E+02               0
GRID*             158965               0-2.500000000E+004.5956768655E+01+
*       -2.432431076E+02               0
GRID*             158966               0-2.500000000E+005.0219401966E+01+
*       -2.421023658E+02               0
GRID*             158967               0-2.500000000E+004.8723870469E+01+
*       -2.434036092E+02               0
GRID*             158968               0-2.500000000E+005.3039393533E+01+
*       -2.424360138E+02               0
GRID*             158969               0-2.500000000E+005.1482935835E+01+
*       -2.437074078E+02               0
GRID*             158970               0-2.500000000E+005.5971417355E+01+
*       -2.427573690E+02               0
GRID*             158971               0-2.500000000E+005.4335517844E+01+
*       -2.440794389E+02               0
GRID*             158972               0-2.500000000E+005.8962434605E+01+
*       -2.430450397E+02               0
GRID*             158973               0-2.500000000E+005.7304347634E+01+
*       -2.444063096E+02               0
GRID*             158974               0-2.500000000E+006.1970817619E+01+
*       -2.433031408E+02               0
GRID*             158975               0-2.500000000E+006.0319097579E+01+
*       -2.446864802E+02               0
GRID*             158976               0-2.500000000E+006.4974087584E+01+
*       -2.435383123E+02               0
GRID*             158977               0-2.500000000E+006.3339275826E+01+
*       -2.449333306E+02               0
GRID*             158978               0-2.500000000E+006.7960966519E+01+
*       -2.437557496E+02               0
GRID*             158979               0-2.500000000E+006.6346609718E+01+
*       -2.451574977E+02               0
GRID*             158980               0-2.500000000E+007.0925417700E+01+
*       -2.439598946E+02               0
GRID*             158981               0-2.500000000E+006.9332997274E+01+
*       -2.453660694E+02               0
GRID*             158982               0-2.500000000E+007.2295573104E+01+
*       -2.455637898E+02               0
GRID*             158983               0-2.500000000E+007.2119818255E+01+
*       -2.485847521E+02               0
GRID*             158984               0-2.500000000E+007.0727219817E+01+
*       -2.469791833E+02               0
GRID*             158985               0-2.500000000E+007.1968467733E+01+
*       -2.516107120E+02               0
GRID*             158986               0-2.500000000E+007.0553871936E+01+
*       -2.500064252E+02               0
GRID*             158987               0-2.500000000E+007.1842399721E+01+
*       -2.546376840E+02               0
GRID*             158988               0-2.500000000E+007.0406990314E+01+
*       -2.530378492E+02               0
GRID*             158989               0-2.500000000E+007.1741001561E+01+
*       -2.576612745E+02               0
GRID*             158990               0-2.500000000E+007.0287186885E+01+
*       -2.560685887E+02               0
GRID*             158991               0-2.500000000E+007.0193147743E+01+
*       -2.590941961E+02               0
GRID*             158992               0-2.500000000E+006.7153687892E+01+
*       -2.589501546E+02               0
GRID*             158993               0-2.500000000E+006.8714986628E+01+
*       -2.575077924E+02               0
GRID*             158994               0-2.500000000E+006.4088391214E+01+
*       -2.588161070E+02               0
GRID*             158995               0-2.500000000E+006.5662864456E+01+
*       -2.573610827E+02               0
GRID*             158996               0-2.500000000E+006.0993756150E+01+
*       -2.586978452E+02               0
GRID*             158997               0-2.500000000E+006.2580126418E+01+
*       -2.572250949E+02               0
GRID*             158998               0-2.500000000E+005.7866477807E+01+
*       -2.586055855E+02               0
GRID*             158999               0-2.500000000E+005.9461370180E+01+
*       -2.571079557E+02               0
GRID*             159000               0-2.500000000E+005.4706564569E+01+
*       -2.585572314E+02               0
GRID*             159001               0-2.500000000E+005.6301909284E+01+
*       -2.570257210E+02               0
GRID*             159002               0-2.500000000E+005.1527748456E+01+
*       -2.585809986E+02               0
GRID*             159003               0-2.500000000E+005.3106995589E+01+
*       -2.570086495E+02               0
GRID*             159004               0-2.500000000E+004.8375082210E+01+
*       -2.587019096E+02               0
GRID*             159005               0-2.500000000E+004.9915255950E+01+
*       -2.570980926E+02               0
GRID*             159006               0-2.500000000E+004.5274204397E+01+
*       -2.588468498E+02               0
GRID*             159007               0-2.500000000E+004.6775532434E+01+
*       -2.572606365E+02               0
GRID*             159008               0-2.500000000E+004.2213259564E+01+
*       -2.589868389E+02               0
GRID*             159009               0-2.500000000E+004.3694897380E+01+
*       -2.574239744E+02               0
GRID*             159010               0-2.500000000E+003.9176004646E+01+
*       -2.591159344E+02               0
GRID*             159011               0-2.500000000E+004.0651930421E+01+
*       -2.575696728E+02               0
GRID*             159012               0-2.500000000E+003.6150784023E+01+
*       -2.592354233E+02               0
GRID*             159013               0-2.500000000E+003.7628114034E+01+
*       -2.576987066E+02               0
GRID*             159014               0-2.500000000E+003.3130759519E+01+
*       -2.593480502E+02               0
GRID*             159015               0-2.500000000E+003.4612356249E+01+
*       -2.578157860E+02               0
GRID*             159016               0-2.500000000E+003.1598811900E+01+
*       -2.579255946E+02               0
GRID*             159017               0-2.500000000E+003.3080298833E+01+
*       -2.563979868E+02               0
GRID*             159018               0-2.500000000E+003.1554308428E+01+
*       -2.549745325E+02               0
GRID*             159019               0-2.500000000E+003.1514507242E+01+
*       -2.520269828E+02               0
GRID*             159020               0-2.500000000E+003.3032127259E+01+
*       -2.534530966E+02               0
GRID*             159021               0-2.500000000E+003.1484551360E+01+
*       -2.490821145E+02               0
GRID*             159022               0-2.500000000E+003.2991645992E+01+
*       -2.505139935E+02               0
GRID*             159023               0-2.500000000E+003.1470104165E+01+
*       -2.461368881E+02               0
GRID*             159024               0-2.500000000E+003.2965439821E+01+
*       -2.475787305E+02               0
GRID*             159025               0-2.500000000E+003.2959005551E+01+
*       -2.446436625E+02               0
GRID*             159026               0-2.500000000E+003.5910017081E+01+
*       -2.446100600E+02               0
GRID*             159027               0-2.500000000E+003.4432737688E+01+
*       -2.460876715E+02               0
GRID*             159028               0-2.500000000E+003.8832829024E+01+
*       -2.445819090E+02               0
GRID*             159029               0-2.500000000E+003.7370465265E+01+
*       -2.460410897E+02               0
GRID*             159030               0-2.500000000E+004.1717796557E+01+
*       -2.445659584E+02               0
GRID*             159031               0-2.500000000E+004.0273861846E+01+
*       -2.459995450E+02               0
GRID*             159032               0-2.500000000E+004.4549574139E+01+
*       -2.445769252E+02               0
GRID*             159033               0-2.500000000E+004.3126248209E+01+
*       -2.459716238E+02               0
GRID*             159034               0-2.500000000E+004.7304790395E+01+
*       -2.446460332E+02               0
GRID*             159035               0-2.500000000E+004.5897595878E+01+
*       -2.459798508E+02               0
GRID*             159036               0-2.500000000E+004.9965392829E+01+
*       -2.448441763E+02               0
GRID*             159037               0-2.500000000E+004.8546312755E+01+
*       -2.460866002E+02               0
GRID*             159038               0-2.500000000E+005.2622233827E+01+
*       -2.453916879E+02               0
GRID*             159039               0-2.500000000E+005.1104690822E+01+
*       -2.465284564E+02               0
GRID*             159040               0-2.500000000E+005.5598009138E+01+
*       -2.457855832E+02               0
GRID*             159041               0-2.500000000E+005.3884725121E+01+
*       -2.470978323E+02               0
GRID*             159042               0-2.500000000E+005.8645879279E+01+
*       -2.460896785E+02               0
GRID*             159043               0-2.500000000E+005.6939540782E+01+
*       -2.474689522E+02               0
GRID*             159044               0-2.500000000E+006.1696859788E+01+
*       -2.463448082E+02               0
GRID*             159045               0-2.500000000E+006.0023641488E+01+
*       -2.477480065E+02               0
GRID*             159046               0-2.500000000E+006.4730924560E+01+
*       -2.465718063E+02               0
GRID*             159047               0-2.500000000E+006.3088508522E+01+
*       -2.479832839E+02               0
GRID*             159048               0-2.500000000E+006.7741673639E+01+
*       -2.467812452E+02               0
GRID*             159049               0-2.500000000E+006.6125988481E+01+
*       -2.481955537E+02               0
GRID*             159050               0-2.500000000E+006.9135896182E+01+
*       -2.483943590E+02               0
GRID*             159051               0-2.500000000E+006.8965586744E+01+
*       -2.514310647E+02               0
GRID*             159052               0-2.500000000E+006.7547610989E+01+
*       -2.498189986E+02               0
GRID*             159053               0-2.500000000E+006.8825289526E+01+
*       -2.544708954E+02               0
GRID*             159054               0-2.500000000E+006.7383885956E+01+
*       -2.528641109E+02               0
GRID*             159055               0-2.500000000E+006.7253089269E+01+
*       -2.559100991E+02               0
GRID*             159056               0-2.500000000E+006.4189253500E+01+
*       -2.557567755E+02               0
GRID*             159057               0-2.500000000E+006.5779478313E+01+
*       -2.543057919E+02               0
GRID*             159058               0-2.500000000E+006.1089123483E+01+
*       -2.556124359E+02               0
GRID*             159059               0-2.500000000E+006.2698250565E+01+
*       -2.541441166E+02               0
GRID*             159060               0-2.500000000E+005.7942447335E+01+
*       -2.554857192E+02               0
GRID*             159061               0-2.500000000E+005.9570200639E+01+
*       -2.539901994E+02               0
GRID*             159062               0-2.500000000E+005.4734957531E+01+
*       -2.553973967E+02               0
GRID*             159063               0-2.500000000E+005.6375495582E+01+
*       -2.538573949E+02               0
GRID*             159064               0-2.500000000E+005.1464555469E+01+
*       -2.554024997E+02               0
GRID*             159065               0-2.500000000E+005.3092517411E+01+
*       -2.537912469E+02               0
GRID*             159066               0-2.500000000E+004.8251926240E+01+
*       -2.556429933E+02               0
GRID*             159067               0-2.500000000E+004.9801225758E+01+
*       -2.539474004E+02               0
GRID*             159068               0-2.500000000E+004.5151038391E+01+
*       -2.558565711E+02               0
GRID*             159069               0-2.500000000E+004.6627432196E+01+
*       -2.542389279E+02               0
GRID*             159070               0-2.500000000E+004.2109293999E+01+
*       -2.560271292E+02               0
GRID*             159071               0-2.500000000E+004.3565435010E+01+
*       -2.544597259E+02               0
GRID*             159072               0-2.500000000E+003.9093213520E+01+
*       -2.561672584E+02               0
GRID*             159073               0-2.500000000E+004.0550577099E+01+
*       -2.546247148E+02               0
GRID*             159074               0-2.500000000E+003.6086095021E+01+
*       -2.562882256E+02               0
GRID*             159075               0-2.500000000E+003.7551194507E+01+
*       -2.547567773E+02               0
GRID*             159076               0-2.500000000E+003.4554037604E+01+
*       -2.548704264E+02               0
GRID*             159077               0-2.500000000E+003.6020865895E+01+
*       -2.533519956E+02               0
GRID*             159078               0-2.500000000E+003.4498955550E+01+
*       -2.519346658E+02               0
GRID*             159079               0-2.500000000E+003.4455378377E+01+
*       -2.490085517E+02               0
GRID*             159080               0-2.500000000E+003.5962687934E+01+
*       -2.504292240E+02               0
GRID*             159081               0-2.500000000E+003.5922676243E+01+
*       -2.475174926E+02               0
GRID*             159082               0-2.500000000E+003.8854123233E+01+
*       -2.474548623E+02               0
GRID*             159083               0-2.500000000E+003.7406334211E+01+
*       -2.489312653E+02               0
GRID*             159084               0-2.500000000E+004.1748419192E+01+
*       -2.473908742E+02               0
GRID*             159085               0-2.500000000E+004.0328680580E+01+
*       -2.488461915E+02               0
GRID*             159086               0-2.500000000E+004.4580610487E+01+
*       -2.473283435E+02               0
GRID*             159087               0-2.500000000E+004.3202781470E+01+
*       -2.487475939E+02               0
GRID*             159088               0-2.500000000E+004.7287015014E+01+
*       -2.472796208E+02               0
GRID*             159089               0-2.500000000E+004.5970029623E+01+
*       -2.486281134E+02               0
GRID*             159090               0-2.500000000E+004.9704629388E+01+
*       -2.472930232E+02               0
GRID*             159091               0-2.500000000E+004.8445331647E+01+
*       -2.484860438E+02               0
GRID*             159092               0-2.500000000E+005.1827688788E+01+
*       -2.485340381E+02               0
GRID*             159093               0-2.500000000E+005.0427627355E+01+
*       -2.492986049E+02               0
GRID*             159094               0-2.500000000E+005.5153969422E+01+
*       -2.489145823E+02               0
GRID*             159095               0-2.500000000E+005.3096933089E+01+
*       -2.503507882E+02               0
GRID*             159096               0-2.500000000E+005.8332035373E+01+
*       -2.491881375E+02               0
GRID*             159097               0-2.500000000E+005.6546464013E+01+
*       -2.506337676E+02               0
GRID*             159098               0-2.500000000E+006.1443927559E+01+
*       -2.494171055E+02               0
GRID*             159099               0-2.500000000E+005.9752321444E+01+
*       -2.508572365E+02               0
GRID*             159100               0-2.500000000E+006.4512870686E+01+
*       -2.496241906E+02               0
GRID*             159101               0-2.500000000E+006.2868289723E+01+
*       -2.510580123E+02               0
GRID*             159102               0-2.500000000E+006.5934493195E+01+
*       -2.512476356E+02               0
GRID*             159103               0-2.500000000E+006.4330085552E+01+
*       -2.526893166E+02               0
GRID*             159104               0-2.500000000E+006.1236454737E+01+
*       -2.525128123E+02               0
GRID*             159105               0-2.500000000E+005.8086067345E+01+
*       -2.523346236E+02               0
GRID*             159106               0-2.500000000E+005.4835892250E+01+
*       -2.521565389E+02               0
GRID*             159107               0-2.500000000E+005.1353558250E+01+
*       -2.519854962E+02               0
GRID*             159108               0-2.500000000E+004.8034574830E+01+
*       -2.526134029E+02               0
GRID*             159109               0-2.500000000E+004.9586907322E+01+
*       -2.506514987E+02               0
GRID*             159110               0-2.500000000E+004.4977958265E+01+
*       -2.529129323E+02               0
GRID*             159111               0-2.500000000E+004.6385100898E+01+
*       -2.512874073E+02               0
GRID*             159112               0-2.500000000E+004.1984264568E+01+
*       -2.531007035E+02               0
GRID*             159113               0-2.500000000E+004.3396787822E+01+
*       -2.515539099E+02               0
GRID*             159114               0-2.500000000E+003.9003706017E+01+
*       -2.532389263E+02               0
GRID*             159115               0-2.500000000E+004.0437393486E+01+
*       -2.517149150E+02               0
GRID*             159116               0-2.500000000E+003.7473377404E+01+
*       -2.518341446E+02               0
GRID*             159117               0-2.500000000E+003.8917023681E+01+
*       -2.503361859E+02               0
GRID*             159118               0-2.500000000E+004.1849050385E+01+
*       -2.502249206E+02               0
GRID*             159119               0-2.500000000E+004.4750518907E+01+
*       -2.500765832E+02               0
GRID*             159120               0-2.500000000E+004.7604611614E+01+
*       -2.498389375E+02               0
GRID*             159121               0-2.500000000E+008.6983910801E+01+
*       -3.226844094E+02               0
GRID*             159122               0-2.500000000E+008.7618217382E+01+
*       -3.229730479E+02               0
GRID*             159123               0-2.500000000E+008.8220317124E+01+
*       -3.217863570E+02               0
GRID*             159124               0-2.500000000E+008.8116166332E+01+
*       -3.163049322E+02               0
GRID*             159125               0-2.500000000E+008.7024763295E+01+
*       -3.169674358E+02               0
GRID*             159126               0-2.500000000E+008.8461627697E+01+
*       -3.184449661E+02               0
GRID*             159127               0-2.500000000E+008.7688537284E+01+
*       -3.177278165E+02               0
GRID*             159128               0-2.500000000E+008.7063775515E+01+
*       -3.185103807E+02               0
GRID*             159129               0-2.500000000E+008.7664636591E+01+
*       -3.193893342E+02               0
GRID*             159130               0-2.500000000E+008.7000862602E+01+
*       -3.201289535E+02               0
GRID*             159131               0-2.500000000E+008.8237268925E+01+
*       -3.207309011E+02               0
GRID*             159132               0-2.500000000E+005.3221529682E+01+
*       -2.196216193E+02               0
GRID*             159133               0-2.500000000E+005.1622710950E+01+
*       -2.180656460E+02               0
GRID*             159134               0-2.500000000E+005.3182982826E+01+
*       -2.164495549E+02               0
GRID*             159135               0-2.500000000E+005.4781801558E+01+
*       -2.180055281E+02               0
GRID*             159136               0-2.500000000E+005.6360556519E+01+
*       -2.163138227E+02               0
GRID*             159137               0-2.500000000E+005.8082261486E+01+
*       -2.179155421E+02               0
GRID*             159138               0-2.500000000E+005.6503506525E+01+
*       -2.196072475E+02               0
GRID*             159139               0-2.500000000E+005.9616046237E+01+
*       -2.160676564E+02               0
GRID*             159140               0-2.500000000E+006.1702093512E+01+
*       -2.177461365E+02               0
GRID*             159141               0-2.500000000E+006.0168308761E+01+
*       -2.195940222E+02               0
GRID*             159142               0-2.500000000E+006.2750930004E+01+
*       -2.155342942E+02               0
GRID*             159143               0-2.500000000E+006.4604493514E+01+
*       -2.164791689E+02               0
GRID*             159144               0-2.500000000E+006.3555657022E+01+
*       -2.186910111E+02               0
GRID*             159145               0-2.500000000E+006.5615280006E+01+
*       -2.149246800E+02               0
GRID*             159146               0-2.500000000E+006.7209909795E+01+
*       -2.159758812E+02               0
GRID*             159147               0-2.500000000E+006.6199123303E+01+
*       -2.175303700E+02               0
GRID*             159148               0-2.500000000E+006.8340660676E+01+
*       -2.145416385E+02               0
GRID*             159149               0-2.500000000E+006.9835190096E+01+
*       -2.157124670E+02               0
GRID*             159150               0-2.500000000E+006.8704439214E+01+
*       -2.171467097E+02               0
GRID*             159151               0-2.500000000E+007.1049633541E+01+
*       -2.143090443E+02               0
GRID*             159152               0-2.500000000E+007.2518233508E+01+
*       -2.155531197E+02               0
GRID*             159153               0-2.500000000E+007.1303790062E+01+
*       -2.169565425E+02               0
GRID*             159154               0-2.500000000E+007.3766153665E+01+
*       -2.141643350E+02               0
GRID*             159155               0-2.500000000E+007.5230167867E+01+
*       -2.154389428E+02               0
GRID*             159156               0-2.500000000E+007.3982247709E+01+
*       -2.168277276E+02               0
GRID*             159157               0-2.500000000E+007.6465346328E+01+
*       -2.140793898E+02               0
GRID*             159158               0-2.500000000E+007.7910586716E+01+
*       -2.153468493E+02               0
GRID*             159159               0-2.500000000E+007.6675408254E+01+
*       -2.167064023E+02               0
GRID*             159160               0-2.500000000E+007.9089565424E+01+
*       -2.140668657E+02               0
GRID*             159161               0-2.500000000E+008.0449340209E+01+
*       -2.152957302E+02               0
GRID*             159162               0-2.500000000E+007.9270361500E+01+
*       -2.165757138E+02               0
GRID*             159163               0-2.500000000E+008.1546992023E+01+
*       -2.142142273E+02               0
GRID*             159164               0-2.500000000E+008.1672586526E+01+
*       -2.165512875E+02               0
GRID*             159165               0-2.500000000E+008.1913380228E+01+
*       -2.185753673E+02               0
GRID*             159166               0-2.500000000E+008.0682391499E+01+
*       -2.175909848E+02               0
GRID*             159167               0-2.500000000E+008.2281553672E+01+
*       -2.203481864E+02               0
GRID*             159168               0-2.500000000E+008.1100811457E+01+
*       -2.196049812E+02               0
GRID*             159169               0-2.500000000E+008.2777987931E+01+
*       -2.217352989E+02               0
GRID*             159170               0-2.500000000E+008.1748280490E+01+
*       -2.211628109E+02               0
GRID*             159171               0-2.500000000E+008.2317150662E+01+
*       -2.232401119E+02               0
GRID*             159172               0-2.500000000E+008.1758100986E+01+
*       -2.224890316E+02               0
GRID*             159173               0-2.500000000E+008.1152330410E+01+
*       -2.242974676E+02               0
GRID*             159174               0-2.500000000E+007.8713320897E+01+
*       -2.235660435E+02               0
GRID*             159175               0-2.500000000E+008.0219603280E+01+
*       -2.226109084E+02               0
GRID*             159176               0-2.500000000E+007.5582014863E+01+
*       -2.235893632E+02               0
GRID*             159177               0-2.500000000E+007.7375434895E+01+
*       -2.221010345E+02               0
GRID*             159178               0-2.500000000E+007.2688352772E+01+
*       -2.235455294E+02               0
GRID*             159179               0-2.500000000E+007.4234781756E+01+
*       -2.221724531E+02               0
GRID*             159180               0-2.500000000E+006.9918821718E+01+
*       -2.234236545E+02               0
GRID*             159181               0-2.500000000E+007.1409844517E+01+
*       -2.221349024E+02               0
GRID*             159182               0-2.500000000E+006.7248475830E+01+
*       -2.231785812E+02               0
GRID*             159183               0-2.500000000E+006.8751428607E+01+
*       -2.219879982E+02               0
GRID*             159184               0-2.500000000E+006.4617108153E+01+
*       -2.226848741E+02               0
GRID*             159185               0-2.500000000E+006.6219346118E+01+
*       -2.216249866E+02               0
GRID*             159186               0-2.500000000E+006.1694937377E+01+
*       -2.214283999E+02               0
GRID*             159187               0-2.500000000E+006.3561436166E+01+
*       -2.204776284E+02               0
GRID*             159188               0-2.500000000E+005.8063286178E+01+
*       -2.212832553E+02               0
GRID*             159189               0-2.500000000E+005.4754874987E+01+
*       -2.212198879E+02               0
GRID*             159190               0-2.500000000E+005.1588361491E+01+
*       -2.211905878E+02               0
GRID*             159191               0-2.500000000E+007.8187246279E+01+
*       -2.179203226E+02               0
GRID*             159192               0-2.500000000E+007.9599276278E+01+
*       -2.189355936E+02               0
GRID*             159193               0-2.500000000E+008.0209782785E+01+
*       -2.212846876E+02               0
GRID*             159194               0-2.500000000E+007.8708247606E+01+
*       -2.206153001E+02               0
GRID*             159195               0-2.500000000E+006.5478373908E+01+
*       -2.186854834E+02               0
GRID*             159196               0-2.500000000E+006.5484153052E+01+
*       -2.204721007E+02               0
GRID*             159197               0-2.500000000E+006.7609248221E+01+
*       -2.184174945E+02               0
GRID*             159198               0-2.500000000E+006.6888498826E+01+
*       -2.195726079E+02               0
GRID*             159199               0-2.500000000E+006.7623691891E+01+
*       -2.207254938E+02               0
GRID*             159200               0-2.500000000E+007.0095995830E+01+
*       -2.208224851E+02               0
GRID*             159201               0-2.500000000E+006.8968259114E+01+
*       -2.195599808E+02               0
GRID*             159202               0-2.500000000E+007.0063450108E+01+
*       -2.182891960E+02               0
GRID*             159203               0-2.500000000E+007.2702272318E+01+
*       -2.181973524E+02               0
GRID*             159204               0-2.500000000E+007.1461932363E+01+
*       -2.195300059E+02               0
GRID*             159205               0-2.500000000E+007.5436755167E+01+
*       -2.180912506E+02               0
GRID*             159206               0-2.500000000E+007.4156779775E+01+
*       -2.194608754E+02               0
GRID*             159207               0-2.500000000E+007.6948593192E+01+
*       -2.193051709E+02               0
GRID*             159208               0-2.500000000E+007.5615780481E+01+
*       -2.207909053E+02               0
GRID*             159209               0-2.500000000E+007.2775781050E+01+
*       -2.208424232E+02               0
GRID*             159210               0-2.500000000E+002.9213762602E+01+
*       -2.197420437E+02               0
GRID*             159211               0-2.500000000E+003.0625313511E+01+
*       -2.211801438E+02               0
GRID*             159212               0-2.500000000E+002.7656499676E+01+
*       -2.211703594E+02               0
GRID*             159213               0-2.500000000E+002.6195930275E+01+
*       -2.197465812E+02               0
GRID*             159214               0-2.500000000E+002.4630211617E+01+
*       -2.211701510E+02               0
GRID*             159215               0-2.500000000E+002.2913255697E+01+
*       -2.197784152E+02               0
GRID*             159216               0-2.500000000E+002.1410849510E+01+
*       -2.212343096E+02               0
GRID*             159217               0-2.500000000E+001.8929441594E+01+
*       -2.221048175E+02               0
GRID*             159218               0-2.500000000E+001.7780701289E+01+
*       -2.213131555E+02               0
GRID*             159219               0-2.500000000E+001.7324644627E+01+
*       -2.199181058E+02               0
GRID*             159220               0-2.500000000E+001.8349443584E+01+
*       -2.205431929E+02               0
GRID*             159221               0-2.500000000E+002.9419917227E+01+
*       -2.168723096E+02               0
GRID*             159222               0-2.500000000E+003.0784286342E+01+
*       -2.183023183E+02               0
GRID*             159223               0-2.500000000E+002.7849393487E+01+
*       -2.183120350E+02               0
GRID*             159224               0-2.500000000E+002.6511985737E+01+
*       -2.168786306E+02               0
GRID*             159225               0-2.500000000E+002.4858522524E+01+
*       -2.183131768E+02               0
GRID*             159226               0-2.500000000E+002.3599313754E+01+
*       -2.168446863E+02               0
GRID*             159227               0-2.500000000E+002.1654046927E+01+
*       -2.183099247E+02               0
GRID*             159228               0-2.500000000E+001.8416154146E+01+
*       -2.192395389E+02               0
GRID*             159229               0-2.500000000E+001.7880286022E+01+
*       -2.184677690E+02               0
GRID*             159230               0-2.500000000E+001.8427874022E+01+
*       -2.164602235E+02               0
GRID*             159231               0-2.500000000E+001.9213012011E+01+
*       -2.175245505E+02               0
GRID*             159232               0-2.500000000E+003.2324439024E+01+
*       -2.168484862E+02               0
GRID*             159233               0-2.500000000E+003.3711112204E+01+
*       -2.182836782E+02               0
GRID*             159234               0-2.500000000E+003.2170959522E+01+
*       -2.197375102E+02               0
GRID*             159235               0-2.500000000E+003.5233255218E+01+
*       -2.168147697E+02               0
GRID*             159236               0-2.500000000E+003.6639239478E+01+
*       -2.182586994E+02               0
GRID*             159237               0-2.500000000E+003.5117096464E+01+
*       -2.197276078E+02               0
GRID*             159238               0-2.500000000E+003.8152510067E+01+
*       -2.167739433E+02               0
GRID*             159239               0-2.500000000E+003.9578235730E+01+
*       -2.182284346E+02               0
GRID*             159240               0-2.500000000E+003.8064965141E+01+
*       -2.197131907E+02               0
GRID*             159241               0-2.500000000E+004.1089165029E+01+
*       -2.167268349E+02               0
GRID*             159242               0-2.500000000E+004.2536214364E+01+
*       -2.181938376E+02               0
GRID*             159243               0-2.500000000E+004.1025285065E+01+
*       -2.196954373E+02               0
GRID*             159244               0-2.500000000E+004.4050641099E+01+
*       -2.166734413E+02               0
GRID*             159245               0-2.500000000E+004.5521705352E+01+
*       -2.181555863E+02               0
GRID*             159246               0-2.500000000E+004.4007278617E+01+
*       -2.196759827E+02               0
GRID*             159247               0-2.500000000E+004.7045429183E+01+
*       -2.166127005E+02               0
GRID*             159248               0-2.500000000E+004.8545324981E+01+
*       -2.181135387E+02               0
GRID*             159249               0-2.500000000E+004.7021601150E+01+
*       -2.196564245E+02               0
GRID*             159250               0-2.500000000E+005.0084436296E+01+
*       -2.165411431E+02               0
GRID*             159251               0-2.500000000E+005.0083599635E+01+
*       -2.196380416E+02               0
GRID*             159252               0-2.500000000E+004.8502599347E+01+
*       -2.211781688E+02               0
GRID*             159253               0-2.500000000E+004.5468603578E+01+
*       -2.211752457E+02               0
GRID*             159254               0-2.500000000E+004.2469864943E+01+
*       -2.211775819E+02               0
GRID*             159255               0-2.500000000E+003.9495069668E+01+
*       -2.211819099E+02               0
GRID*             159256               0-2.500000000E+003.6535192631E+01+
*       -2.211853115E+02               0
GRID*             159257               0-2.500000000E+003.3581827098E+01+
*       -2.211852393E+02               0
GRID*             159258               0-2.500000000E+007.1092141420E+01+
*       -1.283529040E+02               0
GRID*             159259               0-2.500000000E+006.9821921243E+01+
*       -1.269103327E+02               0
GRID*             159260               0-2.500000000E+007.1346785734E+01+
*       -1.255346669E+02               0
GRID*             159261               0-2.500000000E+007.2617005911E+01+
*       -1.269772381E+02               0
GRID*             159262               0-2.500000000E+006.8273350110E+01+
*       -1.282237618E+02               0
GRID*             159263               0-2.500000000E+006.7043871884E+01+
*       -1.267350837E+02               0
GRID*             159264               0-2.500000000E+006.8592443016E+01+
*       -1.254216547E+02               0
GRID*             159265               0-2.500000000E+006.5425428958E+01+
*       -1.280017593E+02               0
GRID*             159266               0-2.500000000E+006.4223481831E+01+
*       -1.264090126E+02               0
GRID*             159267               0-2.500000000E+006.5841924757E+01+
*       -1.251423371E+02               0
GRID*             159268               0-2.500000000E+006.2493914671E+01+
*       -1.277013895E+02               0
GRID*             159269               0-2.500000000E+006.1229429910E+01+
*       -1.259316055E+02               0
GRID*             159270               0-2.500000000E+006.2958997070E+01+
*       -1.246392286E+02               0
GRID*             159271               0-2.500000000E+005.9447603428E+01+
*       -1.274310298E+02               0
GRID*             159272               0-2.500000000E+005.8032710382E+01+
*       -1.257213630E+02               0
GRID*             159273               0-2.500000000E+005.9814536864E+01+
*       -1.242219387E+02               0
GRID*             159274               0-2.500000000E+005.6339600092E+01+
*       -1.272601878E+02               0
GRID*             159275               0-2.500000000E+005.4866669066E+01+
*       -1.256181494E+02               0
GRID*             159276               0-2.500000000E+005.6559779356E+01+
*       -1.240793246E+02               0
GRID*             159277               0-2.500000000E+007.9481378838E+01+
*       -1.284133822E+02               0
GRID*             159278               0-2.500000000E+007.8274139760E+01+
*       -1.269408168E+02               0
GRID*             159279               0-2.500000000E+007.9695659585E+01+
*       -1.255490586E+02               0
GRID*             159280               0-2.500000000E+008.0902898663E+01+
*       -1.270216239E+02               0
GRID*             159281               0-2.500000000E+007.6718626965E+01+
*       -1.284195285E+02               0
GRID*             159282               0-2.500000000E+007.5443127958E+01+
*       -1.269729931E+02               0
GRID*             159283               0-2.500000000E+007.6998640753E+01+
*       -1.254942814E+02               0
GRID*             159284               0-2.500000000E+007.3908868392E+01+
*       -1.284088764E+02               0
GRID*             159285               0-2.500000000E+007.4151265477E+01+
*       -1.255413548E+02               0
GRID*             159286               0-2.500000000E+008.8080241021E+01+
*       -1.276979371E+02               0
GRID*             159287               0-2.500000000E+008.7724839886E+01+
*       -1.260559524E+02               0
GRID*             159288               0-2.500000000E+008.7310679440E+01+
*       -1.286196410E+02               0
GRID*             159289               0-2.500000000E+008.6147708491E+01+
*       -1.278316056E+02               0
GRID*             159290               0-2.500000000E+008.6917270072E+01+
*       -1.269099017E+02               0
GRID*             159291               0-2.500000000E+008.6271905662E+01+
*       -1.259549825E+02               0
GRID*             159292               0-2.500000000E+008.2226366738E+01+
*       -1.283059412E+02               0
GRID*             159293               0-2.500000000E+008.2038339167E+01+
*       -1.255625202E+02               0
GRID*             159294               0-2.500000000E+008.3361807242E+01+
*       -1.268468374E+02               0
GRID*             159295               0-2.500000000E+008.5489370538E+01+
*       -1.268409084E+02               0
GRID*             159296               0-2.500000000E+008.4774739688E+01+
*       -1.259407676E+02               0
GRID*             159297               0-2.500000000E+008.4845900754E+01+
*       -1.284961373E+02               0
GRID*             159298               0-2.500000000E+008.4187562801E+01+
*       -1.275054401E+02               0
GRID*             159299               0-2.500000000E+005.3239175976E+01+
*       -1.271509324E+02               0
GRID*             159300               0-2.500000000E+005.1754892223E+01+
*       -1.255550549E+02               0
GRID*             159301               0-2.500000000E+005.3382385314E+01+
*       -1.240222718E+02               0
GRID*             159302               0-2.500000000E+005.0166306353E+01+
*       -1.270703248E+02               0
GRID*             159303               0-2.500000000E+004.8687621666E+01+
*       -1.255031025E+02               0
GRID*             159304               0-2.500000000E+005.0276207537E+01+
*       -1.239878326E+02               0
GRID*             159305               0-2.500000000E+004.7120731983E+01+
*       -1.269982999E+02               0
GRID*             159306               0-2.500000000E+004.5652573826E+01+
*       -1.254481358E+02               0
GRID*             159307               0-2.500000000E+004.7219463510E+01+
*       -1.239529384E+02               0
GRID*             159308               0-2.500000000E+004.4096664217E+01+
*       -1.269230030E+02               0
GRID*             159309               0-2.500000000E+004.2639679718E+01+
*       -1.253824585E+02               0
GRID*             159310               0-2.500000000E+004.4195589328E+01+
*       -1.239075913E+02               0
GRID*             159311               0-2.500000000E+004.1087576495E+01+
*       -1.268368167E+02               0
GRID*             159312               0-2.500000000E+003.9640833042E+01+
*       -1.253008775E+02               0
GRID*             159313               0-2.500000000E+004.1192936266E+01+
*       -1.238465193E+02               0
GRID*             159314               0-2.500000000E+003.8087449653E+01+
*       -1.267339946E+02               0
GRID*             159315               0-2.500000000E+003.6649254943E+01+
*       -1.251991751E+02               0
GRID*             159316               0-2.500000000E+003.8202638332E+01+
*       -1.237660581E+02               0
GRID*             159317               0-2.500000000E+003.5091342410E+01+
*       -1.266093563E+02               0
GRID*             159318               0-2.500000000E+003.3659340391E+01+
*       -1.250733966E+02               0
GRID*             159319               0-2.500000000E+003.5217252924E+01+
*       -1.236632154E+02               0
GRID*             159320               0-2.500000000E+003.2096626922E+01+
*       -1.264575181E+02               0
GRID*             159321               0-2.500000000E+003.0667480837E+01+
*       -1.249197697E+02               0
GRID*             159322               0-2.500000000E+003.2230194306E+01+
*       -1.235356482E+02               0
GRID*             159323               0-2.500000000E+002.9106505624E+01+
*       -1.262726833E+02               0
GRID*             159324               0-2.500000000E+002.7675407665E+01+
*       -1.247361198E+02               0
GRID*             159325               0-2.500000000E+002.9236382878E+01+
*       -1.233832061E+02               0
GRID*             159326               0-2.500000000E+002.6139280435E+01+
*       -1.260500846E+02               0
GRID*             159327               0-2.500000000E+002.4696005843E+01+
*       -1.245284613E+02               0
GRID*             159328               0-2.500000000E+002.6232133074E+01+
*       -1.232144965E+02               0
GRID*             159329               0-2.500000000E+002.3254322702E+01+
*       -1.257929082E+02               0
GRID*             159330               0-2.500000000E+002.1794984623E+01+
*       -1.243358201E+02               0
GRID*             159331               0-2.500000000E+002.3236667764E+01+
*       -1.230713732E+02               0
GRID*             159332               0-2.500000000E+002.0600162344E+01+
*       -1.255319609E+02               0
GRID*             159333               0-2.500000000E+001.9274272498E+01+
*       -1.243205868E+02               0
GRID*             159334               0-2.500000000E+002.0469094777E+01+
*       -1.231244459E+02               0
GRID*             159335               0-2.500000000E+001.8334869295E+01+
*       -1.252793938E+02               0
GRID*             159336               0-2.500000000E+001.8134485615E+01+
*       -1.232347272E+02               0
GRID*             159337               0-2.500000000E+008.5994290326E+01+
*       -1.302400356E+02               0
GRID*             159338               0-2.500000000E+008.7183589121E+01+
*       -1.317459373E+02               0
GRID*             159339               0-2.500000000E+008.7078330595E+01+
*       -1.348301475E+02               0
GRID*             159340               0-2.500000000E+008.5835598641E+01+
*       -1.332191751E+02               0
GRID*             159341               0-2.500000000E+008.6991794140E+01+
*       -1.378969552E+02               0
GRID*             159342               0-2.500000000E+008.5708183785E+01+
*       -1.362824133E+02               0
GRID*             159343               0-2.500000000E+008.6918770815E+01+
*       -1.409553503E+02               0
GRID*             159344               0-2.500000000E+008.5603100133E+01+
*       -1.393484567E+02               0
GRID*             159345               0-2.500000000E+008.6856018733E+01+
*       -1.440095522E+02               0
GRID*             159346               0-2.500000000E+008.5513829345E+01+
*       -1.424101417E+02               0
GRID*             159347               0-2.500000000E+008.6801539157E+01+
*       -1.470615078E+02               0
GRID*             159348               0-2.500000000E+008.5436706200E+01+
*       -1.454686715E+02               0
GRID*             159349               0-2.500000000E+008.6753974767E+01+
*       -1.501122458E+02               0
GRID*             159350               0-2.500000000E+008.5369479209E+01+
*       -1.485253782E+02               0
GRID*             159351               0-2.500000000E+008.6712325209E+01+
*       -1.531624622E+02               0
GRID*             159352               0-2.500000000E+008.5310592040E+01+
*       -1.515812157E+02               0
GRID*             159353               0-2.500000000E+008.6675844623E+01+
*       -1.562127507E+02               0
GRID*             159354               0-2.500000000E+008.5258901108E+01+
*       -1.546369638E+02               0
GRID*             159355               0-2.500000000E+008.6644029833E+01+
*       -1.592636749E+02               0
GRID*             159356               0-2.500000000E+008.5213595678E+01+
*       -1.576933546E+02               0
GRID*             159357               0-2.500000000E+008.6616648703E+01+
*       -1.623157607E+02               0
GRID*             159358               0-2.500000000E+008.5174209459E+01+
*       -1.607510956E+02               0
GRID*             159359               0-2.500000000E+008.6593775900E+01+
*       -1.653694423E+02               0
GRID*             159360               0-2.500000000E+008.5140665988E+01+
*       -1.638108203E+02               0
GRID*             159361               0-2.500000000E+008.6575807395E+01+
*       -1.684249775E+02               0
GRID*             159362               0-2.500000000E+008.5113316290E+01+
*       -1.668729903E+02               0
GRID*             159363               0-2.500000000E+008.6563423833E+01+
*       -1.714823552E+02               0
GRID*             159364               0-2.500000000E+008.5092927800E+01+
*       -1.699377680E+02               0
GRID*             159365               0-2.500000000E+008.6557476492E+01+
*       -1.745412288E+02               0
GRID*             159366               0-2.500000000E+008.5080582708E+01+
*       -1.730048989E+02               0
GRID*             159367               0-2.500000000E+008.6558791736E+01+
*       -1.776009255E+02               0
GRID*             159368               0-2.500000000E+008.5077459264E+01+
*       -1.760736627E+02               0
GRID*             159369               0-2.500000000E+008.6567949009E+01+
*       -1.806605670E+02               0
GRID*             159370               0-2.500000000E+008.5084528527E+01+
*       -1.791429560E+02               0
GRID*             159371               0-2.500000000E+008.6585158466E+01+
*       -1.837192882E+02               0
GRID*             159372               0-2.500000000E+008.5102300697E+01+
*       -1.822115306E+02               0
GRID*             159373               0-2.500000000E+008.6610340053E+01+
*       -1.867764602E+02               0
GRID*             159374               0-2.500000000E+008.5130795159E+01+
*       -1.852783077E+02               0
GRID*             159375               0-2.500000000E+008.6643283077E+01+
*       -1.898318107E+02               0
GRID*             159376               0-2.500000000E+008.5169721678E+01+
*       -1.883426174E+02               0
GRID*             159377               0-2.500000000E+008.6683696524E+01+
*       -1.928854435E+02               0
GRID*             159378               0-2.500000000E+008.5218656208E+01+
*       -1.914042800E+02               0
GRID*             159379               0-2.500000000E+008.6731266487E+01+
*       -1.959377898E+02               0
GRID*             159380               0-2.500000000E+008.5277161811E+01+
*       -1.944635407E+02               0
GRID*             159381               0-2.500000000E+008.6786123749E+01+
*       -1.989895458E+02               0
GRID*             159382               0-2.500000000E+008.5345153668E+01+
*       -1.975209002E+02               0
GRID*             159383               0-2.500000000E+008.6849764603E+01+
*       -2.020419782E+02               0
GRID*             159384               0-2.500000000E+008.5423756757E+01+
*       -2.005769374E+02               0
GRID*             159385               0-2.500000000E+008.6926093608E+01+
*       -2.050981898E+02               0
GRID*             159386               0-2.500000000E+008.5516612739E+01+
*       -2.036315117E+02               0
GRID*             159387               0-2.500000000E+008.7022638580E+01+
*       -2.081653224E+02               0
GRID*             159388               0-2.500000000E+008.5631955596E+01+
*       -2.066750777E+02               0
GRID*             159389               0-2.500000000E+008.7147561621E+01+
*       -2.112693531E+02               0
GRID*             159390               0-2.500000000E+008.5783027401E+01+
*       -2.096280665E+02               0
GRID*             159391               0-2.500000000E+008.4575961247E+01+
*       -2.113476026E+02               0
GRID*             159392               0-2.500000000E+008.3143681962E+01+
*       -2.099956640E+02               0
GRID*             159393               0-2.500000000E+008.4350748116E+01+
*       -2.082761279E+02               0
GRID*             159394               0-2.500000000E+008.1839363665E+01+
*       -2.114908596E+02               0
GRID*             159395               0-2.500000000E+008.0313527205E+01+
*       -2.098599197E+02               0
GRID*             159396               0-2.500000000E+008.1617845503E+01+
*       -2.083647241E+02               0
GRID*             159397               0-2.500000000E+007.9022217910E+01+
*       -2.113214540E+02               0
GRID*             159398               0-2.500000000E+007.7553201155E+01+
*       -2.098440846E+02               0
GRID*             159399               0-2.500000000E+007.8844510451E+01+
*       -2.083825503E+02               0
GRID*             159400               0-2.500000000E+007.6276015909E+01+
*       -2.113145205E+02               0
GRID*             159401               0-2.500000000E+007.4791085687E+01+
*       -2.099037607E+02               0
GRID*             159402               0-2.500000000E+007.6068270933E+01+
*       -2.084333248E+02               0
GRID*             159403               0-2.500000000E+007.3524674760E+01+
*       -2.113945066E+02               0
GRID*             159404               0-2.500000000E+007.2015273096E+01+
*       -2.100246114E+02               0
GRID*             159405               0-2.500000000E+007.3281684023E+01+
*       -2.085338655E+02               0
GRID*             159406               0-2.500000000E+007.0760679612E+01+
*       -2.115445460E+02               0
GRID*             159407               0-2.500000000E+006.9225209882E+01+
*       -2.102082102E+02               0
GRID*             159408               0-2.500000000E+007.0479803366E+01+
*       -2.086882757E+02               0
GRID*             159409               0-2.500000000E+006.7980861405E+01+
*       -2.117720063E+02               0
GRID*             159410               0-2.500000000E+006.6412236180E+01+
*       -2.104637113E+02               0
GRID*             159411               0-2.500000000E+006.7656584656E+01+
*       -2.088999152E+02               0
GRID*             159412               0-2.500000000E+006.5162584875E+01+
*       -2.120911969E+02               0
GRID*             159413               0-2.500000000E+006.3549225425E+01+
*       -2.107949643E+02               0
GRID*             159414               0-2.500000000E+006.4798876730E+01+
*       -2.091674788E+02               0
GRID*             159415               0-2.500000000E+006.2256458556E+01+
*       -2.124912818E+02               0
GRID*             159416               0-2.500000000E+006.0595625397E+01+
*       -2.111690401E+02               0
GRID*             159417               0-2.500000000E+006.1888392267E+01+
*       -2.094727226E+02               0
GRID*             159418               0-2.500000000E+005.9231962932E+01+
*       -2.128639927E+02               0
GRID*             159419               0-2.500000000E+005.7555881196E+01+
*       -2.114649571E+02               0
GRID*             159420               0-2.500000000E+005.8919543662E+01+
*       -2.097700044E+02               0
GRID*             159421               0-2.500000000E+005.6143316027E+01+
*       -2.131298088E+02               0
GRID*             159422               0-2.500000000E+005.4503073539E+01+
*       -2.116886407E+02               0
GRID*             159423               0-2.500000000E+005.5915638708E+01+
*       -2.100237890E+02               0
GRID*             159424               0-2.500000000E+005.3065638656E+01+
*       -2.133187273E+02               0
GRID*             159425               0-2.500000000E+005.1472764867E+01+
*       -2.118633652E+02               0
GRID*             159426               0-2.500000000E+005.2910199750E+01+
*       -2.102332786E+02               0
GRID*             159427               0-2.500000000E+005.0024960097E+01+
*       -2.134617974E+02               0
GRID*             159428               0-2.500000000E+004.8476403349E+01+
*       -2.120069113E+02               0
GRID*             159429               0-2.500000000E+004.9924208119E+01+
*       -2.104084791E+02               0
GRID*             159430               0-2.500000000E+004.7024827226E+01+
*       -2.135778419E+02               0
GRID*             159431               0-2.500000000E+004.5515632129E+01+
*       -2.121299207E+02               0
GRID*             159432               0-2.500000000E+004.6967208252E+01+
*       -2.105589902E+02               0
GRID*             159433               0-2.500000000E+004.4061953579E+01+
*       -2.136767260E+02               0
GRID*             159434               0-2.500000000E+004.2588633397E+01+
*       -2.122379506E+02               0
GRID*             159435               0-2.500000000E+004.4042311947E+01+
*       -2.106911453E+02               0
GRID*             159436               0-2.500000000E+004.1131518434E+01+
*       -2.137632060E+02               0
GRID*             159437               0-2.500000000E+003.9692328216E+01+
*       -2.123334808E+02               0
GRID*             159438               0-2.500000000E+004.1149443179E+01+
*       -2.108082254E+02               0
GRID*             159439               0-2.500000000E+003.8228562490E+01+
*       -2.138393986E+02               0
GRID*             159440               0-2.500000000E+003.6823209303E+01+
*       -2.124173969E+02               0
GRID*             159441               0-2.500000000E+003.8286975030E+01+
*       -2.109114792E+02               0
GRID*             159442               0-2.500000000E+003.5348587812E+01+
*       -2.139060459E+02               0
GRID*             159443               0-2.500000000E+003.3978323370E+01+
*       -2.124896306E+02               0
GRID*             159444               0-2.500000000E+003.5452944861E+01+
*       -2.110009816E+02               0
GRID*             159445               0-2.500000000E+003.2488773957E+01+
*       -2.139625260E+02               0
GRID*             159446               0-2.500000000E+003.1157338676E+01+
*       -2.125486029E+02               0
GRID*             159447               0-2.500000000E+003.2646888088E+01+
*       -2.110757075E+02               0
GRID*             159448               0-2.500000000E+002.9650451275E+01+
*       -2.140055514E+02               0
GRID*             159449               0-2.500000000E+002.8365632919E+01+
*       -2.125897047E+02               0
GRID*             159450               0-2.500000000E+002.9872520319E+01+
*       -2.111327562E+02               0
GRID*             159451               0-2.500000000E+002.6842402946E+01+
*       -2.140271572E+02               0
GRID*             159452               0-2.500000000E+002.5616996405E+01+
*       -2.126040700E+02               0
GRID*             159453               0-2.500000000E+002.7140226378E+01+
*       -2.111666174E+02               0
GRID*             159454               0-2.500000000E+002.4088695626E+01+
*       -2.140128893E+02               0
GRID*             159455               0-2.500000000E+002.2940396721E+01+
*       -2.125791354E+02               0
GRID*             159456               0-2.500000000E+002.4468697500E+01+
*       -2.111703160E+02               0
GRID*             159457               0-2.500000000E+002.1455318497E+01+
*       -2.139397682E+02               0
GRID*             159458               0-2.500000000E+002.0400137998E+01+
*       -2.125016490E+02               0
GRID*             159459               0-2.500000000E+002.1885216221E+01+
*       -2.111410162E+02               0
GRID*             159460               0-2.500000000E+001.8987603124E+01+
*       -2.138772892E+02               0
GRID*             159461               0-2.500000000E+001.7994948979E+01+
*       -2.124763788E+02               0
GRID*             159462               0-2.500000000E+001.9407483853E+01+
*       -2.111007386E+02               0
GRID*             159463               0-2.500000000E+001.5709113961E+01+
*       -2.125185554E+02               0
GRID*             159464               0-2.500000000E+001.7030311059E+01+
*       -2.110764560E+02               0
GRID*             159465               0-2.500000000E+001.3549796410E+01+
*       -2.125218291E+02               0
GRID*             159466               0-2.500000000E+001.4734349512E+01+
*       -2.110563145E+02               0
GRID*             159467               0-2.500000000E+001.2468803614E+01+
*       -2.110232020E+02               0
GRID*             159468               0-2.500000000E+001.2555651344E+01+
*       -2.080472254E+02               0
GRID*             159469               0-2.500000000E+001.3669606825E+01+
*       -2.095653090E+02               0
GRID*             159470               0-2.500000000E+001.2650766719E+01+
*       -2.050548560E+02               0
GRID*             159471               0-2.500000000E+001.3800199804E+01+
*       -2.065990788E+02               0
GRID*             159472               0-2.500000000E+001.2740463547E+01+
*       -2.020516391E+02               0
GRID*             159473               0-2.500000000E+001.3924272087E+01+
*       -2.036145744E+02               0
GRID*             159474               0-2.500000000E+001.2823117689E+01+
*       -1.990440630E+02               0
GRID*             159475               0-2.500000000E+001.4038240358E+01+
*       -2.006199258E+02               0
GRID*             159476               0-2.500000000E+001.2900726072E+01+
*       -1.960353932E+02               0
GRID*             159477               0-2.500000000E+001.4144036016E+01+
*       -1.976216390E+02               0
GRID*             159478               0-2.500000000E+001.2975948428E+01+
*       -1.930255055E+02               0
GRID*             159479               0-2.500000000E+001.4245275402E+01+
*       -1.946217957E+02               0
GRID*             159480               0-2.500000000E+001.3050375217E+01+
*       -1.900118983E+02               0
GRID*             159481               0-2.500000000E+001.4344980934E+01+
*       -1.916185821E+02               0
GRID*             159482               0-2.500000000E+001.3123508868E+01+
*       -1.869910917E+02               0
GRID*             159483               0-2.500000000E+001.4443918985E+01+
*       -1.886078369E+02               0
GRID*             159484               0-2.500000000E+001.3192710715E+01+
*       -1.839604230E+02               0
GRID*             159485               0-2.500000000E+001.4539852961E+01+
*       -1.855852177E+02               0
GRID*             159486               0-2.500000000E+001.3254581130E+01+
*       -1.809196198E+02               0
GRID*             159487               0-2.500000000E+001.4628414361E+01+
*       -1.825486382E+02               0
GRID*             159488               0-2.500000000E+001.3307087113E+01+
*       -1.778706437E+02               0
GRID*             159489               0-2.500000000E+001.4705675120E+01+
*       -1.794993339E+02               0
GRID*             159490               0-2.500000000E+001.3349701464E+01+
*       -1.748162545E+02               0
GRID*             159491               0-2.500000000E+001.4769812142E+01+
*       -1.764406736E+02               0
GRID*             159492               0-2.500000000E+001.3383009564E+01+
*       -1.717591059E+02               0
GRID*             159493               0-2.500000000E+001.4820856796E+01+
*       -1.733764547E+02               0
GRID*             159494               0-2.500000000E+001.3408395864E+01+
*       -1.687013122E+02               0
GRID*             159495               0-2.500000000E+001.4860175437E+01+
*       -1.703099903E+02               0
GRID*             159496               0-2.500000000E+001.3427598221E+01+
*       -1.656442033E+02               0
GRID*             159497               0-2.500000000E+001.4889939649E+01+
*       -1.672436597E+02               0
GRID*             159498               0-2.500000000E+001.3442298720E+01+
*       -1.625882793E+02               0
GRID*             159499               0-2.500000000E+001.4912520214E+01+
*       -1.641787177E+02               0
GRID*             159500               0-2.500000000E+001.3453866510E+01+
*       -1.595332835E+02               0
GRID*             159501               0-2.500000000E+001.4930022006E+01+
*       -1.611153320E+02               0
GRID*             159502               0-2.500000000E+001.3463243876E+01+
*       -1.564782816E+02               0
GRID*             159503               0-2.500000000E+001.4944036310E+01+
*       -1.580527097E+02               0
GRID*             159504               0-2.500000000E+001.3470905105E+01+
*       -1.534216524E+02               0
GRID*             159505               0-2.500000000E+001.4955550206E+01+
*       -1.549891674E+02               0
GRID*             159506               0-2.500000000E+001.3476792745E+01+
*       -1.503609323E+02               0
GRID*             159507               0-2.500000000E+001.4964895688E+01+
*       -1.519220401E+02               0
GRID*             159508               0-2.500000000E+001.3480005681E+01+
*       -1.472923108E+02               0
GRID*             159509               0-2.500000000E+001.4971531881E+01+
*       -1.488472390E+02               0
GRID*             159510               0-2.500000000E+001.3477926008E+01+
*       -1.442094328E+02               0
GRID*             159511               0-2.500000000E+001.4973357879E+01+
*       -1.457580956E+02               0
GRID*             159512               0-2.500000000E+001.3464810863E+01+
*       -1.411016883E+02               0
GRID*             159513               0-2.500000000E+001.4965393262E+01+
*       -1.426432939E+02               0
GRID*             159514               0-2.500000000E+001.3429148537E+01+
*       -1.379529108E+02               0
GRID*             159515               0-2.500000000E+001.4937161946E+01+
*       -1.394840840E+02               0
GRID*             159516               0-2.500000000E+001.3345201870E+01+
*       -1.347436331E+02               0
GRID*             159517               0-2.500000000E+001.4864482729E+01+
*       -1.362522857E+02               0
GRID*             159518               0-2.500000000E+001.3147493508E+01+
*       -1.314816294E+02               0
GRID*             159519               0-2.500000000E+001.4681257963E+01+
*       -1.329286105E+02               0
GRID*             159520               0-2.500000000E+001.2681036024E+01+
*       -1.284628892E+02               0
GRID*             159521               0-2.500000000E+001.4201551877E+01+
*       -1.297415222E+02               0
GRID*             159522               0-2.500000000E+001.3692485673E+01+
*       -1.269097447E+02               0
GRID*             159523               0-2.500000000E+001.5681636305E+01+
*       -1.264845953E+02               0
GRID*             159524               0-2.500000000E+001.4893314061E+01+
*       -1.279280921E+02               0
GRID*             159525               0-2.500000000E+001.7369374371E+01+
*       -1.259388913E+02               0
GRID*             159526               0-2.500000000E+001.6679509470E+01+
*       -1.271711306E+02               0
GRID*             159527               0-2.500000000E+001.9230363185E+01+
*       -1.265407580E+02               0
GRID*             159528               0-2.500000000E+001.8264868261E+01+
*       -1.272002556E+02               0
GRID*             159529               0-2.500000000E+002.1743755921E+01+
*       -1.270006498E+02               0
GRID*             159530               0-2.500000000E+002.0373956762E+01+
*       -1.280094469E+02               0
GRID*             159531               0-2.500000000E+002.4587872466E+01+
*       -1.273563802E+02               0
GRID*             159532               0-2.500000000E+002.3077305685E+01+
*       -1.285641218E+02               0
GRID*             159533               0-2.500000000E+002.7545111415E+01+
*       -1.276315410E+02               0
GRID*             159534               0-2.500000000E+002.5993703446E+01+
*       -1.289378366E+02               0
GRID*             159535               0-2.500000000E+003.0535242764E+01+
*       -1.278493923E+02               0
GRID*             159536               0-2.500000000E+002.8973848555E+01+
*       -1.292082499E+02               0
GRID*             159537               0-2.500000000E+003.3532619654E+01+
*       -1.280254837E+02               0
GRID*             159538               0-2.500000000E+003.1971235497E+01+
*       -1.294173579E+02               0
GRID*             159539               0-2.500000000E+003.6530593202E+01+
*       -1.281700624E+02               0
GRID*             159540               0-2.500000000E+003.4971870446E+01+
*       -1.295861898E+02               0
GRID*             159541               0-2.500000000E+003.9529826546E+01+
*       -1.282904321E+02               0
GRID*             159542               0-2.500000000E+003.7972970095E+01+
*       -1.297264999E+02               0
GRID*             159543               0-2.500000000E+004.2533826929E+01+
*       -1.283925148E+02               0
GRID*             159544               0-2.500000000E+004.0976076979E+01+
*       -1.298461301E+02               0
GRID*             159545               0-2.500000000E+004.5547195802E+01+
*       -1.284819709E+02               0
GRID*             159546               0-2.500000000E+004.3984358514E+01+
*       -1.299514827E+02               0
GRID*             159547               0-2.500000000E+004.8574822322E+01+
*       -1.285652522E+02               0
GRID*             159548               0-2.500000000E+004.7001286142E+01+
*       -1.300489232E+02               0
GRID*             159549               0-2.500000000E+005.1621077249E+01+
*       -1.286509520E+02               0
GRID*             159550               0-2.500000000E+005.0029593218E+01+
*       -1.301458795E+02               0
GRID*             159551               0-2.500000000E+005.4687764594E+01+
*       -1.287518757E+02               0
GRID*             159552               0-2.500000000E+005.3069665867E+01+
*       -1.302518953E+02               0
GRID*             159553               0-2.500000000E+005.7768179562E+01+
*       -1.288875537E+02               0
GRID*             159554               0-2.500000000E+005.6116344064E+01+
*       -1.303792417E+02               0
GRID*             159555               0-2.500000000E+006.0833165750E+01+
*       -1.290846040E+02               0
GRID*             159556               0-2.500000000E+005.9153741884E+01+
*       -1.305411279E+02               0
GRID*             159557               0-2.500000000E+006.3813468910E+01+
*       -1.293588252E+02               0
GRID*             159558               0-2.500000000E+006.2152719989E+01+
*       -1.307420397E+02               0
GRID*             159559               0-2.500000000E+006.6704095298E+01+
*       -1.295949781E+02               0
GRID*             159560               0-2.500000000E+006.5092135250E+01+
*       -1.309520440E+02               0
GRID*             159561               0-2.500000000E+006.9547962816E+01+
*       -1.297567457E+02               0
GRID*             159562               0-2.500000000E+006.7978708004E+01+
*       -1.311279620E+02               0
GRID*             159563               0-2.500000000E+007.2375911557E+01+
*       -1.298496871E+02               0
GRID*             159564               0-2.500000000E+007.0831732954E+01+
*       -1.312535289E+02               0
GRID*             159565               0-2.500000000E+007.5195506173E+01+
*       -1.298931577E+02               0
GRID*             159566               0-2.500000000E+007.3662549339E+01+
*       -1.313339684E+02               0
GRID*             159567               0-2.500000000E+007.7991057345E+01+
*       -1.299116988E+02               0
GRID*             159568               0-2.500000000E+007.6467936553E+01+
*       -1.313853280E+02               0
GRID*             159569               0-2.500000000E+008.0723444734E+01+
*       -1.299286868E+02               0
GRID*             159570               0-2.500000000E+007.9233123241E+01+
*       -1.314270035E+02               0
GRID*             159571               0-2.500000000E+008.3454013489E+01+
*       -1.298497565E+02               0
GRID*             159572               0-2.500000000E+008.1951091485E+01+
*       -1.314725022E+02               0
GRID*             159573               0-2.500000000E+008.4602403061E+01+
*       -1.315936547E+02               0
GRID*             159574               0-2.500000000E+008.3199839869E+01+
*       -1.330505082E+02               0
GRID*             159575               0-2.500000000E+008.4433035449E+01+
*       -1.346760286E+02               0
GRID*             159576               0-2.500000000E+008.4296834257E+01+
*       -1.377479210E+02               0
GRID*             159577               0-2.500000000E+008.3021685921E+01+
*       -1.361415364E+02               0
GRID*             159578               0-2.500000000E+008.4181783246E+01+
*       -1.408134607E+02               0
GRID*             159579               0-2.500000000E+008.2875517370E+01+
*       -1.392129250E+02               0
GRID*             159580               0-2.500000000E+008.4082432367E+01+
*       -1.438756604E+02               0
GRID*             159581               0-2.500000000E+008.2750386268E+01+
*       -1.422789793E+02               0
GRID*             159582               0-2.500000000E+008.3995689667E+01+
*       -1.469361269E+02               0
GRID*             159583               0-2.500000000E+008.2641415834E+01+
*       -1.453431158E+02               0
GRID*             159584               0-2.500000000E+008.3919470417E+01+
*       -1.499958338E+02               0
GRID*             159585               0-2.500000000E+008.2545680875E+01+
*       -1.484065825E+02               0
GRID*             159586               0-2.500000000E+008.3852228883E+01+
*       -1.530555703E+02               0
GRID*             159587               0-2.500000000E+008.2461107260E+01+
*       -1.514701883E+02               0
GRID*             159588               0-2.500000000E+008.3792815116E+01+
*       -1.561161299E+02               0
GRID*             159589               0-2.500000000E+008.2386142890E+01+
*       -1.545347364E+02               0
GRID*             159590               0-2.500000000E+008.3740472571E+01+
*       -1.591783552E+02               0
GRID*             159591               0-2.500000000E+008.2319692010E+01+
*       -1.576011305E+02               0
GRID*             159592               0-2.500000000E+008.3694901099E+01+
*       -1.622430948E+02               0
GRID*             159593               0-2.500000000E+008.2261164211E+01+
*       -1.606703544E+02               0
GRID*             159594               0-2.500000000E+008.3656338834E+01+
*       -1.653110927E+02               0
GRID*             159595               0-2.500000000E+008.2210573945E+01+
*       -1.637433671E+02               0
GRID*             159596               0-2.500000000E+008.3625616328E+01+
*       -1.683828202E+02               0
GRID*             159597               0-2.500000000E+008.2168638872E+01+
*       -1.668209226E+02               0
GRID*             159598               0-2.500000000E+008.3604122129E+01+
*       -1.714582673E+02               0
GRID*             159599               0-2.500000000E+008.2136810657E+01+
*       -1.699033195E+02               0
GRID*             159600               0-2.500000000E+008.3593598482E+01+
*       -1.745367662E+02               0
GRID*             159601               0-2.500000000E+008.2117137904E+01+
*       -1.729901345E+02               0
GRID*             159602               0-2.500000000E+008.3595717210E+01+
*       -1.776169478E+02               0
GRID*             159603               0-2.500000000E+008.2111856428E+01+
*       -1.760800513E+02               0
GRID*             159604               0-2.500000000E+008.3611541674E+01+
*       -1.806969502E+02               0
GRID*             159605               0-2.500000000E+008.2122730356E+01+
*       -1.791709420E+02               0
GRID*             159606               0-2.500000000E+008.3641199367E+01+
*       -1.837748986E+02               0
GRID*             159607               0-2.500000000E+008.2150440344E+01+
*       -1.822603181E+02               0
GRID*             159608               0-2.500000000E+008.3684124149E+01+
*       -1.868494009E+02               0
GRID*             159609               0-2.500000000E+008.2194528358E+01+
*       -1.853459918E+02               0
GRID*             159610               0-2.500000000E+008.3739500201E+01+
*       -1.899197581E+02               0
GRID*             159611               0-2.500000000E+008.2253902672E+01+
*       -1.884265416E+02               0
GRID*             159612               0-2.500000000E+008.3806518303E+01+
*       -1.929858815E+02               0
GRID*             159613               0-2.500000000E+008.2327362296E+01+
*       -1.915013596E+02               0
GRID*             159614               0-2.500000000E+008.3884574970E+01+
*       -1.960480211E+02               0
GRID*             159615               0-2.500000000E+008.2413931462E+01+
*       -1.945703619E+02               0
GRID*             159616               0-2.500000000E+008.3973838875E+01+
*       -1.991064775E+02               0
GRID*             159617               0-2.500000000E+008.2513260176E+01+
*       -1.976335984E+02               0
GRID*             159618               0-2.500000000E+008.4076259937E+01+
*       -2.021617727E+02               0
GRID*             159619               0-2.500000000E+008.2626342054E+01+
*       -2.006913127E+02               0
GRID*             159620               0-2.500000000E+008.4197189011E+01+
*       -2.052157508E+02               0
GRID*             159621               0-2.500000000E+008.2756836208E+01+
*       -2.037460118E+02               0
GRID*             159622               0-2.500000000E+008.2915981530E+01+
*       -2.068168011E+02               0
GRID*             159623               0-2.500000000E+008.0141853333E+01+
*       -2.068602324E+02               0
GRID*             159624               0-2.500000000E+008.1439989360E+01+
*       -2.053123093E+02               0
GRID*             159625               0-2.500000000E+007.7359828945E+01+
*       -2.069130574E+02               0
GRID*             159626               0-2.500000000E+007.8657171827E+01+
*       -2.053907395E+02               0
GRID*             159627               0-2.500000000E+007.4567086380E+01+
*       -2.070018387E+02               0
GRID*             159628               0-2.500000000E+007.5858644391E+01+
*       -2.054815712E+02               0
GRID*             159629               0-2.500000000E+007.1759886821E+01+
*       -2.071345344E+02               0
GRID*             159630               0-2.500000000E+007.3045289178E+01+
*       -2.056025076E+02               0
GRID*             159631               0-2.500000000E+006.8935333826E+01+
*       -2.073154186E+02               0
GRID*             159632               0-2.500000000E+007.0215417281E+01+
*       -2.057616773E+02               0
GRID*             159633               0-2.500000000E+006.6086804187E+01+
*       -2.075460559E+02               0
GRID*             159634               0-2.500000000E+006.7365553357E+01+
*       -2.059615592E+02               0
GRID*             159635               0-2.500000000E+006.3201996671E+01+
*       -2.078196408E+02               0
GRID*             159636               0-2.500000000E+006.4489924128E+01+
*       -2.061982179E+02               0
GRID*             159637               0-2.500000000E+006.0269293614E+01+
*       -2.081113189E+02               0
GRID*             159638               0-2.500000000E+006.1582898019E+01+
*       -2.064582371E+02               0
GRID*             159639               0-2.500000000E+005.7295912421E+01+
*       -2.083779266E+02               0
GRID*             159640               0-2.500000000E+005.8645662374E+01+
*       -2.067192411E+02               0
GRID*             159641               0-2.500000000E+005.4310280448E+01+
*       -2.086084886E+02               0
GRID*             159642               0-2.500000000E+005.5690554161E+01+
*       -2.069626263E+02               0
GRID*             159643               0-2.500000000E+005.1335095007E+01+
*       -2.088070867E+02               0
GRID*             159644               0-2.500000000E+005.2735175704E+01+
*       -2.071822967E+02               0
GRID*             159645               0-2.500000000E+004.8383429146E+01+
*       -2.089809790E+02               0
GRID*             159646               0-2.500000000E+004.9794316034E+01+
*       -2.073795866E+02               0
GRID*             159647               0-2.500000000E+004.5461734750E+01+
*       -2.091359034E+02               0
GRID*             159648               0-2.500000000E+004.6877955645E+01+
*       -2.075578923E+02               0
GRID*             159649               0-2.500000000E+004.2572631836E+01+
*       -2.092749262E+02               0
GRID*             159650               0-2.500000000E+004.3992054639E+01+
*       -2.077196843E+02               0
GRID*             159651               0-2.500000000E+003.9716416879E+01+
*       -2.093988040E+02               0
GRID*             159652               0-2.500000000E+004.1139605536E+01+
*       -2.078655047E+02               0
GRID*             159653               0-2.500000000E+003.6891960956E+01+
*       -2.095069381E+02               0
GRID*             159654               0-2.500000000E+003.8321402805E+01+
*       -2.079942629E+02               0
GRID*             159655               0-2.500000000E+003.4097913884E+01+
*       -2.095980419E+02               0
GRID*             159656               0-2.500000000E+003.5536929978E+01+
*       -2.081039984E+02               0
GRID*             159657               0-2.500000000E+003.1334933555E+01+
*       -2.096700063E+02               0
GRID*             159658               0-2.500000000E+003.2785959350E+01+
*       -2.081923406E+02               0
GRID*             159659               0-2.500000000E+002.8608357678E+01+
*       -2.097192255E+02               0
GRID*             159660               0-2.500000000E+003.0070770913E+01+
*       -2.082564756E+02               0
GRID*             159661               0-2.500000000E+002.5929602663E+01+
*       -2.097404734E+02               0
GRID*             159662               0-2.500000000E+002.7397733963E+01+
*       -2.082930815E+02               0
GRID*             159663               0-2.500000000E+002.3316035190E+01+
*       -2.097291015E+02               0
GRID*             159664               0-2.500000000E+002.4776940354E+01+
*       -2.082992589E+02               0
GRID*             159665               0-2.500000000E+002.0788499321E+01+
*       -2.096874536E+02               0
GRID*             159666               0-2.500000000E+002.2219318290E+01+
*       -2.082755390E+02               0
GRID*             159667               0-2.500000000E+001.8348667758E+01+
*       -2.096437867E+02               0
GRID*             159668               0-2.500000000E+001.9729683226E+01+
*       -2.082305017E+02               0
GRID*             159669               0-2.500000000E+001.5983376623E+01+
*       -2.096075875E+02               0
GRID*             159670               0-2.500000000E+001.7301733322E+01+
*       -2.081749182E+02               0
GRID*             159671               0-2.500000000E+001.4918633936E+01+
*       -2.081165821E+02               0
GRID*             159672               0-2.500000000E+001.5080468541E+01+
*       -2.051565530E+02               0
GRID*             159673               0-2.500000000E+001.6198902672E+01+
*       -2.066740562E+02               0
GRID*             159674               0-2.500000000E+001.5225020795E+01+
*       -2.021786043E+02               0
GRID*             159675               0-2.500000000E+001.6381217249E+01+
*       -2.037205829E+02               0
GRID*             159676               0-2.500000000E+001.5356741697E+01+
*       -1.991939838E+02               0
GRID*             159677               0-2.500000000E+001.6543522133E+01+
*       -2.007526623E+02               0
GRID*             159678               0-2.500000000E+001.5481344819E+01+
*       -1.962081283E+02               0
GRID*             159679               0-2.500000000E+001.6694050500E+01+
*       -1.977804731E+02               0
GRID*             159680               0-2.500000000E+001.5604324326E+01+
*       -1.932207028E+02               0
GRID*             159681               0-2.500000000E+001.6840393743E+01+
*       -1.948070354E+02               0
GRID*             159682               0-2.500000000E+001.5729039416E+01+
*       -1.902269132E+02               0
GRID*             159683               0-2.500000000E+001.6988382808E+01+
*       -1.918290338E+02               0
GRID*             159684               0-2.500000000E+001.5854824107E+01+
*       -1.872194707E+02               0
GRID*             159685               0-2.500000000E+001.7139944539E+01+
*       -1.888385469E+02               0
GRID*             159686               0-2.500000000E+001.5975875081E+01+
*       -1.841923905E+02               0
GRID*             159687               0-2.500000000E+001.7290846227E+01+
*       -1.858266435E+02               0
GRID*             159688               0-2.500000000E+001.6084008374E+01+
*       -1.811452293E+02               0
GRID*             159689               0-2.500000000E+001.7431469093E+01+
*       -1.827889817E+02               0
GRID*             159690               0-2.500000000E+001.6175031709E+01+
*       -1.780826581E+02               0
GRID*             159691               0-2.500000000E+001.7553364962E+01+
*       -1.797285536E+02               0
GRID*             159692               0-2.500000000E+001.6248059969E+01+
*       -1.750104000E+02               0
GRID*             159693               0-2.500000000E+001.7653279536E+01+
*       -1.766523845E+02               0
GRID*             159694               0-2.500000000E+001.6304246620E+01+
*       -1.719336178E+02               0
GRID*             159695               0-2.500000000E+001.7731449793E+01+
*       -1.735675631E+02               0
GRID*             159696               0-2.500000000E+001.6346352573E+01+
*       -1.688563308E+02               0
GRID*             159697               0-2.500000000E+001.7790423756E+01+
*       -1.704799583E+02               0
GRID*             159698               0-2.500000000E+001.6377786525E+01+
*       -1.657809643E+02               0
GRID*             159699               0-2.500000000E+001.7834199449E+01+
*       -1.673936354E+02               0
GRID*             159700               0-2.500000000E+001.6401747464E+01+
*       -1.627083536E+02               0
GRID*             159701               0-2.500000000E+001.7867013775E+01+
*       -1.643106002E+02               0
GRID*             159702               0-2.500000000E+001.6420765488E+01+
*       -1.596380103E+02               0
GRID*             159703               0-2.500000000E+001.7892490947E+01+
*       -1.612310320E+02               0
GRID*             159704               0-2.500000000E+001.6436568750E+01+
*       -1.565683794E+02               0
GRID*             159705               0-2.500000000E+001.7913297928E+01+
*       -1.581536801E+02               0
GRID*             159706               0-2.500000000E+001.6450104127E+01+
*       -1.534969312E+02               0
GRID*             159707               0-2.500000000E+001.7931122671E+01+
*       -1.550761432E+02               0
GRID*             159708               0-2.500000000E+001.6461540521E+01+
*       -1.504199830E+02               0
GRID*             159709               0-2.500000000E+001.7946748960E+01+
*       -1.519948740E+02               0
GRID*             159710               0-2.500000000E+001.6469990205E+01+
*       -1.473319379E+02               0
GRID*             159711               0-2.500000000E+001.7959998844E+01+
*       -1.489046819E+02               0
GRID*             159712               0-2.500000000E+001.6472738062E+01+
*       -1.442234777E+02               0
GRID*             159713               0-2.500000000E+001.7969370387E+01+
*       -1.457973201E+02               0
GRID*             159714               0-2.500000000E+001.6464114966E+01+
*       -1.410783180E+02               0
GRID*             159715               0-2.500000000E+001.7971459766E+01+
*       -1.426585018E+02               0
GRID*             159716               0-2.500000000E+001.6432966330E+01+
*       -1.378664102E+02               0
GRID*             159717               0-2.500000000E+001.7959919350E+01+
*       -1.394606441E+02               0
GRID*             159718               0-2.500000000E+001.6352297926E+01+
*       -1.345223970E+02               0
GRID*             159719               0-2.500000000E+001.7920781527E+01+
*       -1.361365215E+02               0
GRID*             159720               0-2.500000000E+001.6133729901E+01+
*       -1.308399098E+02               0
GRID*             159721               0-2.500000000E+001.7804769864E+01+
*       -1.324336962E+02               0
GRID*             159722               0-2.500000000E+001.6825492085E+01+
*       -1.290264797E+02               0
GRID*             159723               0-2.500000000E+001.8410850876E+01+
*       -1.290556047E+02               0
GRID*             159724               0-2.500000000E+002.1407459077E+01+
*       -1.298350640E+02               0
GRID*             159725               0-2.500000000E+001.9444353191E+01+
*       -1.308812218E+02               0
GRID*             159726               0-2.500000000E+002.4398320706E+01+
*       -1.302847745E+02               0
GRID*             159727               0-2.500000000E+002.2728474098E+01+
*       -1.315557167E+02               0
GRID*             159728               0-2.500000000E+002.7401278976E+01+
*       -1.305927457E+02               0
GRID*             159729               0-2.500000000E+002.5805896236E+01+
*       -1.319396836E+02               0
GRID*             159730               0-2.500000000E+003.0407654497E+01+
*       -1.308257699E+02               0
GRID*             159731               0-2.500000000E+002.8835084918E+01+
*       -1.322102657E+02               0
GRID*             159732               0-2.500000000E+003.3412592983E+01+
*       -1.310126596E+02               0
GRID*             159733               0-2.500000000E+003.1849011984E+01+
*       -1.324210715E+02               0
GRID*             159734               0-2.500000000E+003.6415128570E+01+
*       -1.311680302E+02               0
GRID*             159735               0-2.500000000E+003.4855851107E+01+
*       -1.325944999E+02               0
GRID*             159736               0-2.500000000E+003.9416748583E+01+
*       -1.313007853E+02               0
GRID*             159737               0-2.500000000E+003.7858907058E+01+
*       -1.327423156E+02               0
GRID*             159738               0-2.500000000E+004.2420138315E+01+
*       -1.314175281E+02               0
GRID*             159739               0-2.500000000E+004.0860809918E+01+
*       -1.328721833E+02               0
GRID*             159740               0-2.500000000E+004.5428267152E+01+
*       -1.315241822E+02               0
GRID*             159741               0-2.500000000E+004.3864046953E+01+
*       -1.329902276E+02               0
GRID*             159742               0-2.500000000E+004.8443619706E+01+
*       -1.316269766E+02               0
GRID*             159743               0-2.500000000E+004.6870600716E+01+
*       -1.331022356E+02               0
GRID*             159744               0-2.500000000E+005.1467231175E+01+
*       -1.317332026E+02               0
GRID*             159745               0-2.500000000E+004.9881257663E+01+
*       -1.332142997E+02               0
GRID*             159746               0-2.500000000E+005.4497000439E+01+
*       -1.318517369E+02               0
GRID*             159747               0-2.500000000E+005.2894565746E+01+
*       -1.333330441E+02               0
GRID*             159748               0-2.500000000E+005.7524729402E+01+
*       -1.319926142E+02               0
GRID*             159749               0-2.500000000E+005.5905385777E+01+
*       -1.334651094E+02               0
GRID*             159750               0-2.500000000E+006.0532651075E+01+
*       -1.321635634E+02               0
GRID*             159751               0-2.500000000E+005.8903638593E+01+
*       -1.336150498E+02               0
GRID*             159752               0-2.500000000E+006.3495663556E+01+
*       -1.323591316E+02               0
GRID*             159753               0-2.500000000E+006.1875594641E+01+
*       -1.337806553E+02               0
GRID*             159754               0-2.500000000E+006.6407879831E+01+
*       -1.325402516E+02               0
GRID*             159755               0-2.500000000E+006.4811408137E+01+
*       -1.339473392E+02               0
GRID*             159756               0-2.500000000E+006.9281981141E+01+
*       -1.326837449E+02               0
GRID*             159757               0-2.500000000E+006.7711152968E+01+
*       -1.340960345E+02               0
GRID*             159758               0-2.500000000E+007.2130100628E+01+
*       -1.327867960E+02               0
GRID*             159759               0-2.500000000E+007.0580348815E+01+
*       -1.342170120E+02               0
GRID*             159760               0-2.500000000E+007.4954534014E+01+
*       -1.328592960E+02               0
GRID*             159761               0-2.500000000E+007.3422085304E+01+
*       -1.343121236E+02               0
GRID*             159762               0-2.500000000E+007.7746899671E+01+
*       -1.329175717E+02               0
GRID*             159763               0-2.500000000E+007.6233497132E+01+
*       -1.343915397E+02               0
GRID*             159764               0-2.500000000E+008.0493725951E+01+
*       -1.329791127E+02               0
GRID*             159765               0-2.500000000E+007.9007502381E+01+
*       -1.344696809E+02               0
GRID*             159766               0-2.500000000E+008.1742474334E+01+
*       -1.345571188E+02               0
GRID*             159767               0-2.500000000E+008.0291604484E+01+
*       -1.360393136E+02               0
GRID*             159768               0-2.500000000E+008.1570816071E+01+
*       -1.376237312E+02               0
GRID*             159769               0-2.500000000E+008.1422662266E+01+
*       -1.406879718E+02               0
GRID*             159770               0-2.500000000E+008.0117960967E+01+
*       -1.390987780E+02               0
GRID*             159771               0-2.500000000E+008.1293117551E+01+
*       -1.437520477E+02               0
GRID*             159772               0-2.500000000E+007.9965393550E+01+
*       -1.421610401E+02               0
GRID*             159773               0-2.500000000E+008.1178949410E+01+
*       -1.468165279E+02               0
GRID*             159774               0-2.500000000E+007.9830651127E+01+
*       -1.452254598E+02               0
GRID*             159775               0-2.500000000E+008.1077727175E+01+
*       -1.498818015E+02               0
GRID*             159776               0-2.500000000E+007.9710995711E+01+
*       -1.482917469E+02               0
GRID*             159777               0-2.500000000E+008.0987536247E+01+
*       -1.529484345E+02               0
GRID*             159778               0-2.500000000E+007.9604156163E+01+
*       -1.513600476E+02               0
GRID*             159779               0-2.500000000E+008.0906913430E+01+
*       -1.560172484E+02               0
GRID*             159780               0-2.500000000E+007.9508306787E+01+
*       -1.544309466E+02               0
GRID*             159781               0-2.500000000E+008.0834899520E+01+
*       -1.590892957E+02               0
GRID*             159782               0-2.500000000E+007.9422120941E+01+
*       -1.575054136E+02               0
GRID*             159783               0-2.500000000E+008.0771165626E+01+
*       -1.621657655E+02               0
GRID*             159784               0-2.500000000E+007.9344900936E+01+
*       -1.605847068E+02               0
GRID*             159785               0-2.500000000E+008.0716180432E+01+
*       -1.652478100E+02               0
GRID*             159786               0-2.500000000E+007.9276772114E+01+
*       -1.636702084E+02               0
GRID*             159787               0-2.500000000E+008.0671370611E+01+
*       -1.683362586E+02               0
GRID*             159788               0-2.500000000E+007.9218912171E+01+
*       -1.667631461E+02               0
GRID*             159789               0-2.500000000E+008.0639164785E+01+
*       -1.714312284E+02               0
GRID*             159790               0-2.500000000E+007.9173724739E+01+
*       -1.698641675E+02               0
GRID*             159791               0-2.500000000E+008.0622715118E+01+
*       -1.745317136E+02               0
GRID*             159792               0-2.500000000E+007.9144741999E+01+
*       -1.729728075E+02               0
GRID*             159793               0-2.500000000E+008.0625123387E+01+
*       -1.776353439E+02               0
GRID*             159794               0-2.500000000E+007.9135982077E+01+
*       -1.760870062E+02               0
GRID*             159795               0-2.500000000E+008.0648216263E+01+
*       -1.807386232E+02               0
GRID*             159796               0-2.500000000E+007.9150609294E+01+
*       -1.792030251E+02               0
GRID*             159797               0-2.500000000E+008.0691647606E+01+
*       -1.838379557E+02               0
GRID*             159798               0-2.500000000E+007.9189423525E+01+
*       -1.823162607E+02               0
GRID*             159799               0-2.500000000E+008.0753649481E+01+
*       -1.869307358E+02               0
GRID*             159800               0-2.500000000E+007.9250768729E+01+
*       -1.854226997E+02               0
GRID*             159801               0-2.500000000E+008.0832153339E+01+
*       -1.900156477E+02               0
GRID*             159802               0-2.500000000E+007.9331900147E+01+
*       -1.885198419E+02               0
GRID*             159803               0-2.500000000E+008.0925421922E+01+
*       -1.930922873E+02               0
GRID*             159804               0-2.500000000E+007.9430212965E+01+
*       -1.916065754E+02               0
GRID*             159805               0-2.500000000E+008.1032308848E+01+
*       -1.961604803E+02               0
GRID*             159806               0-2.500000000E+007.9543799308E+01+
*       -1.946824057E+02               0
GRID*             159807               0-2.500000000E+008.1152567463E+01+
*       -1.992196698E+02               0
GRID*             159808               0-2.500000000E+007.9671616134E+01+
*       -1.977465517E+02               0
GRID*             159809               0-2.500000000E+008.1287237402E+01+
*       -2.022690063E+02               0
GRID*             159810               0-2.500000000E+007.9813462810E+01+
*       -2.007973633E+02               0
GRID*             159811               0-2.500000000E+007.9970390554E+01+
*       -2.038353038E+02               0
GRID*             159812               0-2.500000000E+007.7167279329E+01+
*       -2.039271676E+02               0
GRID*             159813               0-2.500000000E+007.8480498057E+01+
*       -2.023717319E+02               0
GRID*             159814               0-2.500000000E+007.4349584682E+01+
*       -2.040397922E+02               0
GRID*             159815               0-2.500000000E+007.5658219620E+01+
*       -2.024853886E+02               0
GRID*             159816               0-2.500000000E+007.1516761975E+01+
*       -2.041834053E+02               0
GRID*             159817               0-2.500000000E+007.2821057479E+01+
*       -2.026206900E+02               0
GRID*             159818               0-2.500000000E+006.8667329897E+01+
*       -2.043627165E+02               0
GRID*             159819               0-2.500000000E+006.9968674591E+01+
*       -2.027844446E+02               0
GRID*             159820               0-2.500000000E+006.5798319219E+01+
*       -2.045774909E+02               0
GRID*             159821               0-2.500000000E+006.7100095759E+01+
*       -2.029786482E+02               0
GRID*             159822               0-2.500000000E+006.2905638696E+01+
*       -2.048207871E+02               0
GRID*             159823               0-2.500000000E+006.4214033786E+01+
*       -2.032000602E+02               0
GRID*             159824               0-2.500000000E+005.9987503774E+01+
*       -2.050772975E+02               0
GRID*             159825               0-2.500000000E+006.1310244452E+01+
*       -2.034398476E+02               0
GRID*             159826               0-2.500000000E+005.7050084791E+01+
*       -2.053273088E+02               0
GRID*             159827               0-2.500000000E+005.8391926192E+01+
*       -2.036853653E+02               0
GRID*             159828               0-2.500000000E+005.4107456571E+01+
*       -2.055607265E+02               0
GRID*             159829               0-2.500000000E+005.5466987202E+01+
*       -2.039254091E+02               0
GRID*             159830               0-2.500000000E+005.1173940205E+01+
*       -2.057756380E+02               0
GRID*             159831               0-2.500000000E+005.2546221072E+01+
*       -2.041540678E+02               0
GRID*             159832               0-2.500000000E+004.8260851727E+01+
*       -2.059738300E+02               0
GRID*             159833               0-2.500000000E+004.9640475898E+01+
*       -2.043698814E+02               0
GRID*             159834               0-2.500000000E+004.5376318562E+01+
*       -2.061572551E+02               0
GRID*             159835               0-2.500000000E+004.6759214643E+01+
*       -2.045731928E+02               0
GRID*             159836               0-2.500000000E+004.2525717841E+01+
*       -2.063260134E+02               0
GRID*             159837               0-2.500000000E+004.3909981764E+01+
*       -2.047635842E+02               0
GRID*             159838               0-2.500000000E+003.9711873216E+01+
*       -2.064779414E+02               0
GRID*             159839               0-2.500000000E+004.1097985520E+01+
*       -2.049384500E+02               0
GRID*             159840               0-2.500000000E+003.6935223225E+01+
*       -2.066095593E+02               0
GRID*             159841               0-2.500000000E+003.8325693635E+01+
*       -2.050932378E+02               0
GRID*             159842               0-2.500000000E+003.4194607736E+01+
*       -2.067170777E+02               0
GRID*             159843               0-2.500000000E+003.5592900983E+01+
*       -2.052226387E+02               0
GRID*             159844               0-2.500000000E+003.1489118809E+01+
*       -2.067970158E+02               0
GRID*             159845               0-2.500000000E+003.2897767195E+01+
*       -2.053217529E+02               0
GRID*             159846               0-2.500000000E+002.8820350788E+01+
*       -2.068465460E+02               0
GRID*             159847               0-2.500000000E+003.0238698685E+01+
*       -2.053870862E+02               0
GRID*             159848               0-2.500000000E+002.6193437498E+01+
*       -2.068637338E+02               0
GRID*             159849               0-2.500000000E+002.7616054324E+01+
*       -2.054171983E+02               0
GRID*             159850               0-2.500000000E+002.3615800671E+01+
*       -2.068482286E+02               0
GRID*             159851               0-2.500000000E+002.5032297815E+01+
*       -2.054127036E+02               0
GRID*             159852               0-2.500000000E+002.1093545743E+01+
*       -2.068038435E+02               0
GRID*             159853               0-2.500000000E+002.2490028123E+01+
*       -2.053765332E+02               0
GRID*             159854               0-2.500000000E+001.8624822415E+01+
*       -2.067412896E+02               0
GRID*             159855               0-2.500000000E+001.9988684933E+01+
*       -2.053146314E+02               0
GRID*             159856               0-2.500000000E+001.7521991765E+01+
*       -2.052404276E+02               0
GRID*             159857               0-2.500000000E+001.7710652014E+01+
*       -2.022908185E+02               0
GRID*             159858               0-2.500000000E+001.8851426531E+01+
*       -2.038106633E+02               0
GRID*             159859               0-2.500000000E+001.7881710119E+01+
*       -1.993344343E+02               0
GRID*             159860               0-2.500000000E+001.9048840000E+01+
*       -2.008725906E+02               0
GRID*             159861               0-2.500000000E+001.8045438783E+01+
*       -1.963787883E+02               0
GRID*             159862               0-2.500000000E+001.9233098403E+01+
*       -1.979327495E+02               0
GRID*             159863               0-2.500000000E+001.8211248415E+01+
*       -1.934232579E+02               0
GRID*             159864               0-2.500000000E+001.9416293456E+01+
*       -1.949950108E+02               0
GRID*             159865               0-2.500000000E+001.8386039394E+01+
*       -1.904596580E+02               0
GRID*             159866               0-2.500000000E+001.9608905001E+01+
*       -1.920538820E+02               0
GRID*             159867               0-2.500000000E+001.8570125341E+01+
*       -1.874739072E+02               0
GRID*             159868               0-2.500000000E+001.9816220196E+01+
*       -1.890950182E+02               0
GRID*             159869               0-2.500000000E+001.8752206910E+01+
*       -1.844531470E+02               0
GRID*             159870               0-2.500000000E+002.0031486023E+01+
*       -1.861004107E+02               0
GRID*             159871               0-2.500000000E+001.8913269327E+01+
*       -1.813967655E+02               0
GRID*             159872               0-2.500000000E+002.0234007143E+01+
*       -1.830609309E+02               0
GRID*             159873               0-2.500000000E+001.9046558253E+01+
*       -1.783156069E+02               0
GRID*             159874               0-2.500000000E+002.0406462617E+01+
*       -1.799838189E+02               0
GRID*             159875               0-2.500000000E+001.9151546357E+01+
*       -1.752202166E+02               0
GRID*             159876               0-2.500000000E+002.0544825075E+01+
*       -1.768834390E+02               0
GRID*             159877               0-2.500000000E+001.9230184676E+01+
*       -1.721191983E+02               0
GRID*             159878               0-2.500000000E+002.0650281241E+01+
*       -1.737718518E+02               0
GRID*             159879               0-2.500000000E+001.9287436399E+01+
*       -1.690191409E+02               0
GRID*             159880               0-2.500000000E+002.0727197320E+01+
*       -1.706583809E+02               0
GRID*             159881               0-2.500000000E+001.9329258959E+01+
*       -1.659237004E+02               0
GRID*             159882               0-2.500000000E+002.0782495909E+01+
*       -1.675492060E+02               0
GRID*             159883               0-2.500000000E+001.9360941705E+01+
*       -1.628338513E+02               0
GRID*             159884               0-2.500000000E+002.0823186889E+01+
*       -1.644469515E+02               0
GRID*             159885               0-2.500000000E+001.9386446102E+01+
*       -1.597486346E+02               0
GRID*             159886               0-2.500000000E+002.0854896860E+01+
*       -1.613514540E+02               0
GRID*             159887               0-2.500000000E+001.9408391542E+01+
*       -1.566657885E+02               0
GRID*             159888               0-2.500000000E+002.0881539716E+01+
*       -1.582607430E+02               0
GRID*             159889               0-2.500000000E+001.9428279086E+01+
*       -1.535820580E+02               0
GRID*             159890               0-2.500000000E+002.0905547957E+01+
*       -1.551717033E+02               0
GRID*             159891               0-2.500000000E+001.9446700961E+01+
*       -1.504931152E+02               0
GRID*             159892               0-2.500000000E+002.0928231087E+01+
*       -1.520802992E+02               0
GRID*             159893               0-2.500000000E+001.9463345716E+01+
*       -1.473928626E+02               0
GRID*             159894               0-2.500000000E+002.0950047833E+01+
*       -1.489812959E+02               0
GRID*             159895               0-2.500000000E+001.9476842594E+01+
*       -1.442718551E+02               0
GRID*             159896               0-2.500000000E+002.0970817923E+01+
*       -1.458673976E+02               0
GRID*             159897               0-2.500000000E+001.9484950907E+01+
*       -1.411145738E+02               0
GRID*             159898               0-2.500000000E+002.0990333734E+01+
*       -1.427279271E+02               0
GRID*             159899               0-2.500000000E+001.9485308973E+01+
*       -1.378934806E+02               0
GRID*             159900               0-2.500000000E+002.1010340530E+01+
*       -1.395474103E+02               0
GRID*             159901               0-2.500000000E+001.9475915998E+01+
*       -1.345490663E+02               0
GRID*             159902               0-2.500000000E+002.1040443444E+01+
*       -1.363060254E+02               0
GRID*             159903               0-2.500000000E+002.1115499325E+01+
*       -1.329965918E+02               0
GRID*             159904               0-2.500000000E+002.4221223634E+01+
*       -1.333604312E+02               0
GRID*             159905               0-2.500000000E+002.2608248861E+01+
*       -1.348013063E+02               0
GRID*             159906               0-2.500000000E+002.7266403504E+01+
*       -1.336332492E+02               0
GRID*             159907               0-2.500000000E+002.5681730903E+01+
*       -1.350539968E+02               0
GRID*             159908               0-2.500000000E+003.0288545904E+01+
*       -1.338519103E+02               0
GRID*             159909               0-2.500000000E+002.8719864490E+01+
*       -1.352748938E+02               0
GRID*             159910               0-2.500000000E+003.3299282538E+01+
*       -1.340344676E+02               0
GRID*             159911               0-2.500000000E+003.1738816458E+01+
*       -1.354653063E+02               0
GRID*             159912               0-2.500000000E+003.6303310563E+01+
*       -1.341913670E+02               0
GRID*             159913               0-2.500000000E+003.4746741994E+01+
*       -1.356313347E+02               0
GRID*             159914               0-2.500000000E+003.9303603517E+01+
*       -1.343296770E+02               0
GRID*             159915               0-2.500000000E+003.7748007021E+01+
*       -1.357787285E+02               0
GRID*             159916               0-2.500000000E+004.2302646137E+01+
*       -1.344550139E+02               0
GRID*             159917               0-2.500000000E+004.0745439736E+01+
*       -1.359125076E+02               0
GRID*             159918               0-2.500000000E+004.5302457868E+01+
*       -1.345725095E+02               0
GRID*             159919               0-2.500000000E+004.3741057052E+01+
*       -1.360372958E+02               0
GRID*             159920               0-2.500000000E+004.8304198429E+01+
*       -1.346873295E+02               0
GRID*             159921               0-2.500000000E+004.6736055581E+01+
*       -1.361576034E+02               0
GRID*             159922               0-2.500000000E+005.1307522781E+01+
*       -1.348048888E+02               0
GRID*             159923               0-2.500000000E+004.9730463547E+01+
*       -1.362779186E+02               0
GRID*             159924               0-2.500000000E+005.4309666860E+01+
*       -1.349306659E+02               0
GRID*             159925               0-2.500000000E+005.2722623894E+01+
*       -1.364025106E+02               0
GRID*             159926               0-2.500000000E+005.7304403145E+01+
*       -1.350692118E+02               0
GRID*             159927               0-2.500000000E+005.5708684229E+01+
*       -1.365347683E+02               0
GRID*             159928               0-2.500000000E+006.0281771729E+01+
*       -1.352217112E+02               0
GRID*             159929               0-2.500000000E+005.8682536282E+01+
*       -1.366758732E+02               0
GRID*             159930               0-2.500000000E+006.3230835015E+01+
*       -1.353819220E+02               0
GRID*             159931               0-2.500000000E+006.1637012102E+01+
*       -1.368229778E+02               0
GRID*             159932               0-2.500000000E+006.6147287523E+01+
*       -1.355337770E+02               0
GRID*             159933               0-2.500000000E+006.4566714400E+01+
*       -1.369683598E+02               0
GRID*             159934               0-2.500000000E+006.9033763410E+01+
*       -1.356652376E+02               0
GRID*             159935               0-2.500000000E+006.7469897965E+01+
*       -1.371029801E+02               0
GRID*             159936               0-2.500000000E+007.1893521664E+01+
*       -1.357737575E+02               0
GRID*             159937               0-2.500000000E+007.0346936258E+01+
*       -1.372219831E+02               0
GRID*             159938               0-2.500000000E+007.4725962671E+01+
*       -1.358651933E+02               0
GRID*             159939               0-2.500000000E+007.3197399031E+01+
*       -1.373268273E+02               0
GRID*             159940               0-2.500000000E+007.7526240673E+01+
*       -1.359506670E+02               0
GRID*             159941               0-2.500000000E+007.6018706212E+01+
*       -1.374243207E+02               0
GRID*             159942               0-2.500000000E+007.8810342777E+01+
*       -1.375202997E+02               0
GRID*             159943               0-2.500000000E+007.7330177773E+01+
*       -1.389974899E+02               0
GRID*             159944               0-2.500000000E+007.8637795964E+01+
*       -1.405759681E+02               0
GRID*             159945               0-2.500000000E+007.8484657971E+01+
*       -1.436369239E+02               0
GRID*             159946               0-2.500000000E+007.7157060385E+01+
*       -1.420518519E+02               0
GRID*             159947               0-2.500000000E+007.8348213817E+01+
*       -1.467015879E+02               0
GRID*             159948               0-2.500000000E+007.7002220660E+01+
*       -1.451130520E+02               0
GRID*             159949               0-2.500000000E+007.8225977686E+01+
*       -1.497693206E+02               0
GRID*             159950               0-2.500000000E+007.6863195792E+01+
*       -1.481791616E+02               0
GRID*             159951               0-2.500000000E+007.8115792938E+01+
*       -1.528402395E+02               0
GRID*             159952               0-2.500000000E+007.6737614462E+01+
*       -1.512495125E+02               0
GRID*             159953               0-2.500000000E+007.8015922226E+01+
*       -1.559150798E+02               0
GRID*             159954               0-2.500000000E+007.6623408377E+01+
*       -1.543243728E+02               0
GRID*             159955               0-2.500000000E+007.7925183049E+01+
*       -1.589950811E+02               0
GRID*             159956               0-2.500000000E+007.6518984334E+01+
*       -1.574047473E+02               0
GRID*             159957               0-2.500000000E+007.7843159324E+01+
*       -1.620818558E+02               0
GRID*             159958               0-2.500000000E+007.6423441438E+01+
*       -1.604922301E+02               0
GRID*             159959               0-2.500000000E+007.7770507316E+01+
*       -1.651771704E+02               0
GRID*             159960               0-2.500000000E+007.6336894526E+01+
*       -1.635888178E+02               0
GRID*             159961               0-2.500000000E+007.7709335071E+01+
*       -1.682825466E+02               0
GRID*             159962               0-2.500000000E+007.6260930216E+01+
*       -1.666965709E+02               0
GRID*             159963               0-2.500000000E+007.7663487980E+01+
*       -1.713986263E+02               0
GRID*             159964               0-2.500000000E+007.6199098312E+01+
*       -1.698170054E+02               0
GRID*             159965               0-2.500000000E+007.7638385213E+01+
*       -1.745243279E+02               0
GRID*             159966               0-2.500000000E+007.6157131194E+01+
*       -1.729501467E+02               0
GRID*             159967               0-2.500000000E+007.7639807056E+01+
*       -1.776559237E+02               0
GRID*             159968               0-2.500000000E+007.6142210192E+01+
*       -1.760932453E+02               0
GRID*             159969               0-2.500000000E+007.7671149463E+01+
*       -1.807870271E+02               0
GRID*             159970               0-2.500000000E+007.6160347226E+01+
*       -1.792399257E+02               0
GRID*             159971               0-2.500000000E+007.7730701416E+01+
*       -1.839109828E+02               0
GRID*             159972               0-2.500000000E+007.6212427354E+01+
*       -1.823817492E+02               0
GRID*             159973               0-2.500000000E+007.7814136283E+01+
*       -1.870234268E+02               0
GRID*             159974               0-2.500000000E+007.6294068969E+01+
*       -1.855117099E+02               0
GRID*             159975               0-2.500000000E+007.7917171040E+01+
*       -1.901225105E+02               0
GRID*             159976               0-2.500000000E+007.6399407175E+01+
*       -1.886260953E+02               0
GRID*             159977               0-2.500000000E+007.8036680030E+01+
*       -1.932077769E+02               0
GRID*             159978               0-2.500000000E+007.6523638105E+01+
*       -1.917237120E+02               0
GRID*             159979               0-2.500000000E+007.8170784420E+01+
*       -1.962787811E+02               0
GRID*             159980               0-2.500000000E+007.6663665142E+01+
*       -1.948041523E+02               0
GRID*             159981               0-2.500000000E+007.8318621728E+01+
*       -1.993339553E+02               0
GRID*             159982               0-2.500000000E+007.6817790014E+01+
*       -1.978661846E+02               0
GRID*             159983               0-2.500000000E+007.6985656975E+01+
*       -2.009083238E+02               0
GRID*             159984               0-2.500000000E+007.4143762887E+01+
*       -2.010358171E+02               0
GRID*             159985               0-2.500000000E+007.5471200242E+01+
*       -1.994587523E+02               0
GRID*             159986               0-2.500000000E+007.1287976060E+01+
*       -2.011874541E+02               0
GRID*             159987               0-2.500000000E+007.2610681468E+01+
*       -1.996025812E+02               0
GRID*             159988               0-2.500000000E+006.8418234667E+01+
*       -2.013672316E+02               0
GRID*             159989               0-2.500000000E+006.9737536135E+01+
*       -1.997702411E+02               0
GRID*             159990               0-2.500000000E+006.5534449631E+01+
*       -2.015748711E+02               0
GRID*             159991               0-2.500000000E+006.6852588538E+01+
*       -1.999634545E+02               0
GRID*             159992               0-2.500000000E+006.2636875526E+01+
*       -2.018052063E+02               0
GRID*             159993               0-2.500000000E+006.3957291370E+01+
*       -2.001800173E+02               0
GRID*             159994               0-2.500000000E+005.9727387040E+01+
*       -2.020484778E+02               0
GRID*             159995               0-2.500000000E+006.1054018114E+01+
*       -2.004138365E+02               0
GRID*             159996               0-2.500000000E+005.6811127886E+01+
*       -2.022932888E+02               0
GRID*             159997               0-2.500000000E+005.8146588734E+01+
*       -2.006564013E+02               0
GRID*             159998               0-2.500000000E+005.3896497524E+01+
*       -2.025319266E+02               0
GRID*             159999               0-2.500000000E+005.5240638208E+01+
*       -2.008998062E+02               0
GRID*             160000               0-2.500000000E+005.0993167560E+01+
*       -2.027614215E+02               0
GRID*             160001               0-2.500000000E+005.2343444011E+01+
*       -2.011392802E+02               0
GRID*             160002               0-2.500000000E+004.8110823579E+01+
*       -2.029818033E+02               0
GRID*             160003               0-2.500000000E+004.9463515241E+01+
*       -2.013733435E+02               0
GRID*             160004               0-2.500000000E+004.5258596184E+01+
*       -2.031932258E+02               0
GRID*             160005               0-2.500000000E+004.6610205119E+01+
*       -2.016018363E+02               0
GRID*             160006               0-2.500000000E+004.2444279032E+01+
*       -2.033932212E+02               0
GRID*             160007               0-2.500000000E+004.3792893452E+01+
*       -2.018228628E+02               0
GRID*             160008               0-2.500000000E+003.9672953573E+01+
*       -2.035757524E+02               0
GRID*             160009               0-2.500000000E+004.1019247086E+01+
*       -2.020305236E+02               0
GRID*             160010               0-2.500000000E+003.6945984951E+01+
*       -2.037331172E+02               0
GRID*             160011               0-2.500000000E+003.8293244889E+01+
*       -2.022156318E+02               0
GRID*             160012               0-2.500000000E+003.4261141946E+01+
*       -2.038575209E+02               0
GRID*             160013               0-2.500000000E+003.5614225914E+01+
*       -2.023679994E+02               0
GRID*             160014               0-2.500000000E+003.1613925672E+01+
*       -2.039426059E+02               0
GRID*             160015               0-2.500000000E+003.2977300422E+01+
*       -2.024783739E+02               0
GRID*             160016               0-2.500000000E+002.8999818983E+01+
*       -2.039855411E+02               0
GRID*             160017               0-2.500000000E+003.0375045970E+01+
*       -2.025410608E+02               0
GRID*             160018               0-2.500000000E+002.6416609532E+01+
*       -2.039882260E+02               0
GRID*             160019               0-2.500000000E+002.7800374192E+01+
*       -2.025565688E+02               0
GRID*             160020               0-2.500000000E+002.3864560748E+01+
*       -2.039549231E+02               0
GRID*             160021               0-2.500000000E+002.5248872465E+01+
*       -2.025304456E+02               0
GRID*             160022               0-2.500000000E+002.1343855344E+01+
*       -2.038915475E+02               0
GRID*             160023               0-2.500000000E+002.2718387969E+01+
*       -2.024699374E+02               0
GRID*             160024               0-2.500000000E+002.0206596942E+01+
*       -2.023875794E+02               0
GRID*             160025               0-2.500000000E+002.0402720108E+01+
*       -1.994632870E+02               0
GRID*             160026               0-2.500000000E+002.1560477050E+01+
*       -2.009782758E+02               0
GRID*             160027               0-2.500000000E+002.0593294130E+01+
*       -1.965458520E+02               0
GRID*             160028               0-2.500000000E+002.1762915835E+01+
*       -1.980763896E+02               0
GRID*             160029               0-2.500000000E+002.0793093257E+01+
*       -1.936346744E+02               0
GRID*             160030               0-2.500000000E+002.1970093931E+01+
*       -1.951855156E+02               0
GRID*             160031               0-2.500000000E+002.1016135672E+01+
*       -1.907170150E+02               0
GRID*             160032               0-2.500000000E+002.2200323927E+01+
*       -1.922978073E+02               0
GRID*             160033               0-2.500000000E+002.1267723984E+01+
*       -1.877668317E+02               0
GRID*             160034               0-2.500000000E+002.2467639459E+01+
*       -1.893888285E+02               0
GRID*             160035               0-2.500000000E+002.1528538236E+01+
*       -1.847555266E+02               0
GRID*             160036               0-2.500000000E+002.2764776196E+01+
*       -1.864219475E+02               0
GRID*             160037               0-2.500000000E+002.1751360285E+01+
*       -1.816816097E+02               0
GRID*             160038               0-2.500000000E+002.3045891377E+01+
*       -1.833762053E+02               0
GRID*             160039               0-2.500000000E+002.1930394850E+01+
*       -1.785721696E+02               0
GRID*             160040               0-2.500000000E+002.3275292517E+01+
*       -1.802699604E+02               0
GRID*             160041               0-2.500000000E+002.2068435162E+01+
*       -1.754450141E+02               0
GRID*             160042               0-2.500000000E+002.3454004937E+01+
*       -1.771337446E+02               0
GRID*             160043               0-2.500000000E+002.2167473870E+01+
*       -1.723127752E+02               0
GRID*             160044               0-2.500000000E+002.3585627791E+01+
*       -1.739859375E+02               0
GRID*             160045               0-2.500000000E+002.2236253214E+01+
*       -1.691856491E+02               0
GRID*             160046               0-2.500000000E+002.3676529764E+01+
*       -1.708400434E+02               0
GRID*             160047               0-2.500000000E+002.2284858810E+01+
*       -1.660683933E+02               0
GRID*             160048               0-2.500000000E+002.3738616114E+01+
*       -1.677048364E+02               0
GRID*             160049               0-2.500000000E+002.2321464654E+01+
*       -1.629614368E+02               0
GRID*             160050               0-2.500000000E+002.3783136575E+01+
*       -1.645828785E+02               0
GRID*             160051               0-2.500000000E+002.2351666730E+01+
*       -1.598627385E+02               0
GRID*             160052               0-2.500000000E+002.3818234524E+01+
*       -1.614727214E+02               0
GRID*             160053               0-2.500000000E+002.2378922360E+01+
*       -1.567690405E+02               0
GRID*             160054               0-2.500000000E+002.3849049375E+01+
*       -1.583710361E+02               0
GRID*             160055               0-2.500000000E+002.2405190705E+01+
*       -1.536764428E+02               0
GRID*             160056               0-2.500000000E+002.3878565109E+01+
*       -1.552737800E+02               0
GRID*             160057               0-2.500000000E+002.2431464138E+01+
*       -1.505804718E+02               0
GRID*             160058               0-2.500000000E+002.3908423756E+01+
*       -1.521766154E+02               0
GRID*             160059               0-2.500000000E+002.2458134518E+01+
*       -1.474756877E+02               0
GRID*             160060               0-2.500000000E+002.3939550823E+01+
*       -1.490748636E+02               0
GRID*             160061               0-2.500000000E+002.2485434182E+01+
*       -1.443549701E+02               0
GRID*             160062               0-2.500000000E+002.3972750777E+01+
*       -1.459632601E+02               0
GRID*             160063               0-2.500000000E+002.2514622371E+01+
*       -1.412090184E+02               0
GRID*             160064               0-2.500000000E+002.4009722818E+01+
*       -1.428360613E+02               0
GRID*             160065               0-2.500000000E+002.2550848457E+01+
*       -1.380270271E+02               0
GRID*             160066               0-2.500000000E+002.4055130298E+01+
*       -1.396886351E+02               0
GRID*             160067               0-2.500000000E+002.4118653874E+01+
*       -1.365223079E+02               0
GRID*             160068               0-2.500000000E+002.7162762955E+01+
*       -1.367295831E+02               0
GRID*             160069               0-2.500000000E+002.5599685927E+01+
*       -1.381978942E+02               0
GRID*             160070               0-2.500000000E+003.0185923328E+01+
*       -1.369169993E+02               0
GRID*             160071               0-2.500000000E+002.8628821793E+01+
*       -1.383716886E+02               0
GRID*             160072               0-2.500000000E+003.3195975459E+01+
*       -1.370848073E+02               0
GRID*             160073               0-2.500000000E+003.1643082329E+01+
*       -1.385365003E+02               0
GRID*             160074               0-2.500000000E+003.6197417522E+01+
*       -1.372359582E+02               0
GRID*             160075               0-2.500000000E+003.4646650987E+01+
*       -1.386894308E+02               0
GRID*             160076               0-2.500000000E+003.9193151228E+01+
*       -1.373739973E+02               0
GRID*             160077               0-2.500000000E+003.7642561729E+01+
*       -1.388312271E+02               0
GRID*             160078               0-2.500000000E+004.2185261391E+01+
*       -1.375026259E+02               0
GRID*             160079               0-2.500000000E+004.0632972884E+01+
*       -1.389641157E+02               0
GRID*             160080               0-2.500000000E+004.5175160002E+01+
*       -1.376256380E+02               0
GRID*             160081               0-2.500000000E+004.3619364341E+01+
*       -1.390909681E+02               0
GRID*             160082               0-2.500000000E+004.8163400210E+01+
*       -1.377468727E+02               0
GRID*             160083               0-2.500000000E+004.6602504630E+01+
*       -1.392149073E+02               0
GRID*             160084               0-2.500000000E+005.1149326044E+01+
*       -1.378700454E+02               0
GRID*             160085               0-2.500000000E+004.9582262707E+01+
*       -1.393389995E+02               0
GRID*             160086               0-2.500000000E+005.4130670077E+01+
*       -1.379983346E+02               0
GRID*             160087               0-2.500000000E+005.2557372227E+01+
*       -1.394658694E+02               0
GRID*             160088               0-2.500000000E+005.7103304112E+01+
*       -1.381335809E+02               0
GRID*             160089               0-2.500000000E+005.5525289960E+01+
*       -1.395971472E+02               0
GRID*             160090               0-2.500000000E+006.0061596204E+01+
*       -1.382750566E+02               0
GRID*             160091               0-2.500000000E+005.8482364034E+01+
*       -1.397327643E+02               0
GRID*             160092               0-2.500000000E+006.2999945957E+01+
*       -1.384182955E+02               0
GRID*             160093               0-2.500000000E+006.1424530059E+01+
*       -1.398703743E+02               0
GRID*             160094               0-2.500000000E+006.5915175879E+01+
*       -1.385556692E+02               0
GRID*             160095               0-2.500000000E+006.4348407436E+01+
*       -1.400056048E+02               0
GRID*             160096               0-2.500000000E+006.8806619721E+01+
*       -1.386812434E+02               0
GRID*             160097               0-2.500000000E+006.7251897636E+01+
*       -1.401339324E+02               0
GRID*             160098               0-2.500000000E+007.1673949478E+01+
*       -1.387939264E+02               0
GRID*             160099               0-2.500000000E+007.0133632940E+01+
*       -1.402531866E+02               0
GRID*             160100               0-2.500000000E+007.4515445858E+01+
*       -1.388977050E+02               0
GRID*             160101               0-2.500000000E+007.2991996304E+01+
*       -1.403648041E+02               0
GRID*             160102               0-2.500000000E+007.5826917419E+01+
*       -1.404708742E+02               0
GRID*             160103               0-2.500000000E+007.4325740211E+01+
*       -1.419453413E+02               0
GRID*             160104               0-2.500000000E+007.5655883177E+01+
*       -1.435263190E+02               0
GRID*             160105               0-2.500000000E+007.5501976511E+01+
*       -1.465887971E+02               0
GRID*             160106               0-2.500000000E+007.4155639027E+01+
*       -1.450020641E+02               0
GRID*             160107               0-2.500000000E+007.5362649734E+01+
*       -1.496566724E+02               0
GRID*             160108               0-2.500000000E+007.4001430453E+01+
*       -1.480663079E+02               0
GRID*             160109               0-2.500000000E+007.5235500817E+01+
*       -1.527295876E+02               0
GRID*             160110               0-2.500000000E+007.3860536090E+01+
*       -1.511367476E+02               0
GRID*             160111               0-2.500000000E+007.5118467537E+01+
*       -1.558081659E+02               0
GRID*             160112               0-2.500000000E+007.3730559977E+01+
*       -1.542133807E+02               0
GRID*             160113               0-2.500000000E+007.5010020367E+01+
*       -1.588938538E+02               0
GRID*             160114               0-2.500000000E+007.3609503570E+01+
*       -1.572972724E+02               0
GRID*             160115               0-2.500000000E+007.4909448133E+01+
*       -1.619888099E+02               0
GRID*             160116               0-2.500000000E+007.3496027062E+01+
*       -1.603904335E+02               0
GRID*             160117               0-2.500000000E+007.4817334856E+01+
*       -1.650957292E+02               0
GRID*             160118               0-2.500000000E+007.3389888463E+01+
*       -1.634957212E+02               0
GRID*             160119               0-2.500000000E+007.4736276805E+01+
*       -1.682174500E+02               0
GRID*             160120               0-2.500000000E+007.3292681446E+01+
*       -1.666166083E+02               0
GRID*             160121               0-2.500000000E+007.4671769030E+01+
*       -1.713561259E+02               0
GRID*             160122               0-2.500000000E+007.3208947522E+01+
*       -1.697565705E+02               0
GRID*             160123               0-2.500000000E+007.4632758735E+01+
*       -1.745115697E+02               0
GRID*             160124               0-2.500000000E+007.3147396570E+01+
*       -1.729175489E+02               0
GRID*             160125               0-2.500000000E+007.4630380618E+01+
*       -1.776784520E+02               0
GRID*             160126               0-2.500000000E+007.3120929161E+01+
*       -1.760967764E+02               0
GRID*             160127               0-2.500000000E+007.4672107666E+01+
*       -1.808447938E+02               0
GRID*             160128               0-2.500000000E+007.3142141059E+01+
*       -1.792833201E+02               0
GRID*             160129               0-2.500000000E+007.4752324299E+01+
*       -1.839981319E+02               0
GRID*             160130               0-2.500000000E+007.3212004611E+01+
*       -1.824611765E+02               0
GRID*             160131               0-2.500000000E+007.4861387175E+01+
*       -1.871319423E+02               0
GRID*             160132               0-2.500000000E+007.3319642506E+01+
*       -1.856183643E+02               0
GRID*             160133               0-2.500000000E+007.4991477012E+01+
*       -1.902447046E+02               0
GRID*             160134               0-2.500000000E+007.3453457012E+01+
*       -1.887505515E+02               0
GRID*             160135               0-2.500000000E+007.5137811174E+01+
*       -1.933369059E+02               0
GRID*             160136               0-2.500000000E+007.3605650080E+01+
*       -1.918578985E+02               0
GRID*             160137               0-2.500000000E+007.5297973514E+01+
*       -1.964086154E+02               0
GRID*             160138               0-2.500000000E+007.3772119546E+01+
*       -1.949413690E+02               0
GRID*             160139               0-2.500000000E+007.3951383742E+01+
*       -1.980011830E+02               0
GRID*             160140               0-2.500000000E+007.1072855149E+01+
*       -1.981577084E+02               0
GRID*             160141               0-2.500000000E+007.2413557423E+01+
*       -1.965563102E+02               0
GRID*             160142               0-2.500000000E+006.8183529185E+01+
*       -1.983393183E+02               0
GRID*             160143               0-2.500000000E+006.9518848200E+01+
*       -1.967267856E+02               0
GRID*             160144               0-2.500000000E+006.5285502770E+01+
*       -1.985462065E+02               0
GRID*             160145               0-2.500000000E+006.6616443417E+01+
*       -1.969220703E+02               0
GRID*             160146               0-2.500000000E+006.2381743626E+01+
*       -1.987746652E+02               0
GRID*             160147               0-2.500000000E+006.3709955026E+01+
*       -1.971408545E+02               0
GRID*             160148               0-2.500000000E+005.9475884568E+01+
*       -1.990173713E+02               0
GRID*             160149               0-2.500000000E+006.0803610079E+01+
*       -1.973782000E+02               0
GRID*             160150               0-2.500000000E+005.6572178194E+01+
*       -1.992656033E+02               0
GRID*             160151               0-2.500000000E+005.7901474028E+01+
*       -1.976265733E+02               0
GRID*             160152               0-2.500000000E+005.3675781421E+01+
*       -1.995129971E+02               0
GRID*             160153               0-2.500000000E+005.5007321408E+01+
*       -1.978787941E+02               0
GRID*             160154               0-2.500000000E+005.0793200332E+01+
*       -1.997573662E+02               0
GRID*             160155               0-2.500000000E+005.2125537742E+01+
*       -1.981310830E+02               0
GRID*             160156               0-2.500000000E+004.7932904179E+01+
*       -1.999997825E+02               0
GRID*             160157               0-2.500000000E+004.9262589270E+01+
*       -1.983838053E+02               0
GRID*             160158               0-2.500000000E+004.5105591715E+01+
*       -2.002412611E+02               0
GRID*             160159               0-2.500000000E+004.6428290775E+01+
*       -1.986392073E+02               0
GRID*             160160               0-2.500000000E+004.2322680614E+01+
*       -2.004779259E+02               0
GRID*             160161               0-2.500000000E+004.3635378878E+01+
*       -1.988963242E+02               0
GRID*             160162               0-2.500000000E+003.9592208460E+01+
*       -2.006982361E+02               0
GRID*             160163               0-2.500000000E+004.0895641989E+01+
*       -1.991456384E+02               0
GRID*             160164               0-2.500000000E+003.6916366932E+01+
*       -2.008887290E+02               0
GRID*             160165               0-2.500000000E+003.8215330504E+01+
*       -1.993713332E+02               0
GRID*             160166               0-2.500000000E+003.4291227505E+01+
*       -2.010355860E+02               0
GRID*             160167               0-2.500000000E+003.5593368524E+01+
*       -1.995563156E+02               0
GRID*             160168               0-2.500000000E+003.1707098808E+01+
*       -2.011263966E+02               0
GRID*             160169               0-2.500000000E+003.3021025891E+01+
*       -1.996836087E+02               0
GRID*             160170               0-2.500000000E+002.9150411291E+01+
*       -2.011559415E+02               0
GRID*             160171               0-2.500000000E+003.0482464128E+01+
*       -1.997412773E+02               0
GRID*             160172               0-2.500000000E+002.6609887806E+01+
*       -2.011328800E+02               0
GRID*             160173               0-2.500000000E+002.7959924904E+01+
*       -1.997322527E+02               0
GRID*             160174               0-2.500000000E+002.4080383187E+01+
*       -2.010690913E+02               0
GRID*             160175               0-2.500000000E+002.5441398528E+01+
*       -1.996715257E+02               0
GRID*             160176               0-2.500000000E+002.2922472268E+01+
*       -1.995774297E+02               0
GRID*             160177               0-2.500000000E+002.3122840804E+01+
*       -1.967063526E+02               0
GRID*             160178               0-2.500000000E+002.4282397237E+01+
*       -1.982073927E+02               0
GRID*             160179               0-2.500000000E+002.3342092755E+01+
*       -1.938553739E+02               0
GRID*             160180               0-2.500000000E+002.4494839628E+01+
*       -1.953762109E+02               0
GRID*             160181               0-2.500000000E+002.3607103000E+01+
*       -1.910080186E+02               0
GRID*             160182               0-2.500000000E+002.4748871828E+01+
*       -1.925655851E+02               0
GRID*             160183               0-2.500000000E+002.3940036449E+01+
*       -1.881194322E+02               0
GRID*             160184               0-2.500000000E+002.5079499990E+01+
*       -1.897386223E+02               0
GRID*             160185               0-2.500000000E+002.4319405703E+01+
*       -1.851220818E+02               0
GRID*             160186               0-2.500000000E+002.5494665956E+01+
*       -1.868195665E+02               0
GRID*             160187               0-2.500000000E+002.4611753384E+01+
*       -1.820076549E+02               0
GRID*             160188               0-2.500000000E+002.5885267710E+01+
*       -1.837535314E+02               0
GRID*             160189               0-2.500000000E+002.4836867829E+01+
*       -1.788528274E+02               0
GRID*             160190               0-2.500000000E+002.6173328696E+01+
*       -1.805905219E+02               0
GRID*             160191               0-2.500000000E+002.5009327955E+01+
*       -1.756812785E+02               0
GRID*             160192               0-2.500000000E+002.6392190848E+01+
*       -1.774003613E+02               0
GRID*             160193               0-2.500000000E+002.5123937539E+01+
*       -1.725076269E+02               0
GRID*             160194               0-2.500000000E+002.6547637703E+01+
*       -1.742029679E+02               0
GRID*             160195               0-2.500000000E+002.5197342024E+01+
*       -1.693483661E+02               0
GRID*             160196               0-2.500000000E+002.6644749798E+01+
*       -1.710159496E+02               0
GRID*             160197               0-2.500000000E+002.5246760608E+01+
*       -1.662084132E+02               0
GRID*             160198               0-2.500000000E+002.6705486518E+01+
*       -1.678519428E+02               0
GRID*             160199               0-2.500000000E+002.5284119064E+01+
*       -1.630858797E+02               0
GRID*             160200               0-2.500000000E+002.6747743097E+01+
*       -1.647114143E+02               0
GRID*             160201               0-2.500000000E+002.5316493873E+01+
*       -1.599764066E+02               0
GRID*             160202               0-2.500000000E+002.6782378413E+01+
*       -1.615895648E+02               0
GRID*             160203               0-2.500000000E+002.5347777561E+01+
*       -1.568751867E+02               0
GRID*             160204               0-2.500000000E+002.6815222060E+01+
*       -1.584805572E+02               0
GRID*             160205               0-2.500000000E+002.5380015486E+01+
*       -1.537776021E+02               0
GRID*             160206               0-2.500000000E+002.6849227939E+01+
*       -1.553790087E+02               0
GRID*             160207               0-2.500000000E+002.5414299671E+01+
*       -1.506792759E+02               0
GRID*             160208               0-2.500000000E+002.6885891402E+01+
*       -1.522802625E+02               0
GRID*             160209               0-2.500000000E+002.5451392332E+01+
*       -1.475758869E+02               0
GRID*             160210               0-2.500000000E+002.6926141181E+01+
*       -1.491802992E+02               0
GRID*             160211               0-2.500000000E+002.5492404386E+01+
*       -1.444631014E+02               0
GRID*             160212               0-2.500000000E+002.6971045942E+01+
*       -1.460757282E+02               0
GRID*             160213               0-2.500000000E+002.5540005428E+01+
*       -1.413373196E+02               0
GRID*             160214               0-2.500000000E+002.7022686996E+01+
*       -1.429643597E+02               0
GRID*             160215               0-2.500000000E+002.7084561057E+01+
*       -1.398465788E+02               0
GRID*             160216               0-2.500000000E+003.0099696334E+01+
*       -1.400038978E+02               0
GRID*             160217               0-2.500000000E+002.8555435598E+01+
*       -1.414787880E+02               0
GRID*             160218               0-2.500000000E+003.3103633164E+01+
*       -1.401542795E+02               0
GRID*             160219               0-2.500000000E+003.1560247170E+01+
*       -1.416216770E+02               0
GRID*             160220               0-2.500000000E+003.6098925824E+01+
*       -1.402960642E+02               0
GRID*             160221               0-2.500000000E+003.4555908001E+01+
*       -1.417609129E+02               0
GRID*             160222               0-2.500000000E+003.9087535862E+01+
*       -1.404299811E+02               0
GRID*             160223               0-2.500000000E+003.7543899957E+01+
*       -1.418948182E+02               0
GRID*             160224               0-2.500000000E+004.2070930134E+01+
*       -1.405579551E+02               0
GRID*             160225               0-2.500000000E+004.0525493112E+01+
*       -1.420238205E+02               0
GRID*             160226               0-2.500000000E+004.5050077359E+01+
*       -1.406824884E+02               0
GRID*             160227               0-2.500000000E+004.3501643152E+01+
*       -1.421494753E+02               0
GRID*             160228               0-2.500000000E+004.8025318432E+01+
*       -1.408062428E+02               0
GRID*             160229               0-2.500000000E+004.6472891160E+01+
*       -1.422738239E+02               0
GRID*             160230               0-2.500000000E+005.0996170146E+01+
*       -1.409316525E+02               0
GRID*             160231               0-2.500000000E+004.9439225871E+01+
*       -1.423988958E+02               0
GRID*             160232               0-2.500000000E+005.3961150186E+01+
*       -1.410604764E+02               0
GRID*             160233               0-2.500000000E+005.2399948105E+01+
*       -1.425262595E+02               0
GRID*             160234               0-2.500000000E+005.6917752827E+01+
*       -1.411932644E+02               0
GRID*             160235               0-2.500000000E+005.5353613053E+01+
*       -1.426565936E+02               0
GRID*             160236               0-2.500000000E+005.9862751782E+01+
*       -1.413288386E+02               0
GRID*             160237               0-2.500000000E+005.8298140575E+01+
*       -1.427893387E+02               0
GRID*             160238               0-2.500000000E+006.2792916717E+01+
*       -1.414641505E+02               0
GRID*             160239               0-2.500000000E+006.1231138439E+01+
*       -1.429226148E+02               0
GRID*             160240               0-2.500000000E+006.5705811509E+01+
*       -1.415951345E+02               0
GRID*             160241               0-2.500000000E+006.4150320789E+01+
*       -1.430536802E+02               0
GRID*             160242               0-2.500000000E+006.8599802964E+01+
*       -1.417188479E+02               0
GRID*             160243               0-2.500000000E+006.7053716838E+01+
*       -1.431800500E+02               0
GRID*             160244               0-2.500000000E+007.1473354778E+01+
*       -1.418351174E+02               0
GRID*             160245               0-2.500000000E+006.9939524802E+01+
*       -1.433007787E+02               0
GRID*             160246               0-2.500000000E+007.2807098685E+01+
*       -1.434156547E+02               0
GRID*             160247               0-2.500000000E+007.1291479636E+01+
*       -1.448887670E+02               0
GRID*             160248               0-2.500000000E+007.2640019978E+01+
*       -1.464751764E+02               0
GRID*             160249               0-2.500000000E+007.2487336739E+01+
*       -1.495418083E+02               0
GRID*             160250               0-2.500000000E+007.1125926265E+01+
*       -1.479506768E+02               0
GRID*             160251               0-2.500000000E+007.2346289649E+01+
*       -1.526148550E+02               0
GRID*             160252               0-2.500000000E+007.0973090299E+01+
*       -1.510199157E+02               0
GRID*             160253               0-2.500000000E+007.2214368714E+01+
*       -1.556948540E+02               0
GRID*             160254               0-2.500000000E+007.0830098385E+01+
*       -1.540963282E+02               0
GRID*             160255               0-2.500000000E+007.2089484964E+01+
*       -1.587834614E+02               0
GRID*             160256               0-2.500000000E+007.0694350108E+01+
*       -1.571810430E+02               0
GRID*             160257               0-2.500000000E+007.1970252926E+01+
*       -1.618834550E+02               0
GRID*             160258               0-2.500000000E+007.0563710828E+01+
*       -1.602764828E+02               0
GRID*             160259               0-2.500000000E+007.1856564305E+01+
*       -1.649988086E+02               0
GRID*             160260               0-2.500000000E+007.0436928768E+01+
*       -1.633865423E+02               0
GRID*             160261               0-2.500000000E+007.1750690348E+01+
*       -1.681346665E+02               0
GRID*             160262               0-2.500000000E+007.0314573207E+01+
*       -1.665168668E+02               0
GRID*             160263               0-2.500000000E+007.1659291438E+01+
*       -1.712966315E+02               0
GRID*             160264               0-2.500000000E+007.0201034264E+01+
*       -1.696747275E+02               0
GRID*             160265               0-2.500000000E+007.1596095574E+01+
*       -1.744880759E+02               0
GRID*             160266               0-2.500000000E+007.0107990442E+01+
*       -1.728671584E+02               0
GRID*             160267               0-2.500000000E+007.1583193084E+01+
*       -1.777029624E+02               0
GRID*             160268               0-2.500000000E+007.0058359497E+01+
*       -1.760942618E+02               0
GRID*             160269               0-2.500000000E+007.1640952607E+01+
*       -1.809173268E+02               0
GRID*             160270               0-2.500000000E+007.0082004632E+01+
*       -1.793369690E+02               0
GRID*             160271               0-2.500000000E+007.1751093922E+01+
*       -1.841065976E+02               0
GRID*             160272               0-2.500000000E+007.0180041917E+01+
*       -1.825627479E+02               0
GRID*             160273               0-2.500000000E+007.1892991903E+01+
*       -1.872629510E+02               0
GRID*             160274               0-2.500000000E+007.0324443319E+01+
*       -1.857511843E+02               0
GRID*             160275               0-2.500000000E+007.2054009606E+01+
*       -1.903879104E+02               0
GRID*             160276               0-2.500000000E+007.0493544497E+01+
*       -1.889003099E+02               0
GRID*             160277               0-2.500000000E+007.2228212862E+01+
*       -1.934849810E+02               0
GRID*             160278               0-2.500000000E+007.0676572388E+01+
*       -1.920149929E+02               0
GRID*             160279               0-2.500000000E+007.0869650740E+01+
*       -1.950999223E+02               0
GRID*             160280               0-2.500000000E+006.7958679522E+01+
*       -1.952837424E+02               0
GRID*             160281               0-2.500000000E+006.9309482062E+01+
*       -1.936568791E+02               0
GRID*             160282               0-2.500000000E+006.5043700109E+01+
*       -1.954943645E+02               0
GRID*             160283               0-2.500000000E+006.6385936213E+01+
*       -1.938560365E+02               0
GRID*             160284               0-2.500000000E+006.2130337698E+01+
*       -1.957291422E+02               0
GRID*             160285               0-2.500000000E+006.3464082780E+01+
*       -1.940826522E+02               0
GRID*             160286               0-2.500000000E+005.9223975216E+01+
*       -1.959808506E+02               0
GRID*             160287               0-2.500000000E+006.0550702834E+01+
*       -1.943317928E+02               0
GRID*             160288               0-2.500000000E+005.6327906443E+01+
*       -1.962396065E+02               0
GRID*             160289               0-2.500000000E+005.7650407631E+01+
*       -1.945938838E+02               0
GRID*             160290               0-2.500000000E+005.3443835437E+01+
*       -1.964986125E+02               0
GRID*             160291               0-2.500000000E+005.4764420472E+01+
*       -1.948594249E+02               0
GRID*             160292               0-2.500000000E+005.0574367453E+01+
*       -1.967572870E+02               0
GRID*             160293               0-2.500000000E+005.1892665148E+01+
*       -1.951248165E+02               0
GRID*             160294               0-2.500000000E+004.7726049630E+01+
*       -1.970207897E+02               0
GRID*             160295               0-2.500000000E+004.9037827813E+01+
*       -1.953942714E+02               0
GRID*             160296               0-2.500000000E+004.4912305614E+01+
*       -1.972958762E+02               0
GRID*             160297               0-2.500000000E+004.6210064468E+01+
*       -1.956774586E+02               0
GRID*             160298               0-2.500000000E+004.2152094531E+01+
*       -1.975807743E+02               0
GRID*             160299               0-2.500000000E+004.3429021267E+01+
*       -1.959803263E+02               0
GRID*             160300               0-2.500000000E+003.9458523375E+01+
*       -1.978529405E+02               0
GRID*             160301               0-2.500000000E+004.0714975918E+01+
*       -1.962880764E+02               0
GRID*             160302               0-2.500000000E+003.6835098459E+01+
*       -1.980917621E+02               0
GRID*             160303               0-2.500000000E+003.8078291331E+01+
*       -1.965733694E+02               0
GRID*             160304               0-2.500000000E+003.4277102898E+01+
*       -1.982754263E+02               0
GRID*             160305               0-2.500000000E+003.5518832833E+01+
*       -1.968108728E+02               0
GRID*             160306               0-2.500000000E+003.1769050167E+01+
*       -1.983784398E+02               0
GRID*             160307               0-2.500000000E+003.3025127175E+01+
*       -1.969702574E+02               0
GRID*             160308               0-2.500000000E+002.9281657928E+01+
*       -1.983835665E+02               0
GRID*             160309               0-2.500000000E+003.0568243968E+01+
*       -1.970207290E+02               0
GRID*             160310               0-2.500000000E+002.6788807440E+01+
*       -1.983172249E+02               0
GRID*             160311               0-2.500000000E+002.8110540464E+01+
*       -1.969685386E+02               0
GRID*             160312               0-2.500000000E+002.5629806149E+01+
*       -1.968530918E+02               0
GRID*             160313               0-2.500000000E+002.5844664335E+01+
*       -1.940806364E+02               0
GRID*             160314               0-2.500000000E+002.6979630855E+01+
*       -1.955575174E+02               0
GRID*             160315               0-2.500000000E+002.6131943066E+01+
*       -1.913413041E+02               0
GRID*             160316               0-2.500000000E+002.7227735573E+01+
*       -1.928563554E+02               0
GRID*             160317               0-2.500000000E+002.6558221424E+01+
*       -1.885700305E+02               0
GRID*             160318               0-2.500000000E+002.7610664500E+01+
*       -1.901727123E+02               0
GRID*             160319               0-2.500000000E+002.7166387499E+01+
*       -1.856015222E+02               0
GRID*             160320               0-2.500000000E+002.8229942967E+01+
*       -1.873519862E+02               0
GRID*             160321               0-2.500000000E+002.7514130814E+01+
*       -1.823781996E+02               0
GRID*             160322               0-2.500000000E+002.8795250603E+01+
*       -1.842261905E+02               0
GRID*             160323               0-2.500000000E+002.7774649769E+01+
*       -1.791535484E+02               0
GRID*             160324               0-2.500000000E+002.9115451886E+01+
*       -1.809412261E+02               0
GRID*             160325               0-2.500000000E+002.7989649381E+01+
*       -1.759227778E+02               0
GRID*             160326               0-2.500000000E+002.9372108302E+01+
*       -1.776759649E+02               0
GRID*             160327               0-2.500000000E+002.8108902924E+01+
*       -1.726920844E+02               0
GRID*             160328               0-2.500000000E+002.9550914602E+01+
*       -1.744118942E+02               0
GRID*             160329               0-2.500000000E+002.8174149523E+01+
*       -1.694957242E+02               0
GRID*             160330               0-2.500000000E+002.9638302649E+01+
*       -1.711718589E+02               0
GRID*             160331               0-2.500000000E+002.8215314611E+01+
*       -1.663347112E+02               0
GRID*             160332               0-2.500000000E+002.9683977617E+01+
*       -1.679784925E+02               0
GRID*             160333               0-2.500000000E+002.8248069470E+01+
*       -1.632007148E+02               0
GRID*             160334               0-2.500000000E+002.9715640984E+01+
*       -1.648240117E+02               0
GRID*             160335               0-2.500000000E+002.8279768987E+01+
*       -1.600850316E+02               0
GRID*             160336               0-2.500000000E+002.9745460043E+01+
*       -1.616961815E+02               0
GRID*             160337               0-2.500000000E+002.8313727497E+01+
*       -1.569806512E+02               0
GRID*             160338               0-2.500000000E+002.9778274424E+01+
*       -1.585851256E+02               0
GRID*             160339               0-2.500000000E+002.8351389673E+01+
*       -1.538821710E+02               0
GRID*             160340               0-2.500000000E+002.9815889231E+01+
*       -1.554838135E+02               0
GRID*             160341               0-2.500000000E+002.8393453969E+01+
*       -1.507854052E+02               0
GRID*             160342               0-2.500000000E+002.9858952240E+01+
*       -1.523873137E+02               0
GRID*             160343               0-2.500000000E+002.8440545937E+01+
*       -1.476871130E+02               0
GRID*             160344               0-2.500000000E+002.9907858725E+01+
*       -1.492922191E+02               0
GRID*             160345               0-2.500000000E+002.8493826783E+01+
*       -1.445851052E+02               0
GRID*             160346               0-2.500000000E+002.9963326778E+01+
*       -1.461964900E+02               0
GRID*             160347               0-2.500000000E+003.0026575385E+01+
*       -1.430995335E+02               0
GRID*             160348               0-2.500000000E+003.3021501506E+01+
*       -1.432344249E+02               0
GRID*             160349               0-2.500000000E+003.1487829721E+01+
*       -1.447122813E+02               0
GRID*             160350               0-2.500000000E+003.6008376467E+01+
*       -1.433661119E+02               0
GRID*             160351               0-2.500000000E+003.4473969972E+01+
*       -1.448396239E+02               0
GRID*             160352               0-2.500000000E+003.8988144852E+01+
*       -1.434938958E+02               0
GRID*             160353               0-2.500000000E+003.7452621362E+01+
*       -1.449651895E+02               0
GRID*             160354               0-2.500000000E+004.1961650827E+01+
*       -1.436186073E+02               0
GRID*             160355               0-2.500000000E+004.0424302567E+01+
*       -1.450886827E+02               0
GRID*             160356               0-2.500000000E+004.4929551028E+01+
*       -1.437418787E+02               0
GRID*             160357               0-2.500000000E+004.3389558702E+01+
*       -1.452110107E+02               0
GRID*             160358               0-2.500000000E+004.7892197242E+01+
*       -1.438655730E+02               0
GRID*             160359               0-2.500000000E+004.6348857110E+01+
*       -1.453336279E+02               0
GRID*             160360               0-2.500000000E+005.0849492348E+01+
*       -1.439912988E+02               0
GRID*             160361               0-2.500000000E+004.9302463719E+01+
*       -1.454579761E+02               0
GRID*             160362               0-2.500000000E+005.3800767624E+01+
*       -1.441199819E+02               0
GRID*             160363               0-2.500000000E+005.2250311867E+01+
*       -1.455850212E+02               0
GRID*             160364               0-2.500000000E+005.6744749823E+01+
*       -1.442515189E+02               0
GRID*             160365               0-2.500000000E+005.5191904394E+01+
*       -1.457149072E+02               0
GRID*             160366               0-2.500000000E+005.9679685514E+01+
*       -1.443846128E+02               0
GRID*             160367               0-2.500000000E+005.8126294763E+01+
*       -1.458467930E+02               0
GRID*             160368               0-2.500000000E+006.2603617167E+01+
*       -1.445169732E+02               0
GRID*             160369               0-2.500000000E+006.1052164242E+01+
*       -1.459789711E+02               0
GRID*             160370               0-2.500000000E+006.5514654247E+01+
*       -1.446460531E+02               0
GRID*             160371               0-2.500000000E+006.3967950625E+01+
*       -1.461093460E+02               0
GRID*             160372               0-2.500000000E+006.8411010047E+01+
*       -1.447701927E+02               0
GRID*             160373               0-2.500000000E+006.6871947457E+01+
*       -1.462361958E+02               0
GRID*             160374               0-2.500000000E+006.9762964881E+01+
*       -1.463581810E+02               0
GRID*             160375               0-2.500000000E+006.8237607134E+01+
*       -1.478304842E+02               0
GRID*             160376               0-2.500000000E+006.9600568518E+01+
*       -1.494229800E+02               0
GRID*             160377               0-2.500000000E+006.9448846428E+01+
*       -1.524946828E+02               0
GRID*             160378               0-2.500000000E+006.8076324646E+01+
*       -1.508977471E+02               0
GRID*             160379               0-2.500000000E+006.9304714345E+01+
*       -1.555737393E+02               0
GRID*             160380               0-2.500000000E+006.7923462387E+01+
*       -1.539720939E+02               0
GRID*             160381               0-2.500000000E+006.9165297684E+01+
*       -1.586619084E+02               0
GRID*             160382               0-2.500000000E+006.7775661921E+01+
*       -1.570546047E+02               0
GRID*             160383               0-2.500000000E+006.9028031324E+01+
*       -1.617624553E+02               0
GRID*             160384               0-2.500000000E+006.7629618181E+01+
*       -1.601478809E+02               0
GRID*             160385               0-2.500000000E+006.8891075668E+01+
*       -1.648807748E+02               0
GRID*             160386               0-2.500000000E+006.7482178225E+01+
*       -1.632566878E+02               0
GRID*             160387               0-2.500000000E+006.8754486814E+01+
*       -1.680254016E+02               0
GRID*             160388               0-2.500000000E+006.7330989275E+01+
*       -1.663893097E+02               0
GRID*             160389               0-2.500000000E+006.8623560383E+01+
*       -1.712083353E+02               0
GRID*             160390               0-2.500000000E+006.7177012933E+01+
*       -1.695590095E+02               0
GRID*             160391               0-2.500000000E+006.8515604202E+01+
*       -1.744430322E+02               0
GRID*             160392               0-2.500000000E+006.7031174143E+01+
*       -1.727842091E+02               0
GRID*             160393               0-2.500000000E+006.8473167848E+01+
*       -1.777298911E+02               0
GRID*             160394               0-2.500000000E+006.6930412552E+01+
*       -1.760786614E+02               0
GRID*             160395               0-2.500000000E+006.8564514669E+01+
*       -1.810161030E+02               0
GRID*             160396               0-2.500000000E+006.6955677884E+01+
*       -1.794090250E+02               0
GRID*             160397               0-2.500000000E+006.8723852133E+01+
*       -1.842487172E+02               0
GRID*             160398               0-2.500000000E+006.7108324885E+01+
*       -1.827020724E+02               0
GRID*             160399               0-2.500000000E+006.8910012507E+01+
*       -1.874257734E+02               0
GRID*             160400               0-2.500000000E+006.7309421320E+01+
*       -1.859233063E+02               0
GRID*             160401               0-2.500000000E+006.9106765029E+01+
*       -1.905586153E+02               0
GRID*             160402               0-2.500000000E+006.7523233038E+01+
*       -1.890840788E+02               0
GRID*             160403               0-2.500000000E+006.7739674702E+01+
*       -1.922005014E+02               0
GRID*             160404               0-2.500000000E+006.4801927508E+01+
*       -1.924180625E+02               0
GRID*             160405               0-2.500000000E+006.6155665997E+01+
*       -1.907625273E+02               0
GRID*             160406               0-2.500000000E+006.1873468623E+01+
*       -1.926671405E+02               0
GRID*             160407               0-2.500000000E+006.3211313351E+01+
*       -1.910025508E+02               0
GRID*             160408               0-2.500000000E+005.8963571931E+01+
*       -1.929386098E+02               0
GRID*             160409               0-2.500000000E+006.0286337719E+01+
*       -1.912739575E+02               0
GRID*             160410               0-2.500000000E+005.6074376837E+01+
*       -1.932155412E+02               0
GRID*             160411               0-2.500000000E+005.7387541136E+01+
*       -1.915602671E+02               0
GRID*             160412               0-2.500000000E+005.3201593280E+01+
*       -1.934875658E+02               0
GRID*             160413               0-2.500000000E+005.4511549645E+01+
*       -1.918436821E+02               0
GRID*             160414               0-2.500000000E+005.0340323476E+01+
*       -1.937559496E+02               0
GRID*             160415               0-2.500000000E+005.1649251608E+01+
*       -1.921186989E+02               0
GRID*             160416               0-2.500000000E+004.7491325060E+01+
*       -1.940336262E+02               0
GRID*             160417               0-2.500000000E+004.8793820723E+01+
*       -1.923953043E+02               0
GRID*             160418               0-2.500000000E+004.4671095773E+01+
*       -1.943435972E+02               0
GRID*             160419               0-2.500000000E+004.5952356365E+01+
*       -1.926997647E+02               0
GRID*             160420               0-2.500000000E+004.1918223250E+01+
*       -1.947009509E+02               0
GRID*             160421               0-2.500000000E+004.3160297756E+01+
*       -1.930642218E+02               0
GRID*             160422               0-2.500000000E+003.9254406460E+01+
*       -1.950480393E+02               0
GRID*             160423               0-2.500000000E+004.0457653792E+01+
*       -1.934609139E+02               0
GRID*             160424               0-2.500000000E+003.6683577710E+01+
*       -1.953603669E+02               0
GRID*             160425               0-2.500000000E+003.7859692839E+01+
*       -1.938350369E+02               0
GRID*             160426               0-2.500000000E+003.4205011042E+01+
*       -1.956112567E+02               0
GRID*             160427               0-2.500000000E+003.5369755919E+01+
*       -1.941607508E+02               0
GRID*             160428               0-2.500000000E+003.1802946192E+01+
*       -1.957491044E+02               0
GRID*             160429               0-2.500000000E+003.2982830059E+01+
*       -1.943901036E+02               0
GRID*             160430               0-2.500000000E+002.9413942424E+01+
*       -1.957017583E+02               0
GRID*             160431               0-2.500000000E+003.0648644649E+01+
*       -1.944301336E+02               0
GRID*             160432               0-2.500000000E+002.8283032815E+01+
*       -1.942907371E+02               0
GRID*             160433               0-2.500000000E+002.8538657511E+01+
*       -1.917115428E+02               0
GRID*             160434               0-2.500000000E+002.9593954754E+01+
*       -1.931459244E+02               0
GRID*             160435               0-2.500000000E+002.9017385717E+01+
*       -1.891828578E+02               0
GRID*             160436               0-2.500000000E+002.9945378729E+01+
*       -1.907216883E+02               0
GRID*             160437               0-2.500000000E+003.0234116406E+01+
*       -1.863408975E+02               0
GRID*             160438               0-2.500000000E+003.1021559156E+01+
*       -1.881717691E+02               0
GRID*             160439               0-2.500000000E+003.0476887361E+01+
*       -1.827625083E+02               0
GRID*             160440               0-2.500000000E+003.1915753164E+01+
*       -1.848772153E+02               0
GRID*             160441               0-2.500000000E+003.0736186181E+01+
*       -1.794617888E+02               0
GRID*             160442               0-2.500000000E+003.2097621656E+01+
*       -1.812830710E+02               0
GRID*             160443               0-2.500000000E+003.1041814392E+01+
*       -1.761640687E+02               0
GRID*             160444               0-2.500000000E+003.2405892272E+01+
*       -1.779498926E+02               0
GRID*             160445               0-2.500000000E+003.1133590931E+01+
*       -1.728455257E+02               0
GRID*             160446               0-2.500000000E+003.2624490721E+01+
*       -1.745977001E+02               0
GRID*             160447               0-2.500000000E+003.1166816281E+01+
*       -1.696105947E+02               0
GRID*             160448               0-2.500000000E+003.2662104563E+01+
*       -1.712842614E+02               0
GRID*             160449               0-2.500000000E+003.1187420026E+01+
*       -1.664362920E+02               0
GRID*             160450               0-2.500000000E+003.2670258690E+01+
*       -1.680683942E+02               0
GRID*             160451               0-2.500000000E+003.1210044195E+01+
*       -1.632993253E+02               0
GRID*             160452               0-2.500000000E+003.2681823237E+01+
*       -1.649116056E+02               0
GRID*             160453               0-2.500000000E+003.1238808395E+01+
*       -1.601844119E+02               0
GRID*             160454               0-2.500000000E+003.2703392547E+01+
*       -1.617875557E+02               0
GRID*             160455               0-2.500000000E+003.1274663637E+01+
*       -1.570822677E+02               0
GRID*             160456               0-2.500000000E+003.2735197607E+01+
*       -1.586815540E+02               0
GRID*             160457               0-2.500000000E+003.1317552441E+01+
*       -1.539870403E+02               0
GRID*             160458               0-2.500000000E+003.2776326847E+01+
*       -1.555854946E+02               0
GRID*             160459               0-2.500000000E+003.1367260080E+01+
*       -1.508949574E+02               0
GRID*             160460               0-2.500000000E+003.2825860281E+01+
*       -1.524946840E+02               0
GRID*             160461               0-2.500000000E+003.1423845223E+01+
*       -1.478037365E+02               0
GRID*             160462               0-2.500000000E+003.2883246579E+01+
*       -1.494064748E+02               0
GRID*             160463               0-2.500000000E+003.2948348167E+01+
*       -1.463195278E+02               0
GRID*             160464               0-2.500000000E+003.5925812985E+01+
*       -1.464418183E+02               0
GRID*             160465               0-2.500000000E+003.4400191180E+01+
*       -1.479217222E+02               0
GRID*             160466               0-2.500000000E+003.8895826119E+01+
*       -1.465626013E+02               0
GRID*             160467               0-2.500000000E+003.7369017742E+01+
*       -1.480392301E+02               0
GRID*             160468               0-2.500000000E+004.1858723352E+01+
*       -1.466823692E+02               0
GRID*             160469               0-2.500000000E+004.0330246904E+01+
*       -1.481562878E+02               0
GRID*             160470               0-2.500000000E+004.4814982861E+01+
*       -1.468024467E+02               0
GRID*             160471               0-2.500000000E+004.3284147510E+01+
*       -1.482738051E+02               0
GRID*             160472               0-2.500000000E+004.7765128583E+01+
*       -1.469243702E+02               0
GRID*             160473               0-2.500000000E+004.6231254334E+01+
*       -1.483931890E+02               0
GRID*             160474               0-2.500000000E+005.0709584074E+01+
*       -1.470493533E+02               0
GRID*             160475               0-2.500000000E+004.9172248937E+01+
*       -1.485157474E+02               0
GRID*             160476               0-2.500000000E+005.3648511694E+01+
*       -1.471778722E+02               0
GRID*             160477               0-2.500000000E+005.2107783901E+01+
*       -1.486422043E+02               0
GRID*             160478               0-2.500000000E+005.6581682991E+01+
*       -1.473094233E+02               0
GRID*             160479               0-2.500000000E+005.5038290291E+01+
*       -1.487723883E+02               0
GRID*             160480               0-2.500000000E+005.9508420941E+01+
*       -1.474425304E+02               0
GRID*             160481               0-2.500000000E+005.7963809169E+01+
*       -1.489051607E+02               0
GRID*             160482               0-2.500000000E+006.2427623843E+01+
*       -1.475750772E+02               0
GRID*             160483               0-2.500000000E+006.0883880542E+01+
*       -1.490386365E+02               0
GRID*             160484               0-2.500000000E+006.5337834342E+01+
*       -1.477049713E+02               0
GRID*             160485               0-2.500000000E+006.3797507560E+01+
*       -1.491707024E+02               0
GRID*             160486               0-2.500000000E+006.6703494019E+01+
*       -1.492992597E+02               0
GRID*             160487               0-2.500000000E+006.4147838581E+01+
*       -1.693909270E+02               0
GRID*             160488               0-2.500000000E+006.2521589948E+01+
*       -1.708546313E+02               0
GRID*             160489               0-2.500000000E+006.1145895366E+01+
*       -1.691476712E+02               0
GRID*             160490               0-2.500000000E+006.2772143999E+01+
*       -1.676839670E+02               0
GRID*             160491               0-2.500000000E+005.9546120368E+01+
*       -1.705314020E+02               0
GRID*             160492               0-2.500000000E+005.8231327717E+01+
*       -1.688265601E+02               0
GRID*             160493               0-2.500000000E+005.9831102715E+01+
*       -1.674428294E+02               0
GRID*             160494               0-2.500000000E+005.6685392907E+01+
*       -1.701786831E+02               0
GRID*             160495               0-2.500000000E+005.5403112150E+01+
*       -1.685411935E+02               0
GRID*             160496               0-2.500000000E+005.6949046960E+01+
*       -1.671890704E+02               0
GRID*             160497               0-2.500000000E+005.3908022091E+01+
*       -1.698992336E+02               0
GRID*             160498               0-2.500000000E+005.2621227478E+01+
*       -1.683237668E+02               0
GRID*             160499               0-2.500000000E+005.4116317537E+01+
*       -1.669657266E+02               0
GRID*             160500               0-2.500000000E+005.1164434057E+01+
*       -1.697056809E+02               0
GRID*             160501               0-2.500000000E+004.9853783874E+01+
*       -1.681727540E+02               0
GRID*             160502               0-2.500000000E+005.1310577295E+01+
*       -1.667908399E+02               0
GRID*             160503               0-2.500000000E+004.8423409137E+01+
*       -1.695861702E+02               0
GRID*             160504               0-2.500000000E+004.7081058265E+01+
*       -1.680796192E+02               0
GRID*             160505               0-2.500000000E+004.8511433003E+01+
*       -1.666662030E+02               0
GRID*             160506               0-2.500000000E+004.5666982696E+01+
*       -1.695289706E+02               0
GRID*             160507               0-2.500000000E+004.4289012554E+01+
*       -1.680366112E+02               0
GRID*             160508               0-2.500000000E+004.5703088124E+01+
*       -1.665872598E+02               0
GRID*             160509               0-2.500000000E+004.2880045597E+01+
*       -1.695272367E+02               0
GRID*             160510               0-2.500000000E+004.1463306823E+01+
*       -1.680375240E+02               0
GRID*             160511               0-2.500000000E+004.2872273781E+01+
*       -1.665468985E+02               0
GRID*             160512               0-2.500000000E+004.0043520930E+01+
*       -1.695737867E+02               0
GRID*             160513               0-2.500000000E+003.8587182446E+01+
*       -1.680702825E+02               0
GRID*             160514               0-2.500000000E+004.0006968339E+01+
*       -1.665340198E+02               0
GRID*             160515               0-2.500000000E+003.7137235638E+01+
*       -1.696437238E+02               0
GRID*             160516               0-2.500000000E+003.5649342849E+01+
*       -1.681021933E+02               0
GRID*             160517               0-2.500000000E+003.7099289657E+01+
*       -1.665287520E+02               0
GRID*             160518               0-2.500000000E+003.4165599631E+01+
*       -1.696684664E+02               0
GRID*             160519               0-2.500000000E+003.4154001909E+01+
*       -1.665021211E+02               0
GRID*             160520               0-2.500000000E+003.4163764245E+01+
*       -1.633769614E+02               0
GRID*             160521               0-2.500000000E+003.5635942916E+01+
*       -1.649674769E+02               0
GRID*             160522               0-2.500000000E+003.4189468911E+01+
*       -1.602722014E+02               0
GRID*             160523               0-2.500000000E+003.5649840609E+01+
*       -1.618616071E+02               0
GRID*             160524               0-2.500000000E+003.4227822741E+01+
*       -1.571783375E+02               0
GRID*             160525               0-2.500000000E+003.5682094045E+01+
*       -1.587689848E+02               0
GRID*             160526               0-2.500000000E+003.4276571902E+01+
*       -1.540902862E+02               0
GRID*             160527               0-2.500000000E+003.5728067797E+01+
*       -1.556831292E+02               0
GRID*             160528               0-2.500000000E+003.4334285022E+01+
*       -1.510052527E+02               0
GRID*             160529               0-2.500000000E+003.5784996643E+01+
*       -1.526008549E+02               0
GRID*             160530               0-2.500000000E+003.5851229623E+01+
*       -1.495205001E+02               0
GRID*             160531               0-2.500000000E+003.8811226125E+01+
*       -1.496337834E+02               0
GRID*             160532               0-2.500000000E+003.7293438006E+01+
*       -1.511150534E+02               0
GRID*             160533               0-2.500000000E+004.1763094846E+01+
*       -1.497472907E+02               0
GRID*             160534               0-2.500000000E+004.0244074067E+01+
*       -1.512247864E+02               0
GRID*             160535               0-2.500000000E+004.4707254548E+01+
*       -1.498626252E+02               0
GRID*             160536               0-2.500000000E+004.3186201884E+01+
*       -1.513361108E+02               0
GRID*             160537               0-2.500000000E+004.7644555745E+01+
*       -1.499815014E+02               0
GRID*             160538               0-2.500000000E+004.6120555959E+01+
*       -1.514509376E+02               0
GRID*             160539               0-2.500000000E+005.0576094760E+01+
*       -1.501051457E+02               0
GRID*             160540               0-2.500000000E+004.9048401567E+01+
*       -1.515708997E+02               0
GRID*             160541               0-2.500000000E+005.3502967547E+01+
*       -1.502338593E+02               0
GRID*             160542               0-2.500000000E+005.1971278406E+01+
*       -1.516968008E+02               0
GRID*             160543               0-2.500000000E+005.6426002857E+01+
*       -1.503668132E+02               0
GRID*             160544               0-2.500000000E+005.4890680114E+01+
*       -1.518282842E+02               0
GRID*             160545               0-2.500000000E+005.9345517519E+01+
*       -1.505021372E+02               0
GRID*             160546               0-2.500000000E+005.7807711207E+01+
*       -1.519637896E+02               0
GRID*             160547               0-2.500000000E+006.2261144992E+01+
*       -1.506373403E+02               0
GRID*             160548               0-2.500000000E+006.0722781968E+01+
*       -1.521008410E+02               0
GRID*             160549               0-2.500000000E+006.5171817483E+01+
*       -1.507699914E+02               0
GRID*             160550               0-2.500000000E+006.3635454915E+01+
*       -1.522366292E+02               0
GRID*             160551               0-2.500000000E+006.6544648111E+01+
*       -1.523684788E+02               0
GRID*             160552               0-2.500000000E+006.6391626968E+01+
*       -1.554442431E+02               0
GRID*             160553               0-2.500000000E+006.5012812691E+01+
*       -1.538406281E+02               0
GRID*             160554               0-2.500000000E+006.6240673071E+01+
*       -1.585281567E+02               0
GRID*             160555               0-2.500000000E+006.4856638118E+01+
*       -1.569177950E+02               0
GRID*             160556               0-2.500000000E+006.6087611626E+01+
*       -1.616234212E+02               0
GRID*             160557               0-2.500000000E+006.4698666517E+01+
*       -1.600036970E+02               0
GRID*             160558               0-2.500000000E+006.5927710032E+01+
*       -1.647362087E+02               0
GRID*             160559               0-2.500000000E+006.4533143434E+01+
*       -1.631029421E+02               0
GRID*             160560               0-2.500000000E+006.5755685825E+01+
*       -1.678785953E+02               0
GRID*             160561               0-2.500000000E+006.4352406582E+01+
*       -1.662254943E+02               0
GRID*             160562               0-2.500000000E+006.5569165689E+01+
*       -1.710713412E+02               0
GRID*             160563               0-2.500000000E+006.2977055401E+01+
*       -1.645631610E+02               0
GRID*             160564               0-2.500000000E+006.1396792818E+01+
*       -1.660216336E+02               0
GRID*             160565               0-2.500000000E+005.8485955627E+01+
*       -1.657884547E+02               0
GRID*             160566               0-2.500000000E+006.0051645730E+01+
*       -1.643672590E+02               0
GRID*             160567               0-2.500000000E+005.5621879875E+01+
*       -1.655661937E+02               0
GRID*             160568               0-2.500000000E+005.7158788542E+01+
*       -1.641655780E+02               0
GRID*             160569               0-2.500000000E+005.2789241161E+01+
*       -1.653786108E+02               0
GRID*             160570               0-2.500000000E+005.4294803499E+01+
*       -1.639790779E+02               0
GRID*             160571               0-2.500000000E+004.9970107139E+01+
*       -1.652330406E+02               0
GRID*             160572               0-2.500000000E+005.1448771005E+01+
*       -1.638208114E+02               0
GRID*             160573               0-2.500000000E+004.7149500504E+01+
*       -1.651284021E+02               0
GRID*             160574               0-2.500000000E+004.8608174640E+01+
*       -1.636952397E+02               0
GRID*             160575               0-2.500000000E+004.4315163866E+01+
*       -1.650598358E+02               0
GRID*             160576               0-2.500000000E+004.5761576245E+01+
*       -1.636009782E+02               0
GRID*             160577               0-2.500000000E+004.1456277433E+01+
*       -1.650197447E+02               0
GRID*             160578               0-2.500000000E+004.2899167518E+01+
*       -1.635326821E+02               0
GRID*             160579               0-2.500000000E+003.8563957252E+01+
*       -1.649955855E+02               0
GRID*             160580               0-2.500000000E+004.0013266346E+01+
*       -1.634813105E+02               0
GRID*             160581               0-2.500000000E+003.7100610511E+01+
*       -1.634343104E+02               0
GRID*             160582               0-2.500000000E+003.7126914282E+01+
*       -1.603495737E+02               0
GRID*             160583               0-2.500000000E+003.8577684185E+01+
*       -1.619222771E+02               0
GRID*             160584               0-2.500000000E+003.7170349698E+01+
*       -1.572694831E+02               0
GRID*             160585               0-2.500000000E+003.8615169936E+01+
*       -1.588500720E+02               0
GRID*             160586               0-2.500000000E+003.7226689575E+01+
*       -1.541917155E+02               0
GRID*             160587               0-2.500000000E+003.8668971476E+01+
*       -1.557780694E+02               0
GRID*             160588               0-2.500000000E+003.8735130937E+01+
*       -1.527059140E+02               0
GRID*             160589               0-2.500000000E+004.1675726735E+01+
*       -1.528116129E+02               0
GRID*             160590               0-2.500000000E+004.0166783605E+01+
*       -1.542927406E+02               0
GRID*             160591               0-2.500000000E+004.4607108065E+01+
*       -1.529205240E+02               0
GRID*             160592               0-2.500000000E+004.3096632915E+01+
*       -1.543960261E+02               0
GRID*             160593               0-2.500000000E+004.7530632676E+01+
*       -1.530350878E+02               0
GRID*             160594               0-2.500000000E+004.6017184782E+01+
*       -1.545046742E+02               0
GRID*             160595               0-2.500000000E+005.0448291350E+01+
*       -1.531569635E+02               0
GRID*             160596               0-2.500000000E+004.8930522459E+01+
*       -1.546211516E+02               0
GRID*             160597               0-2.500000000E+005.3362349220E+01+
*       -1.532865203E+02               0
GRID*             160598               0-2.500000000E+005.1839362163E+01+
*       -1.547466830E+02               0
GRID*             160599               0-2.500000000E+005.6274909958E+01+
*       -1.534226038E+02               0
GRID*             160600               0-2.500000000E+005.4746579064E+01+
*       -1.548808399E+02               0
GRID*             160601               0-2.500000000E+005.9187442482E+01+
*       -1.535626420E+02               0
GRID*             160602               0-2.500000000E+005.7654641234E+01+
*       -1.550214562E+02               0
GRID*             160603               0-2.500000000E+006.2100340874E+01+
*       -1.537031721E+02               0
GRID*             160604               0-2.500000000E+006.0565001388E+01+
*       -1.551649731E+02               0
GRID*             160605               0-2.500000000E+006.3477698650E+01+
*       -1.553071710E+02               0
GRID*             160606               0-2.500000000E+006.3319616644E+01+
*       -1.583831316E+02               0
GRID*             160607               0-2.500000000E+006.1940677177E+01+
*       -1.567725075E+02               0
GRID*             160608               0-2.500000000E+006.3155508159E+01+
*       -1.614667032E+02               0
GRID*             160609               0-2.500000000E+006.1776458287E+01+
*       -1.598461377E+02               0
GRID*             160610               0-2.500000000E+006.1599420126E+01+
*       -1.629269221E+02               0
GRID*             160611               0-2.500000000E+006.0237843569E+01+
*       -1.612973957E+02               0
GRID*             160612               0-2.500000000E+005.8690069173E+01+
*       -1.627377326E+02               0
GRID*             160613               0-2.500000000E+005.5806589179E+01+
*       -1.625532436E+02               0
GRID*             160614               0-2.500000000E+005.7337869810E+01+
*       -1.611253981E+02               0
GRID*             160615               0-2.500000000E+005.2942352317E+01+
*       -1.623877949E+02               0
GRID*             160616               0-2.500000000E+005.4454137997E+01+
*       -1.609619606E+02               0
GRID*             160617               0-2.500000000E+005.0087362938E+01+
*       -1.622485423E+02               0
GRID*             160618               0-2.500000000E+005.1580944250E+01+
*       -1.608155257E+02               0
GRID*             160619               0-2.500000000E+004.7231548909E+01+
*       -1.621367649E+02               0
GRID*             160620               0-2.500000000E+004.8710737207E+01+
*       -1.606900675E+02               0
GRID*             160621               0-2.500000000E+004.4365909472E+01+
*       -1.620496539E+02               0
GRID*             160622               0-2.500000000E+004.5835882136E+01+
*       -1.605854406E+02               0
GRID*             160623               0-2.500000000E+004.1482889399E+01+
*       -1.619811802E+02               0
GRID*             160624               0-2.500000000E+004.2949631353E+01+
*       -1.604981519E+02               0
GRID*             160625               0-2.500000000E+004.0047307238E+01+
*       -1.604221468E+02               0
GRID*             160626               0-2.500000000E+004.0100170034E+01+
*       -1.573588615E+02               0
GRID*             160627               0-2.500000000E+004.1532307335E+01+
*       -1.589309363E+02               0
GRID*             160628               0-2.500000000E+004.1597982163E+01+
*       -1.558735328E+02               0
GRID*             160629               0-2.500000000E+004.4515496211E+01+
*       -1.559736411E+02               0
GRID*             160630               0-2.500000000E+004.3016845459E+01+
*       -1.574511477E+02               0
GRID*             160631               0-2.500000000E+004.7423487047E+01+
*       -1.560822082E+02               0
GRID*             160632               0-2.500000000E+004.5921798477E+01+
*       -1.575511751E+02               0
GRID*             160633               0-2.500000000E+005.0325163878E+01+
*       -1.562018015E+02               0
GRID*             160634               0-2.500000000E+004.8818128466E+01+
*       -1.576628581E+02               0
GRID*             160635               0-2.500000000E+005.3224372550E+01+
*       -1.563331399E+02               0
GRID*             160636               0-2.500000000E+005.1710174264E+01+
*       -1.577882584E+02               0
GRID*             160637               0-2.500000000E+005.6124962870E+01+
*       -1.564747460E+02               0
GRID*             160638               0-2.500000000E+005.4602756356E+01+
*       -1.579270459E+02               0
GRID*             160639               0-2.500000000E+005.9030027122E+01+
*       -1.566229337E+02               0
GRID*             160640               0-2.500000000E+005.7500348759E+01+
*       -1.580762235E+02               0
GRID*             160641               0-2.500000000E+006.0405702911E+01+
*       -1.582304681E+02               0
GRID*             160642               0-2.500000000E+005.8867088194E+01+
*       -1.596817260E+02               0
GRID*             160643               0-2.500000000E+005.5971130376E+01+
*       -1.595198957E+02               0
GRID*             160644               0-2.500000000E+005.3085763977E+01+
*       -1.593691108E+02               0
GRID*             160645               0-2.500000000E+005.0205354537E+01+
*       -1.592346733E+02               0
GRID*             160646               0-2.500000000E+004.7323511136E+01+
*       -1.591182523E+02               0
GRID*             160647               0-2.500000000E+004.4434169477E+01+
*       -1.590183633E+02               0
GRID*             160648               0-2.500000000E+004.6953989590E+01+
*       -1.849030393E+02               0
GRID*             160649               0-2.500000000E+004.5317962475E+01+
*       -1.864341810E+02               0
GRID*             160650               0-2.500000000E+004.4052747185E+01+
*       -1.848872600E+02               0
GRID*             160651               0-2.500000000E+004.5688774299E+01+
*       -1.833561183E+02               0
GRID*             160652               0-2.500000000E+004.7006938902E+01+
*       -1.879511270E+02               0
GRID*             160653               0-2.500000000E+004.5654095213E+01+
*       -1.896630631E+02               0
GRID*             160654               0-2.500000000E+004.3965118786E+01+
*       -1.881461170E+02               0
GRID*             160655               0-2.500000000E+004.7238150338E+01+
*       -1.910185302E+02               0
GRID*             160656               0-2.500000000E+004.4368301240E+01+
*       -1.913442976E+02               0
GRID*             160657               0-2.500000000E+004.2805268474E+01+
*       -1.901183287E+02               0
GRID*             160658               0-2.500000000E+004.1597264990E+01+
*       -1.918382529E+02               0
GRID*             160659               0-2.500000000E+003.8954004900E+01+
*       -1.922894673E+02               0
GRID*             160660               0-2.500000000E+004.0093616098E+01+
*       -1.906668063E+02               0
GRID*             160661               0-2.500000000E+004.2306516454E+01+
*       -1.870456767E+02               0
GRID*             160662               0-2.500000000E+004.1146666142E+01+
*       -1.890178883E+02               0
GRID*             160663               0-2.500000000E+003.8531864160E+01+
*       -1.895832560E+02               0
GRID*             160664               0-2.500000000E+003.9584914204E+01+
*       -1.879343380E+02               0
GRID*             160665               0-2.500000000E+004.2090943481E+01+
*       -1.839479385E+02               0
GRID*             160666               0-2.500000000E+004.3241522809E+01+
*       -1.831087788E+02               0
GRID*             160667               0-2.500000000E+004.2902167857E+01+
*       -1.857264197E+02               0
GRID*             160668               0-2.500000000E+004.0495006212E+01+
*       -1.864678512E+02               0
GRID*             160669               0-2.500000000E+003.8006615335E+01+
*       -1.869465933E+02               0
GRID*             160670               0-2.500000000E+003.8916707343E+01+
*       -1.854801065E+02               0
GRID*             160671               0-2.500000000E+003.7600356438E+01+
*       -1.843220029E+02               0
GRID*             160672               0-2.500000000E+003.8667785671E+01+
*       -1.829602802E+02               0
GRID*             160673               0-2.500000000E+003.9984136576E+01+
*       -1.841183838E+02               0
GRID*             160674               0-2.500000000E+003.3457227835E+01+
*       -1.864260518E+02               0
GRID*             160675               0-2.500000000E+003.3427496758E+01+
*       -1.829631251E+02               0
GRID*             160676               0-2.500000000E+003.4968971430E+01+
*       -1.845119616E+02               0
GRID*             160677               0-2.500000000E+003.6177601471E+01+
*       -1.829853693E+02               0
GRID*             160678               0-2.500000000E+003.6391726396E+01+
*       -1.858485952E+02               0
GRID*             160679               0-2.500000000E+003.7029190235E+01+
*       -1.885279920E+02               0
GRID*             160680               0-2.500000000E+003.5414301296E+01+
*       -1.874299939E+02               0
GRID*             160681               0-2.500000000E+003.7524064713E+01+
*       -1.911604567E+02               0
GRID*             160682               0-2.500000000E+003.6021390788E+01+
*       -1.901051927E+02               0
GRID*             160683               0-2.500000000E+003.6429752652E+01+
*       -1.927060263E+02               0
GRID*             160684               0-2.500000000E+003.4608470932E+01+
*       -1.891718348E+02               0
GRID*             160685               0-2.500000000E+003.2651397470E+01+
*       -1.881678927E+02               0
GRID*             160686               0-2.500000000E+003.2628929056E+01+
*       -1.900136225E+02               0
GRID*             160687               0-2.500000000E+003.0999090742E+01+
*       -1.900174988E+02               0
GRID*             160688               0-2.500000000E+003.5102448414E+01+
*       -1.916282862E+02               0
GRID*             160689               0-2.500000000E+003.4042451680E+01+
*       -1.930830107E+02               0
GRID*             160690               0-2.500000000E+003.0760586940E+01+
*       -1.920521657E+02               0
GRID*             160691               0-2.500000000E+003.1815276835E+01+
*       -1.933363749E+02               0
GRID*             160692               0-2.500000000E+003.2874898455E+01+
*       -1.920292820E+02               0
GRID*             160693               0-2.500000000E+003.4978487520E+01+
*       -1.814456806E+02               0
GRID*             160694               0-2.500000000E+003.3648612418E+01+
*       -1.797656266E+02               0
GRID*             160695               0-2.500000000E+003.4278097298E+01+
*       -1.764216054E+02               0
GRID*             160696               0-2.500000000E+003.5520817444E+01+
*       -1.782373394E+02               0
GRID*             160697               0-2.500000000E+003.4202925035E+01+
*       -1.729233484E+02               0
GRID*             160698               0-2.500000000E+003.5856531612E+01+
*       -1.747472538E+02               0
GRID*             160699               0-2.500000000E+003.5706420103E+01+
*       -1.713075534E+02               0
GRID*             160700               0-2.500000000E+003.8672051622E+01+
*       -1.711375991E+02               0
GRID*             160701               0-2.500000000E+003.7241236087E+01+
*       -1.728014287E+02               0
GRID*             160702               0-2.500000000E+004.1520322713E+01+
*       -1.710129024E+02               0
GRID*             160703               0-2.500000000E+004.0148853406E+01+
*       -1.725767148E+02               0
GRID*             160704               0-2.500000000E+004.4296127699E+01+
*       -1.709598381E+02               0
GRID*             160705               0-2.500000000E+004.2936404816E+01+
*       -1.724455038E+02               0
GRID*             160706               0-2.500000000E+004.7031479948E+01+
*       -1.709727460E+02               0
GRID*             160707               0-2.500000000E+004.5660624952E+01+
*       -1.724036134E+02               0
GRID*             160708               0-2.500000000E+004.7007022461E+01+
*       -1.737922884E+02               0
GRID*             160709               0-2.500000000E+004.5691369467E+01+
*       -1.751941309E+02               0
GRID*             160710               0-2.500000000E+004.4344971957E+01+
*       -1.738054559E+02               0
GRID*             160711               0-2.500000000E+004.7009749555E+01+
*       -1.765390603E+02               0
GRID*             160712               0-2.500000000E+004.5745950106E+01+
*       -1.778999651E+02               0
GRID*             160713               0-2.500000000E+004.4427570018E+01+
*       -1.765550357E+02               0
GRID*             160714               0-2.500000000E+004.7025463863E+01+
*       -1.792509303E+02               0
GRID*             160715               0-2.500000000E+004.5766757479E+01+
*       -1.805875551E+02               0
GRID*             160716               0-2.500000000E+004.4487243722E+01+
*       -1.792365899E+02               0
GRID*             160717               0-2.500000000E+004.7018187359E+01+
*       -1.820053244E+02               0
GRID*             160718               0-2.500000000E+004.4437344419E+01+
*       -1.819383490E+02               0
GRID*             160719               0-2.500000000E+004.2101501838E+01+
*       -1.816909929E+02               0
GRID*             160720               0-2.500000000E+004.3297323448E+01+
*       -1.805205631E+02               0
GRID*             160721               0-2.500000000E+004.0984422442E+01+
*       -1.829177281E+02               0
GRID*             160722               0-2.500000000E+003.9810955973E+01+
*       -1.816968485E+02               0
GRID*             160723               0-2.500000000E+004.0928035368E+01+
*       -1.804701133E+02               0
GRID*             160724               0-2.500000000E+003.7469153645E+01+
*       -1.817083997E+02               0
GRID*             160725               0-2.500000000E+003.8612323946E+01+
*       -1.804449679E+02               0
GRID*             160726               0-2.500000000E+003.6270039694E+01+
*       -1.801687110E+02               0
GRID*             160727               0-2.500000000E+004.2042526414E+01+
*       -1.792058724E+02               0
GRID*             160728               0-2.500000000E+004.3232446688E+01+
*       -1.779218992E+02               0
GRID*             160729               0-2.500000000E+003.9693611927E+01+
*       -1.792640244E+02               0
GRID*             160730               0-2.500000000E+004.0808102972E+01+
*       -1.779997835E+02               0
GRID*             160731               0-2.500000000E+003.7529352343E+01+
*       -1.793307916E+02               0
GRID*             160732               0-2.500000000E+003.8610640323E+01+
*       -1.781498481E+02               0
GRID*             160733               0-2.500000000E+004.1651211281E+01+
*       -1.739022069E+02               0
GRID*             160734               0-2.500000000E+004.3059778422E+01+
*       -1.752621590E+02               0
GRID*             160735               0-2.500000000E+004.1864655092E+01+
*       -1.766290225E+02               0
GRID*             160736               0-2.500000000E+003.9322792773E+01+
*       -1.768448018E+02               0
GRID*             160737               0-2.500000000E+004.0379344893E+01+
*       -1.754740407E+02               0
GRID*             160738               0-2.500000000E+004.8349398125E+01+
*       -1.724341104E+02               0
GRID*             160739               0-2.500000000E+004.9741327314E+01+
*       -1.710475347E+02               0
GRID*             160740               0-2.500000000E+005.2435312969E+01+
*       -1.711954171E+02               0
GRID*             160741               0-2.500000000E+005.1012206226E+01+
*       -1.725372709E+02               0
GRID*             160742               0-2.500000000E+005.5131718596E+01+
*       -1.714413506E+02               0
GRID*             160743               0-2.500000000E+005.3659009474E+01+
*       -1.727375341E+02               0
GRID*             160744               0-2.500000000E+005.7880931034E+01+
*       -1.718247063E+02               0
GRID*             160745               0-2.500000000E+005.6327256723E+01+
*       -1.730873737E+02               0
GRID*             160746               0-2.500000000E+006.0795220309E+01+
*       -1.723609240E+02               0
GRID*             160747               0-2.500000000E+005.9130030975E+01+
*       -1.736542283E+02               0
GRID*             160748               0-2.500000000E+006.3914796959E+01+
*       -1.726379748E+02               0
GRID*             160749               0-2.500000000E+006.2188427321E+01+
*       -1.741442675E+02               0
GRID*             160750               0-2.500000000E+006.5376805413E+01+
*       -1.743508427E+02               0
GRID*             160751               0-2.500000000E+006.5239174420E+01+
*       -1.777600872E+02               0
GRID*             160752               0-2.500000000E+006.3685567281E+01+
*       -1.760322684E+02               0
GRID*             160753               0-2.500000000E+006.5428168096E+01+
*       -1.811675923E+02               0
GRID*             160754               0-2.500000000E+006.3711664632E+01+
*       -1.795186545E+02               0
GRID*             160755               0-2.500000000E+006.5674802181E+01+
*       -1.844450863E+02               0
GRID*             160756               0-2.500000000E+006.3994645392E+01+
*       -1.829106062E+02               0
GRID*             160757               0-2.500000000E+006.5919864712E+01+
*       -1.876320307E+02               0
GRID*             160758               0-2.500000000E+006.4285245572E+01+
*       -1.861538106E+02               0
GRID*             160759               0-2.500000000E+006.4552297671E+01+
*       -1.893104793E+02               0
GRID*             160760               0-2.500000000E+006.1598800672E+01+
*       -1.895839096E+02               0
GRID*             160761               0-2.500000000E+006.2939784993E+01+
*       -1.878918381E+02               0
GRID*             160762               0-2.500000000E+005.8683786885E+01+
*       -1.898936737E+02               0
GRID*             160763               0-2.500000000E+005.9996249838E+01+
*       -1.882036258E+02               0
GRID*             160764               0-2.500000000E+005.5807737328E+01+
*       -1.902005190E+02               0
GRID*             160765               0-2.500000000E+005.7103983077E+01+
*       -1.885339256E+02               0
GRID*             160766               0-2.500000000E+005.2954025383E+01+
*       -1.904853773E+02               0
GRID*             160767               0-2.500000000E+005.4250213066E+01+
*       -1.888422142E+02               0
GRID*             160768               0-2.500000000E+005.0103116691E+01+
*       -1.907510244E+02               0
GRID*             160769               0-2.500000000E+005.1407890465E+01+
*       -1.891177028E+02               0
GRID*             160770               0-2.500000000E+004.8547446306E+01+
*       -1.893742503E+02               0
GRID*             160771               0-2.500000000E+004.8348493206E+01+
*       -1.863274354E+02               0
GRID*             160772               0-2.500000000E+004.9889000610E+01+
*       -1.877505588E+02               0
GRID*             160773               0-2.500000000E+004.8349097114E+01+
*       -1.833746439E+02               0
GRID*             160774               0-2.500000000E+004.9743600730E+01+
*       -1.847990401E+02               0
GRID*             160775               0-2.500000000E+004.8323615615E+01+
*       -1.805876929E+02               0
GRID*             160776               0-2.500000000E+004.9654525370E+01+
*       -1.819570124E+02               0
GRID*             160777               0-2.500000000E+004.8290757332E+01+
*       -1.778923923E+02               0
GRID*             160778               0-2.500000000E+004.9588909084E+01+
*       -1.792291549E+02               0
GRID*             160779               0-2.500000000E+004.8300404725E+01+
*       -1.751977825E+02               0
GRID*             160780               0-2.500000000E+004.9581412503E+01+
*       -1.765511145E+02               0
GRID*             160781               0-2.500000000E+004.9642780389E+01+
*       -1.738396044E+02               0
GRID*             160782               0-2.500000000E+005.0872222774E+01+
*       -1.752608218E+02               0
GRID*             160783               0-2.500000000E+005.2241648610E+01+
*       -1.739584882E+02               0
GRID*             160784               0-2.500000000E+005.4797276094E+01+
*       -1.741939248E+02               0
GRID*             160785               0-2.500000000E+005.3379915231E+01+
*       -1.754148789E+02               0
GRID*             160786               0-2.500000000E+005.7351973810E+01+
*       -1.746704471E+02               0
GRID*             160787               0-2.500000000E+005.5821993182E+01+
*       -1.757769982E+02               0
GRID*             160788               0-2.500000000E+006.0175019148E+01+
*       -1.759076203E+02               0
GRID*             160789               0-2.500000000E+005.8396961983E+01+
*       -1.769238391E+02               0
GRID*             160790               0-2.500000000E+006.1672159108E+01+
*       -1.777956212E+02               0
GRID*             160791               0-2.500000000E+006.2241268662E+01+
*       -1.814391565E+02               0
GRID*             160792               0-2.500000000E+006.0201763137E+01+
*       -1.797161233E+02               0
GRID*             160793               0-2.500000000E+006.2629082643E+01+
*       -1.847263197E+02               0
GRID*             160794               0-2.500000000E+006.0875705913E+01+
*       -1.832548699E+02               0
GRID*             160795               0-2.500000000E+006.1283622063E+01+
*       -1.864643471E+02               0
GRID*             160796               0-2.500000000E+005.8364043910E+01+
*       -1.868557529E+02               0
GRID*             160797               0-2.500000000E+005.9651416136E+01+
*       -1.851164742E+02               0
GRID*             160798               0-2.500000000E+005.5521151659E+01+
*       -1.872140320E+02               0
GRID*             160799               0-2.500000000E+005.6781212492E+01+
*       -1.855358594E+02               0
GRID*             160800               0-2.500000000E+005.2710580579E+01+
*       -1.875104406E+02               0
GRID*             160801               0-2.500000000E+005.3981519172E+01+
*       -1.858822584E+02               0
GRID*             160802               0-2.500000000E+005.1191690724E+01+
*       -1.861432965E+02               0
GRID*             160803               0-2.500000000E+005.1033223947E+01+
*       -1.832570832E+02               0
GRID*             160804               0-2.500000000E+005.2481313941E+01+
*       -1.846013397E+02               0
GRID*             160805               0-2.500000000E+005.0888871508E+01+
*       -1.805098663E+02               0
GRID*             160806               0-2.500000000E+005.2267570085E+01+
*       -1.818099371E+02               0
GRID*             160807               0-2.500000000E+005.0798135057E+01+
*       -1.778830226E+02               0
GRID*             160808               0-2.500000000E+005.2098097480E+01+
*       -1.791637341E+02               0
GRID*             160809               0-2.500000000E+005.2088945327E+01+
*       -1.765927299E+02               0
GRID*             160810               0-2.500000000E+005.5201105733E+01+
*       -1.842986291E+02               0
GRID*             160811               0-2.500000000E+005.3700900502E+01+
*       -1.830177104E+02               0
GRID*             160812               0-2.500000000E+005.3400918680E+01+
*       -1.803264637E+02               0
GRID*             160813               0-2.500000000E+005.4834249096E+01+
*       -1.815342369E+02               0
GRID*             160814               0-2.500000000E+005.6381049272E+01+
*       -1.826188947E+02               0
GRID*             160815               0-2.500000000E+005.7961156031E+01+
*       -1.838561250E+02               0
GRID*             160816               0-2.500000000E+005.6553254707E+01+
*       -1.787514019E+02               0
GRID*             160817               0-2.500000000E+005.6541896505E+01+
*       -1.769413379E+02               0
GRID*             160818               0-2.500000000E+005.8408320185E+01+
*       -1.787339031E+02               0
GRID*             160819               0-2.500000000E+005.4464379944E+01+
*       -1.790326045E+02               0
GRID*             160820               0-2.500000000E+005.3161558745E+01+
*       -1.778698749E+02               0
GRID*             160821               0-2.500000000E+005.4452528648E+01+
*       -1.766920239E+02               0
GRID*             160822               0-2.500000000E+005.5172431971E+01+
*       -1.778563636E+02               0
GRID*             160823               0-2.500000000E+008.7616207482E+01+
*       -2.138751126E+02               0
GRID*             160824               0-2.500000000E+008.7960063032E+01+
*       -2.122240807E+02               0
GRID*             160825               0-2.500000000E+008.6113075650E+01+
*       -2.139576581E+02               0
GRID*             160826               0-2.500000000E+008.6762054277E+01+
*       -2.129961379E+02               0
GRID*             160827               0-2.500000000E+008.5949552866E+01+
*       -2.120414102E+02               0
GRID*             160828               0-2.500000000E+004.8533655183E+01+
*       -2.150525987E+02               0
GRID*             160829               0-2.500000000E+005.1575741209E+01+
*       -2.149503418E+02               0
GRID*             160830               0-2.500000000E+004.5536601226E+01+
*       -2.151379436E+02               0
GRID*             160831               0-2.500000000E+004.2575993451E+01+
*       -2.152122237E+02               0
GRID*             160832               0-2.500000000E+003.9644690012E+01+
*       -2.152778173E+02               0
GRID*             160833               0-2.500000000E+003.6736382545E+01+
*       -2.153355246E+02               0
GRID*             160834               0-2.500000000E+003.3845460485E+01+
*       -2.153852910E+02               0
GRID*             160835               0-2.500000000E+003.0967752496E+01+
*       -2.154257211E+02               0
GRID*             160836               0-2.500000000E+002.8102616007E+01+
*       -2.154521398E+02               0
GRID*             160837               0-2.500000000E+002.5251772676E+01+
*       -2.154536480E+02               0
GRID*             160838               0-2.500000000E+002.2436236703E+01+
*       -2.154039276E+02               0
GRID*             160839               0-2.500000000E+002.0859571767E+01+
*       -2.166446280E+02               0
GRID*             160840               0-2.500000000E+001.9878653561E+01+
*       -2.151804685E+02               0
GRID*             160841               0-2.500000000E+006.6787493215E+01+
*       -2.132962589E+02               0
GRID*             160842               0-2.500000000E+006.9534028865E+01+
*       -2.130173859E+02               0
GRID*             160843               0-2.500000000E+006.3990371665E+01+
*       -2.137196180E+02               0
GRID*             160844               0-2.500000000E+006.1017016895E+01+
*       -2.143059580E+02               0
GRID*             160845               0-2.500000000E+005.7830992274E+01+
*       -2.146256911E+02               0
GRID*             160846               0-2.500000000E+005.4672880272E+01+
*       -2.148179404E+02               0
GRID*             160847               0-2.500000000E+007.5014544137E+01+
*       -2.127226373E+02               0
GRID*             160848               0-2.500000000E+007.7726818100E+01+
*       -2.126712729E+02               0
GRID*             160849               0-2.500000000E+007.2276284288E+01+
*       -2.128362043E+02               0
GRID*             160850               0-2.500000000E+008.0384965234E+01+
*       -2.127170468E+02               0
GRID*             160851               0-2.500000000E+008.3001390454E+01+
*       -2.129880401E+02               0
GRID*             160852               0-2.500000000E+008.4545745975E+01+
*       -2.139633021E+02               0
GRID*             160853               0-2.500000000E+008.5277491806E+01+
*       -2.130476364E+02               0
GRID*             160854               0-2.500000000E+008.3903900188E+01+
*       -2.123538288E+02               0
GRID*             160855               0-2.500000000E+005.3458426179E+01+
*       -1.208715757E+02               0
GRID*             160856               0-2.500000000E+005.1863498605E+01+
*       -1.193533250E+02               0
GRID*             160857               0-2.500000000E+005.3403099076E+01+
*       -1.177444224E+02               0
GRID*             160858               0-2.500000000E+005.4998026649E+01+
*       -1.192626731E+02               0
GRID*             160859               0-2.500000000E+005.6550247931E+01+
*       -1.175661486E+02               0
GRID*             160860               0-2.500000000E+005.8269279488E+01+
*       -1.191115926E+02               0
GRID*             160861               0-2.500000000E+005.6717058206E+01+
*       -1.208081171E+02               0
GRID*             160862               0-2.500000000E+005.9771573918E+01+
*       -1.172470794E+02               0
GRID*             160863               0-2.500000000E+006.1854156585E+01+
*       -1.188380819E+02               0
GRID*             160864               0-2.500000000E+006.0351862154E+01+
*       -1.207025952E+02               0
GRID*             160865               0-2.500000000E+006.2865345225E+01+
*       -1.166205999E+02               0
GRID*             160866               0-2.500000000E+006.4708187882E+01+
*       -1.174788970E+02               0
GRID*             160867               0-2.500000000E+006.3696999242E+01+
*       -1.196963790E+02               0
GRID*             160868               0-2.500000000E+006.5687899871E+01+
*       -1.159168118E+02               0
GRID*             160869               0-2.500000000E+006.7278524749E+01+
*       -1.168939093E+02               0
GRID*             160870               0-2.500000000E+006.6298812759E+01+
*       -1.184559944E+02               0
GRID*             160871               0-2.500000000E+006.8382005193E+01+
*       -1.154356050E+02               0
GRID*             160872               0-2.500000000E+006.9880865894E+01+
*       -1.165287350E+02               0
GRID*             160873               0-2.500000000E+006.8777385450E+01+
*       -1.179870393E+02               0
GRID*             160874               0-2.500000000E+007.1071134903E+01+
*       -1.150891628E+02               0
GRID*             160875               0-2.500000000E+007.2549308618E+01+
*       -1.162477696E+02               0
GRID*             160876               0-2.500000000E+007.1359039609E+01+
*       -1.176873418E+02               0
GRID*             160877               0-2.500000000E+007.3776008047E+01+
*       -1.148155299E+02               0
GRID*             160878               0-2.500000000E+007.5251644930E+01+
*       -1.159956745E+02               0
GRID*             160879               0-2.500000000E+007.4024945500E+01+
*       -1.174279142E+02               0
GRID*             160880               0-2.500000000E+007.6468210726E+01+
*       -1.145916496E+02               0
GRID*             160881               0-2.500000000E+007.7923404096E+01+
*       -1.157560326E+02               0
GRID*             160882               0-2.500000000E+007.6706838299E+01+
*       -1.171600575E+02               0
GRID*             160883               0-2.500000000E+007.9089027909E+01+
*       -1.144401478E+02               0
GRID*             160884               0-2.500000000E+008.0455121799E+01+
*       -1.155653605E+02               0
GRID*             160885               0-2.500000000E+007.9289497986E+01+
*       -1.168812454E+02               0
GRID*             160886               0-2.500000000E+008.1552504220E+01+
*       -1.144608451E+02               0
GRID*             160887               0-2.500000000E+008.1682812419E+01+
*       -1.167262946E+02               0
GRID*             160888               0-2.500000000E+008.1922034816E+01+
*       -1.187055723E+02               0
GRID*             160889               0-2.500000000E+008.0696652375E+01+
*       -1.177967677E+02               0
GRID*             160890               0-2.500000000E+008.2287056304E+01+
*       -1.204510171E+02               0
GRID*             160891               0-2.500000000E+008.1114340123E+01+
*       -1.197624080E+02               0
GRID*             160892               0-2.500000000E+008.2789167185E+01+
*       -1.218183545E+02               0
GRID*             160893               0-2.500000000E+008.1761209246E+01+
*       -1.212835803E+02               0
GRID*             160894               0-2.500000000E+008.2339797800E+01+
*       -1.233528200E+02               0
GRID*             160895               0-2.500000000E+008.1779930067E+01+
*       -1.226146942E+02               0
GRID*             160896               0-2.500000000E+008.1186375969E+01+
*       -1.244846311E+02               0
GRID*             160897               0-2.500000000E+007.8765830549E+01+
*       -1.238927172E+02               0
GRID*             160898               0-2.500000000E+008.0256546933E+01+
*       -1.228282897E+02               0
GRID*             160899               0-2.500000000E+007.5671816665E+01+
*       -1.240902640E+02               0
GRID*             160900               0-2.500000000E+007.7439006460E+01+
*       -1.224886998E+02               0
GRID*             160901               0-2.500000000E+007.2810224888E+01+
*       -1.241836321E+02               0
GRID*             160902               0-2.500000000E+007.4330776076E+01+
*       -1.227325413E+02               0
GRID*             160903               0-2.500000000E+007.0068448940E+01+
*       -1.241780122E+02               0
GRID*             160904               0-2.500000000E+007.1531888095E+01+
*       -1.228269775E+02               0
GRID*             160905               0-2.500000000E+006.7420417813E+01+
*       -1.240317563E+02               0
GRID*             160906               0-2.500000000E+006.8896423737E+01+
*       -1.227881139E+02               0
GRID*             160907               0-2.500000000E+006.4802536071E+01+
*       -1.236240876E+02               0
GRID*             160908               0-2.500000000E+006.6381029127E+01+
*       -1.225135068E+02               0
GRID*             160909               0-2.500000000E+006.1885184015E+01+
*       -1.224813185E+02               0
GRID*             160910               0-2.500000000E+006.3728723016E+01+
*       -1.214661775E+02               0
GRID*             160911               0-2.500000000E+005.8281215004E+01+
*       -1.224432153E+02               0
GRID*             160912               0-2.500000000E+005.4995622558E+01+
*       -1.224442264E+02               0
GRID*             160913               0-2.500000000E+005.1845188934E+01+
*       -1.224496211E+02               0
GRID*             160914               0-2.500000000E+007.8222003605E+01+
*       -1.182728096E+02               0
GRID*             160915               0-2.500000000E+007.9629157994E+01+
*       -1.191883319E+02               0
GRID*             160916               0-2.500000000E+008.0237826112E+01+
*       -1.214971759E+02               0
GRID*             160917               0-2.500000000E+007.8752643983E+01+
*       -1.209230998E+02               0
GRID*             160918               0-2.500000000E+006.5602899216E+01+
*       -1.196216081E+02               0
GRID*             160919               0-2.500000000E+006.5634622990E+01+
*       -1.213914066E+02               0
GRID*             160920               0-2.500000000E+006.7709591473E+01+
*       -1.192895671E+02               0
GRID*             160921               0-2.500000000E+006.7013677929E+01+
*       -1.204551808E+02               0
GRID*             160922               0-2.500000000E+006.7760084067E+01+
*       -1.215772810E+02               0
GRID*             160923               0-2.500000000E+007.0212623534E+01+
*       -1.215791857E+02               0
GRID*             160924               0-2.500000000E+006.9076283864E+01+
*       -1.203683528E+02               0
GRID*             160925               0-2.500000000E+007.0144077841E+01+
*       -1.190658250E+02               0
GRID*             160926               0-2.500000000E+007.2767105590E+01+
*       -1.188534928E+02               0
GRID*             160927               0-2.500000000E+007.1552143823E+01+
*       -1.202319761E+02               0
GRID*             160928               0-2.500000000E+007.5488553206E+01+
*       -1.186052771E+02               0
GRID*             160929               0-2.500000000E+007.4230713296E+01+
*       -1.200308557E+02               0
GRID*             160930               0-2.500000000E+007.7003718511E+01+
*       -1.197180292E+02               0
GRID*             160931               0-2.500000000E+007.5690080988E+01+
*       -1.212836292E+02               0
GRID*             160932               0-2.500000000E+007.2871408383E+01+
*       -1.214797679E+02               0
GRID*             160933               0-2.500000000E+002.9400472051E+01+
*       -1.205140232E+02               0
GRID*             160934               0-2.500000000E+003.0817147448E+01+
*       -1.220247316E+02               0
GRID*             160935               0-2.500000000E+002.7819707482E+01+
*       -1.218724978E+02               0
GRID*             160936               0-2.500000000E+002.6349605925E+01+
*       -1.203638424E+02               0
GRID*             160937               0-2.500000000E+002.4762031517E+01+
*       -1.217058411E+02               0
GRID*             160938               0-2.500000000E+002.3022561197E+01+
*       -1.202005128E+02               0
GRID*             160939               0-2.500000000E+002.1497197445E+01+
*       -1.215660449E+02               0
GRID*             160940               0-2.500000000E+001.8972748165E+01+
*       -1.222849812E+02               0
GRID*             160941               0-2.500000000E+001.7806503151E+01+
*       -1.214317997E+02               0
GRID*             160942               0-2.500000000E+001.7355235323E+01+
*       -1.200077082E+02               0
GRID*             160943               0-2.500000000E+001.8386868743E+01+
*       -1.206769920E+02               0
GRID*             160944               0-2.500000000E+002.9630048684E+01+
*       -1.176643718E+02               0
GRID*             160945               0-2.500000000E+003.0999281550E+01+
*       -1.191542650E+02               0
GRID*             160946               0-2.500000000E+002.8031239185E+01+
*       -1.190241300E+02               0
GRID*             160947               0-2.500000000E+002.6681542880E+01+
*       -1.175244348E+02               0
GRID*             160948               0-2.500000000E+002.4999909619E+01+
*       -1.188641471E+02               0
GRID*             160949               0-2.500000000E+002.3721890662E+01+
*       -1.173265439E+02               0
GRID*             160950               0-2.500000000E+002.1744542240E+01+
*       -1.186629096E+02               0
GRID*             160951               0-2.500000000E+001.8464274607E+01+
*       -1.193726123E+02               0
GRID*             160952               0-2.500000000E+001.7929197268E+01+
*       -1.185825518E+02               0
GRID*             160953               0-2.500000000E+001.8490025388E+01+
*       -1.166355098E+02               0
GRID*             160954               0-2.500000000E+001.9279322352E+01+
*       -1.177176187E+02               0
GRID*             160955               0-2.500000000E+003.2565574970E+01+
*       -1.177705680E+02               0
GRID*             160956               0-2.500000000E+003.3951872912E+01+
*       -1.192580111E+02               0
GRID*             160957               0-2.500000000E+003.2385579492E+01+
*       -1.206417081E+02               0
GRID*             160958               0-2.500000000E+003.5496481668E+01+
*       -1.178501760E+02               0
GRID*             160959               0-2.500000000E+003.6898721284E+01+
*       -1.193369919E+02               0
GRID*             160960               0-2.500000000E+003.5354112527E+01+
*       -1.207448270E+02               0
GRID*             160961               0-2.500000000E+003.8429309146E+01+
*       -1.179049301E+02               0
GRID*             160962               0-2.500000000E+003.9849182188E+01+
*       -1.193916352E+02               0
GRID*             160963               0-2.500000000E+003.8318594326E+01+
*       -1.208236970E+02               0
GRID*             160964               0-2.500000000E+004.1370992486E+01+
*       -1.179345450E+02               0
GRID*             160965               0-2.500000000E+004.2811063532E+01+
*       -1.194218723E+02               0
GRID*             160966               0-2.500000000E+004.1289253234E+01+
*       -1.208789625E+02               0
GRID*             160967               0-2.500000000E+004.4328852735E+01+
*       -1.179376400E+02               0
GRID*             160968               0-2.500000000E+004.5792685792E+01+
*       -1.194270731E+02               0
GRID*             160969               0-2.500000000E+004.4274896588E+01+
*       -1.209113054E+02               0
GRID*             160970               0-2.500000000E+004.7311550929E+01+
*       -1.179115021E+02               0
GRID*             160971               0-2.500000000E+004.8804780722E+01+
*       -1.194056124E+02               0
GRID*             160972               0-2.500000000E+004.7285915584E+01+
*       -1.209211834E+02               0
GRID*             160973               0-2.500000000E+005.0330708808E+01+
*       -1.178507794E+02               0
GRID*             160974               0-2.500000000E+005.0337570518E+01+
*       -1.209081579E+02               0
GRID*             160975               0-2.500000000E+004.8768589121E+01+
*       -1.224463695E+02               0
GRID*             160976               0-2.500000000E+004.5736789973E+01+
*       -1.224277523E+02               0
GRID*             160977               0-2.500000000E+004.2733695942E+01+
*       -1.223911444E+02               0
GRID*             160978               0-2.500000000E+003.9748493557E+01+
*       -1.223343374E+02               0
GRID*             160979               0-2.500000000E+003.6772739101E+01+
*       -1.222554176E+02               0
GRID*             160980               0-2.500000000E+003.3798626350E+01+
*       -1.221526248E+02               0
GRID*             160981               0-2.500000000E+001.8251386400E+01+
*       -1.364067128E+01               0
GRID*             160982               0-2.500000000E+002.0843867500E+01+
*       -1.408065155E+01               0
GRID*             160983               0-2.500000000E+001.9500599845E+01+
*       -1.513697311E+01               0
GRID*             160984               0-2.500000000E+001.8083107529E+01+
*       -1.734152748E+01               0
GRID*             160985               0-2.500000000E+001.8813551655E+01+
*       -1.657866847E+01               0
GRID*             160986               0-2.500000000E+001.9580446415E+01+
*       -1.738713954E+01               0
GRID*             160987               0-2.500000000E+001.8175270340E+01+
*       -1.565747719E+01               0
GRID*             160988               0-2.500000000E+002.0138881160E+01+
*       -1.605816439E+01               0
GRID*             160989               0-2.500000000E+002.0908437034E+01+
*       -1.682102411E+01               0
GRID*             160990               0-2.500000000E+001.5781231330E+01+
*       -1.370546938E+01               0
GRID*             160991               0-2.500000000E+001.7184188995E+01+
*       -1.478532380E+01               0
GRID*             160992               0-2.500000000E+001.6227021642E+01+
*       -1.567585896E+01               0
GRID*             160993               0-2.500000000E+001.7218102988E+01+
*       -1.654801235E+01               0
GRID*             160994               0-2.500000000E+001.6484996317E+01+
*       -1.735648306E+01               0
GRID*             160995               0-2.500000000E+001.4892690948E+01+
*       -1.747204636E+01               0
GRID*             160996               0-2.500000000E+001.5527689267E+01+
*       -1.667853123E+01               0
GRID*             160997               0-2.500000000E+001.3396784044E+01+
*       -1.773117007E+01               0
GRID*             160998               0-2.500000000E+001.3939479140E+01+
*       -1.705321824E+01               0
GRID*             160999               0-2.500000000E+002.2029826716E+01+
*       -1.542236736E+01               0
GRID*             161000               0-2.500000000E+002.2971391970E+01+
*       -1.675134287E+01               0
GRID*             161001               0-2.500000000E+002.3582268254E+01+
*       -1.400334266E+01               0
GRID*             161002               0-2.500000000E+007.9024690636E+01+
*       -1.345007142E+01               0
GRID*             161003               0-2.500000000E+008.1938431991E+01+
*       -1.379666266E+01               0
GRID*             161004               0-2.500000000E+008.0507043505E+01+
*       -1.482486181E+01               0
GRID*             161005               0-2.500000000E+007.8917342054E+01+
*       -1.730312092E+01               0
GRID*             161006               0-2.500000000E+007.9830855333E+01+
*       -1.656798802E+01               0
GRID*             161007               0-2.500000000E+008.0563514805E+01+
*       -1.741486671E+01               0
GRID*             161008               0-2.500000000E+007.9000605187E+01+
*       -1.550728205E+01               0
GRID*             161009               0-2.500000000E+008.1337293651E+01+
*       -1.588556777E+01               0
GRID*             161010               0-2.500000000E+007.7206017519E+01+
*       -1.729170887E+01               0
GRID*             161011               0-2.500000000E+007.7973358047E+01+
*       -1.644483017E+01               0
GRID*             161012               0-2.500000000E+007.6737078556E+01+
*       -1.551812007E+01               0
GRID*             161013               0-2.500000000E+007.7764325695E+01+
*       -1.458057195E+01               0
GRID*             161014               0-2.500000000E+007.6277030848E+01+
*       -1.349391603E+01               0
GRID*             161015               0-2.500000000E+007.6336924142E+01+
*       -1.976435434E+01               0
GRID*             161016               0-2.500000000E+007.6506791455E+01+
*       -2.131487751E+01               0
GRID*             161017               0-2.500000000E+007.5443714071E+01+
*       -2.067923223E+01               0
GRID*             161018               0-2.500000000E+007.6826156278E+01+
*       -2.266340005E+01               0
GRID*             161019               0-2.500000000E+007.5932946207E+01+
*       -2.207827794E+01               0
GRID*             161020               0-2.500000000E+007.6478605916E+01+
*       -2.402619638E+01               0
GRID*             161021               0-2.500000000E+007.5904760668E+01+
*       -2.328959680E+01               0
GRID*             161022               0-2.500000000E+007.6226149337E+01+
*       -2.563263708E+01               0
GRID*             161023               0-2.500000000E+007.5304753727E+01+
*       -2.475883384E+01               0
GRID*             161024               0-2.500000000E+007.6027601281E+01+
*       -2.738158280E+01               0
GRID*             161025               0-2.500000000E+007.4853749092E+01+
*       -2.661422027E+01               0
GRID*             161026               0-2.500000000E+007.3285588955E+01+
*       -2.764779333E+01               0
GRID*             161027               0-2.500000000E+007.2148100696E+01+
*       -2.648949129E+01               0
GRID*             161028               0-2.500000000E+007.3716260833E+01+
*       -2.545591822E+01               0
GRID*             161029               0-2.500000000E+007.0471062074E+01+
*       -2.773602224E+01               0
GRID*             161030               0-2.500000000E+006.9159546444E+01+
*       -2.655955422E+01               0
GRID*             161031               0-2.500000000E+007.0836585066E+01+
*       -2.531302328E+01               0
GRID*             161032               0-2.500000000E+006.7556057698E+01+
*       -2.785117871E+01               0
GRID*             161033               0-2.500000000E+006.6166247280E+01+
*       -2.666384763E+01               0
GRID*             161034               0-2.500000000E+006.7769736027E+01+
*       -2.537222315E+01               0
GRID*             161035               0-2.500000000E+006.4599857733E+01+
*       -2.797150525E+01               0
GRID*             161036               0-2.500000000E+006.3166928781E+01+
*       -2.676578506E+01               0
GRID*             161037               0-2.500000000E+006.4733318328E+01+
*       -2.545812745E+01               0
GRID*             161038               0-2.500000000E+006.1615074159E+01+
*       -2.808069356E+01               0
GRID*             161039               0-2.500000000E+006.0155278677E+01+
*       -2.685415066E+01               0
GRID*             161040               0-2.500000000E+006.1707133298E+01+
*       -2.553924217E+01               0
GRID*             161041               0-2.500000000E+005.8607101412E+01+
*       -2.817067377E+01               0
GRID*             161042               0-2.500000000E+005.7128718248E+01+
*       -2.692375965E+01               0
GRID*             161043               0-2.500000000E+005.8676895512E+01+
*       -2.560723654E+01               0
GRID*             161044               0-2.500000000E+005.5578981208E+01+
*       -2.823809067E+01               0
GRID*             161045               0-2.500000000E+005.4086239837E+01+
*       -2.697243709E+01               0
GRID*             161046               0-2.500000000E+005.5635976876E+01+
*       -2.565810607E+01               0
GRID*             161047               0-2.500000000E+005.2532277206E+01+
*       -2.828212637E+01               0
GRID*             161048               0-2.500000000E+005.1027054706E+01+
*       -2.699991546E+01               0
GRID*             161049               0-2.500000000E+005.2581017336E+01+
*       -2.569022618E+01               0
GRID*             161050               0-2.500000000E+004.9467344360E+01+
*       -2.830334532E+01               0
GRID*             161051               0-2.500000000E+004.7949967994E+01+
*       -2.700810893E+01               0
GRID*             161052               0-2.500000000E+004.9509678340E+01+
*       -2.570467908E+01               0
GRID*             161053               0-2.500000000E+004.6383257797E+01+
*       -2.830176176E+01               0
GRID*             161054               0-2.500000000E+004.4852146421E+01+
*       -2.699512746E+01               0
GRID*             161055               0-2.500000000E+004.6418856618E+01+
*       -2.570147464E+01               0
GRID*             161056               0-2.500000000E+004.3277490595E+01+
*       -2.827609778E+01               0
GRID*             161057               0-2.500000000E+004.1728411400E+01+
*       -2.695925392E+01               0
GRID*             161058               0-2.500000000E+004.3303067226E+01+
*       -2.567828360E+01               0
GRID*             161059               0-2.500000000E+004.0144850039E+01+
*       -2.822470322E+01               0
GRID*             161060               0-2.500000000E+003.8568269284E+01+
*       -2.689896969E+01               0
GRID*             161061               0-2.500000000E+004.0151830645E+01+
*       -2.563352039E+01               0
GRID*             161062               0-2.500000000E+003.6975502865E+01+
*       -2.814584205E+01               0
GRID*             161063               0-2.500000000E+003.5351072134E+01+
*       -2.681339738E+01               0
GRID*             161064               0-2.500000000E+003.6943838553E+01+
*       -2.556652502E+01               0
GRID*             161065               0-2.500000000E+003.3755203996E+01+
*       -2.803826640E+01               0
GRID*             161066               0-2.500000000E+003.2041481973E+01+
*       -2.670496508E+01               0
GRID*             161067               0-2.500000000E+003.3637350112E+01+
*       -2.548009606E+01               0
GRID*             161068               0-2.500000000E+003.0478624008E+01+
*       -2.790372977E+01               0
GRID*             161069               0-2.500000000E+002.8598927663E+01+
*       -2.659557888E+01               0
GRID*             161070               0-2.500000000E+003.0161785628E+01+
*       -2.539681419E+01               0
GRID*             161071               0-2.500000000E+002.7248793113E+01+
*       -2.776650898E+01               0
GRID*             161072               0-2.500000000E+002.5452434813E+01+
*       -2.669036853E+01               0
GRID*             161073               0-2.500000000E+002.6802569363E+01+
*       -2.551943843E+01               0
GRID*             161074               0-2.500000000E+002.4135341185E+01+
*       -2.742637961E+01               0
GRID*             161075               0-2.500000000E+002.3917095917E+01+
*       -2.566398854E+01               0
GRID*             161076               0-2.500000000E+002.3627031090E+01+
*       -2.405102959E+01               0
GRID*             161077               0-2.500000000E+002.4944124718E+01+
*       -2.481501851E+01               0
GRID*             161078               0-2.500000000E+002.3243661836E+01+
*       -2.265956534E+01               0
GRID*             161079               0-2.500000000E+002.4270690637E+01+
*       -2.331059531E+01               0
GRID*             161080               0-2.500000000E+002.3641676126E+01+
*       -2.128251302E+01               0
GRID*             161081               0-2.500000000E+002.4285335673E+01+
*       -2.204207874E+01               0
GRID*             161082               0-2.500000000E+002.3956733543E+01+
*       -1.967234658E+01               0
GRID*             161083               0-2.500000000E+002.4998407380E+01+
*       -2.055485998E+01               0
GRID*             161084               0-2.500000000E+002.4217071566E+01+
*       -1.788876699E+01               0
GRID*             161085               0-2.500000000E+002.5573802820E+01+
*       -1.866111395E+01               0
GRID*             161086               0-2.500000000E+002.4863874846E+01+
*       -1.525932637E+01               0
GRID*             161087               0-2.500000000E+002.6109554442E+01+
*       -1.639675050E+01               0
GRID*             161088               0-2.500000000E+002.6609914708E+01+
*       -1.388387675E+01               0
GRID*             161089               0-2.500000000E+002.9713066732E+01+
*       -1.388446370E+01               0
GRID*             161090               0-2.500000000E+002.7950943674E+01+
*       -1.516794124E+01               0
GRID*             161091               0-2.500000000E+003.2856021151E+01+
*       -1.390354280E+01               0
GRID*             161092               0-2.500000000E+003.1110099786E+01+
*       -1.518362811E+01               0
GRID*             161093               0-2.500000000E+003.5988599043E+01+
*       -1.392494014E+01               0
GRID*             161094               0-2.500000000E+003.4287672325E+01+
*       -1.521208869E+01               0
GRID*             161095               0-2.500000000E+003.9099660121E+01+
*       -1.394330611E+01               0
GRID*             161096               0-2.500000000E+003.7440775799E+01+
*       -1.523928699E+01               0
GRID*             161097               0-2.500000000E+004.2190978320E+01+
*       -1.395706797E+01               0
GRID*             161098               0-2.500000000E+004.0564379131E+01+
*       -1.526098508E+01               0
GRID*             161099               0-2.500000000E+004.5267056033E+01+
*       -1.396589197E+01               0
GRID*             161100               0-2.500000000E+004.3663745904E+01+
*       -1.527611926E+01               0
GRID*             161101               0-2.500000000E+004.8332031954E+01+
*       -1.397005806E+01               0
GRID*             161102               0-2.500000000E+004.6745212694E+01+
*       -1.528472927E+01               0
GRID*             161103               0-2.500000000E+005.1389286562E+01+
*       -1.397039720E+01               0
GRID*             161104               0-2.500000000E+004.9814021477E+01+
*       -1.528756642E+01               0
GRID*             161105               0-2.500000000E+005.4441838993E+01+
*       -1.396815258E+01               0
GRID*             161106               0-2.500000000E+005.2874504541E+01+
*       -1.528605421E+01               0
GRID*             161107               0-2.500000000E+005.7492662670E+01+
*       -1.396354634E+01               0
GRID*             161108               0-2.500000000E+005.5930595853E+01+
*       -1.528114571E+01               0
GRID*             161109               0-2.500000000E+006.0546267163E+01+
*       -1.395738898E+01               0
GRID*             161110               0-2.500000000E+005.8987052864E+01+
*       -1.527341068E+01               0
GRID*             161111               0-2.500000000E+006.3610636931E+01+
*       -1.395149675E+01               0
GRID*             161112               0-2.500000000E+006.2051684285E+01+
*       -1.526457964E+01               0
GRID*             161113               0-2.500000000E+006.6701728052E+01+
*       -1.394902414E+01               0
GRID*             161114               0-2.500000000E+006.5139487772E+01+
*       -1.525839910E+01               0
GRID*             161115               0-2.500000000E+006.9858523013E+01+
*       -1.395551306E+01               0
GRID*             161116               0-2.500000000E+006.8287800707E+01+
*       -1.526331239E+01               0
GRID*             161117               0-2.500000000E+007.3218596133E+01+
*       -1.399398304E+01               0
GRID*             161118               0-2.500000000E+007.1645298641E+01+
*       -1.531742847E+01               0
GRID*             161119               0-2.500000000E+007.4934405611E+01+
*       -1.498382591E+01               0
GRID*             161120               0-2.500000000E+007.6034994883E+01+
*       -1.651307634E+01               0
GRID*             161121               0-2.500000000E+007.4232321938E+01+
*       -1.597878217E+01               0
GRID*             161122               0-2.500000000E+006.6329569374E+01+
*       -2.415980369E+01               0
GRID*             161123               0-2.500000000E+006.8002970068E+01+
*       -2.286466762E+01               0
GRID*             161124               0-2.500000000E+006.9443136721E+01+
*       -2.407708707E+01               0
GRID*             161125               0-2.500000000E+006.6469317240E+01+
*       -2.164143674E+01               0
GRID*             161126               0-2.500000000E+006.8094023054E+01+
*       -2.034852802E+01               0
GRID*             161127               0-2.500000000E+006.9627675881E+01+
*       -2.157175889E+01               0
GRID*             161128               0-2.500000000E+006.6571195032E+01+
*       -1.910441609E+01               0
GRID*             161129               0-2.500000000E+006.8179343528E+01+
*       -1.782719186E+01               0
GRID*             161130               0-2.500000000E+006.9702171549E+01+
*       -1.907130378E+01               0
GRID*             161131               0-2.500000000E+006.6654029823E+01+
*       -1.654360103E+01               0
GRID*             161132               0-2.500000000E+006.9813114411E+01+
*       -1.654690322E+01               0
GRID*             161133               0-2.500000000E+007.1269618399E+01+
*       -1.784992831E+01               0
GRID*             161134               0-2.500000000E+007.3101802629E+01+
*       -1.662045356E+01               0
GRID*             161135               0-2.500000000E+007.5092941394E+01+
*       -1.738956947E+01               0
GRID*             161136               0-2.500000000E+007.3962422085E+01+
*       -1.803124086E+01               0
GRID*             161137               0-2.500000000E+007.1216652309E+01+
*       -2.027180807E+01               0
GRID*             161138               0-2.500000000E+007.2784099158E+01+
*       -1.905043260E+01               0
GRID*             161139               0-2.500000000E+007.5200886646E+01+
*       -1.903255672E+01               0
GRID*             161140               0-2.500000000E+007.4022563719E+01+
*       -2.005174846E+01               0
GRID*             161141               0-2.500000000E+007.2794414738E+01+
*       -2.401806942E+01               0
GRID*             161142               0-2.500000000E+007.1400966393E+01+
*       -2.278213321E+01               0
GRID*             161143               0-2.500000000E+007.2989942820E+01+
*       -2.148218239E+01               0
GRID*             161144               0-2.500000000E+007.4411093172E+01+
*       -2.210966617E+01               0
GRID*             161145               0-2.500000000E+007.4382907633E+01+
*       -2.332098504E+01               0
GRID*             161146               0-2.500000000E+006.5067734895E+01+
*       -1.783801727E+01               0
GRID*             161147               0-2.500000000E+006.3553192844E+01+
*       -1.655281533E+01               0
GRID*             161148               0-2.500000000E+006.4980037945E+01+
*       -2.039789761E+01               0
GRID*             161149               0-2.500000000E+006.3476577808E+01+
*       -1.913149879E+01               0
GRID*             161150               0-2.500000000E+006.4873184457E+01+
*       -2.293592400E+01               0
GRID*             161151               0-2.500000000E+006.3383905162E+01+
*       -2.169238487E+01               0
GRID*             161152               0-2.500000000E+006.3276933410E+01+
*       -2.423424775E+01               0
GRID*             161153               0-2.500000000E+006.1982545001E+01+
*       -1.785528528E+01               0
GRID*             161154               0-2.500000000E+006.0481036443E+01+
*       -1.656704958E+01               0
GRID*             161155               0-2.500000000E+006.1900449033E+01+
*       -2.043537767E+01               0
GRID*             161156               0-2.500000000E+006.0406416226E+01+
*       -1.915916416E+01               0
GRID*             161157               0-2.500000000E+006.1807433099E+01+
*       -2.299440718E+01               0
GRID*             161158               0-2.500000000E+006.0323976970E+01+
*       -2.173739999E+01               0
GRID*             161159               0-2.500000000E+006.0237632987E+01+
*       -2.429940160E+01               0
GRID*             161160               0-2.500000000E+005.8915236432E+01+
*       -1.787394793E+01               0
GRID*             161161               0-2.500000000E+005.7421252853E+01+
*       -1.658030902E+01               0
GRID*             161162               0-2.500000000E+005.8837677644E+01+
*       -2.046757713E+01               0
GRID*             161163               0-2.500000000E+005.7346497850E+01+
*       -1.918236089E+01               0
GRID*             161164               0-2.500000000E+005.8756551728E+01+
*       -2.304311893E+01               0
GRID*             161165               0-2.500000000E+005.7270252402E+01+
*       -2.177329608E+01               0
GRID*             161166               0-2.500000000E+005.7195814254E+01+
*       -2.435095388E+01               0
GRID*             161167               0-2.500000000E+005.5854649457E+01+
*       -1.788895209E+01               0
GRID*             161168               0-2.500000000E+005.4363992457E+01+
*       -1.658978878E+01               0
GRID*             161169               0-2.500000000E+005.5778599560E+01+
*       -2.049145503E+01               0
GRID*             161170               0-2.500000000E+005.4286751167E+01+
*       -1.919804623E+01               0
GRID*             161171               0-2.500000000E+005.5704288721E+01+
*       -2.307895671E+01               0
GRID*             161172               0-2.500000000E+005.4212635879E+01+
*       -2.179711567E+01               0
GRID*             161173               0-2.500000000E+005.4144451344E+01+
*       -2.438610891E+01               0
GRID*             161174               0-2.500000000E+002.9284308943E+01+
*       -1.643402184E+01               0
GRID*             161175               0-2.500000000E+002.7442919710E+01+
*       -1.766283110E+01               0
GRID*             161176               0-2.500000000E+002.8762905691E+01+
*       -1.893656665E+01               0
GRID*             161177               0-2.500000000E+002.6893788801E+01+
*       -1.993484951E+01               0
GRID*             161178               0-2.500000000E+003.0717450283E+01+
*       -1.772873724E+01               0
GRID*             161179               0-2.500000000E+003.2543241126E+01+
*       -1.647834351E+01               0
GRID*             161180               0-2.500000000E+003.5759057496E+01+
*       -1.651858250E+01               0
GRID*             161181               0-2.500000000E+003.4014626298E+01+
*       -1.778483733E+01               0
GRID*             161182               0-2.500000000E+003.8925005820E+01+
*       -1.655079951E+01               0
GRID*             161183               0-2.500000000E+003.7243287517E+01+
*       -1.783009503E+01               0
GRID*             161184               0-2.500000000E+004.2052465979E+01+
*       -1.657421512E+01               0
GRID*             161185               0-2.500000000E+004.0413092668E+01+
*       -1.786402956E+01               0
GRID*             161186               0-2.500000000E+004.5152836230E+01+
*       -1.658886790E+01               0
GRID*             161187               0-2.500000000E+004.3541556306E+01+
*       -1.788696376E+01               0
GRID*             161188               0-2.500000000E+004.8234410617E+01+
*       -1.659527475E+01               0
GRID*             161189               0-2.500000000E+004.6642034153E+01+
*       -1.789941337E+01               0
GRID*             161190               0-2.500000000E+005.1303095198E+01+
*       -1.659466496E+01               0
GRID*             161191               0-2.500000000E+004.9723484338E+01+
*       -1.790237328E+01               0
GRID*             161192               0-2.500000000E+005.2792583113E+01+
*       -1.789839953E+01               0
GRID*             161193               0-2.500000000E+005.2714616605E+01+
*       -2.050435799E+01               0
GRID*             161194               0-2.500000000E+005.1220448552E+01+
*       -1.920471129E+01               0
GRID*             161195               0-2.500000000E+005.2642994583E+01+
*       -2.309911312E+01               0
GRID*             161196               0-2.500000000E+005.1144975310E+01+
*       -2.180635544E+01               0
GRID*             161197               0-2.500000000E+005.1079560576E+01+
*       -2.440323039E+01               0
GRID*             161198               0-2.500000000E+004.7998360433E+01+
*       -2.440852396E+01               0
GRID*             161199               0-2.500000000E+004.9568242669E+01+
*       -2.310707528E+01               0
GRID*             161200               0-2.500000000E+004.4895704865E+01+
*       -2.439656678E+01               0
GRID*             161201               0-2.500000000E+004.6475208680E+01+
*       -2.310361611E+01               0
GRID*             161202               0-2.500000000E+004.1763414803E+01+
*       -2.436540542E+01               0
GRID*             161203               0-2.500000000E+004.3356052442E+01+
*       -2.308368860E+01               0
GRID*             161204               0-2.500000000E+003.8585183944E+01+
*       -2.431384749E+01               0
GRID*             161205               0-2.500000000E+004.0196768103E+01+
*       -2.304573252E+01               0
GRID*             161206               0-2.500000000E+003.5325744139E+01+
*       -2.424139930E+01               0
GRID*             161207               0-2.500000000E+003.6967089530E+01+
*       -2.298872176E+01               0
GRID*             161208               0-2.500000000E+003.1898606800E+01+
*       -2.415020176E+01               0
GRID*             161209               0-2.500000000E+003.3587000827E+01+
*       -2.291150500E+01               0
GRID*             161210               0-2.500000000E+002.7974408517E+01+
*       -2.405796767E+01               0
GRID*             161211               0-2.500000000E+002.9711229689E+01+
*       -2.281135524E+01               0
GRID*             161212               0-2.500000000E+002.8025990330E+01+
*       -2.146502071E+01               0
GRID*             161213               0-2.500000000E+003.0272846396E+01+
*       -2.023927120E+01               0
GRID*             161214               0-2.500000000E+003.1958085755E+01+
*       -2.158560573E+01               0
GRID*             161215               0-2.500000000E+003.2227390987E+01+
*       -1.903144178E+01               0
GRID*             161216               0-2.500000000E+003.5548470203E+01+
*       -1.909518185E+01               0
GRID*             161217               0-2.500000000E+003.3761234893E+01+
*       -2.034178630E+01               0
GRID*             161218               0-2.500000000E+003.8769818163E+01+
*       -1.914221439E+01               0
GRID*             161219               0-2.500000000E+003.7075000849E+01+
*       -2.040730121E+01               0
GRID*             161220               0-2.500000000E+004.1929007189E+01+
*       -1.917543190E+01               0
GRID*             161221               0-2.500000000E+004.0285732683E+01+
*       -2.045361674E+01               0
GRID*             161222               0-2.500000000E+004.5049061225E+01+
*       -1.919574937E+01               0
GRID*             161223               0-2.500000000E+004.3436512108E+01+
*       -2.048421751E+01               0
GRID*             161224               0-2.500000000E+004.8143400829E+01+
*       -1.920371663E+01               0
GRID*             161225               0-2.500000000E+004.6550427901E+01+
*       -2.050005262E+01               0
GRID*             161226               0-2.500000000E+004.9640365043E+01+
*       -2.050605463E+01               0
GRID*             161227               0-2.500000000E+004.8063632403E+01+
*       -2.180677447E+01               0
GRID*             161228               0-2.500000000E+004.4962004178E+01+
*       -2.179689426E+01               0
GRID*             161229               0-2.500000000E+004.1830560371E+01+
*       -2.177101185E+01               0
GRID*             161230               0-2.500000000E+003.8651940414E+01+
*       -2.172833740E+01               0
GRID*             161231               0-2.500000000E+003.5390149964E+01+
*       -2.166768557E+01               0
GRID*             161232               0-2.500000000E+008.4887326704E+01+
*       -1.371285286E+01               0
GRID*             161233               0-2.500000000E+008.3410382683E+01+
*       -1.499099633E+01               0
GRID*             161234               0-2.500000000E+008.4861356144E+01+
*       -1.739023843E+01               0
GRID*             161235               0-2.500000000E+008.3249096328E+01+
*       -1.744279365E+01               0
GRID*             161236               0-2.500000000E+008.3960450947E+01+
*       -1.668303246E+01               0
GRID*             161237               0-2.500000000E+008.2522875174E+01+
*       -1.591349471E+01               0
GRID*             161238               0-2.500000000E+008.4847958456E+01+
*       -1.576053407E+01               0
GRID*             161239               0-2.500000000E+008.6252892518E+01+
*       -1.537551444E+01               0
GRID*             161240               0-2.500000000E+008.5613495790E+01+
*       -1.668617464E+01               0
GRID*             161241               0-2.500000000E+008.6402141171E+01+
*       -1.744593583E+01               0
GRID*             161242               0-2.500000000E+008.7018429851E+01+
*       -1.630115501E+01               0
GRID*             161243               0-2.500000000E+008.7204715601E+01+
*       -1.849811000E+01               0
GRID*             161244               0-2.500000000E+008.6907852056E+01+
*       -2.736421775E+01               0
GRID*             161245               0-2.500000000E+008.6924303740E+01+
*       -2.578250811E+01               0
GRID*             161246               0-2.500000000E+008.7432154270E+01+
*       -2.674672625E+01               0
GRID*             161247               0-2.500000000E+008.7392326745E+01+
*       -2.448172877E+01               0
GRID*             161248               0-2.500000000E+008.7916628959E+01+
*       -2.536423726E+01               0
GRID*             161249               0-2.500000000E+008.8189835122E+01+
*       -2.760543045E+01               0
GRID*             161250               0-2.500000000E+008.7292833784E+01+
*       -2.227076085E+01               0
GRID*             161251               0-2.500000000E+008.6892118399E+01+
*       -1.966529683E+01               0
GRID*             161252               0-2.500000000E+008.7417875352E+01+
*       -2.038179549E+01               0
GRID*             161253               0-2.500000000E+008.6925758479E+01+
*       -2.111649828E+01               0
GRID*             161254               0-2.500000000E+008.7696832474E+01+
*       -1.926340721E+01               0
GRID*             161255               0-2.500000000E+008.7818590737E+01+
*       -2.148725951E+01               0
GRID*             161256               0-2.500000000E+001.4974759609E+01+
*       -6.823007531E+01               0
GRID*             161257               0-2.500000000E+001.6477698375E+01+
*       -6.680334967E+01               0
GRID*             161258               0-2.500000000E+001.7969958506E+01+
*       -6.837432756E+01               0
GRID*             161259               0-2.500000000E+001.6467019741E+01+
*       -6.980105319E+01               0
GRID*             161260               0-2.500000000E+001.9478626495E+01+
*       -6.694360416E+01               0
GRID*             161261               0-2.500000000E+002.0974204562E+01+
*       -6.852082777E+01               0
GRID*             161262               0-2.500000000E+001.9465536573E+01+
*       -6.995155117E+01               0
GRID*             161263               0-2.500000000E+002.2488616775E+01+
*       -6.708346655E+01               0
GRID*             161264               0-2.500000000E+002.3989803863E+01+
*       -6.866387157E+01               0
GRID*             161265               0-2.500000000E+002.2475391649E+01+
*       -7.010123279E+01               0
GRID*             161266               0-2.500000000E+002.5509081231E+01+
*       -6.721677349E+01               0
GRID*             161267               0-2.500000000E+002.7018081691E+01+
*       -6.879624529E+01               0
GRID*             161268               0-2.500000000E+002.5498804322E+01+
*       -7.024334337E+01               0
GRID*             161269               0-2.500000000E+002.8540349390E+01+
*       -6.733667873E+01               0
GRID*             161270               0-2.500000000E+003.0058843618E+01+
*       -6.891045337E+01               0
GRID*             161271               0-2.500000000E+002.8536575918E+01+
*       -7.037001993E+01               0
GRID*             161272               0-2.500000000E+003.1581376776E+01+
*       -6.743688753E+01               0
GRID*             161273               0-2.500000000E+003.3109977833E+01+
*       -6.900004261E+01               0
GRID*             161274               0-2.500000000E+003.1587444675E+01+
*       -7.047360845E+01               0
GRID*             161275               0-2.500000000E+003.4629700990E+01+
*       -6.751275786E+01               0
GRID*             161276               0-2.500000000E+003.6167537023E+01+
*       -6.906093873E+01               0
GRID*             161277               0-2.500000000E+003.4647813866E+01+
*       -7.054822347E+01               0
GRID*             161278               0-2.500000000E+003.7681798324E+01+
*       -6.756203558E+01               0
GRID*             161279               0-2.500000000E+003.9226543559E+01+
*       -6.909231966E+01               0
GRID*             161280               0-2.500000000E+003.7712282258E+01+
*       -7.059122281E+01               0
GRID*             161281               0-2.500000000E+004.0733786549E+01+
*       -6.758497330E+01               0
GRID*             161282               0-2.500000000E+004.2282123621E+01+
*       -6.909621008E+01               0
GRID*             161283               0-2.500000000E+004.0774880631E+01+
*       -7.060355645E+01               0
GRID*             161284               0-2.500000000E+004.3782229823E+01+
*       -6.758393000E+01               0
GRID*             161285               0-2.500000000E+004.5330458577E+01+
*       -6.907673051E+01               0
GRID*             161286               0-2.500000000E+004.3830352375E+01+
*       -7.058901060E+01               0
GRID*             161287               0-2.500000000E+004.6824871261E+01+
*       -6.756281981E+01               0
GRID*             161288               0-2.500000000E+004.8369602319E+01+
*       -6.903959430E+01               0
GRID*             161289               0-2.500000000E+004.6875189635E+01+
*       -7.055350500E+01               0
GRID*             161290               0-2.500000000E+004.9861208759E+01+
*       -6.752645702E+01               0
GRID*             161291               0-2.500000000E+005.1400168583E+01+
*       -6.899132082E+01               0
GRID*             161292               0-2.500000000E+004.9908562143E+01+
*       -7.050445810E+01               0
GRID*             161293               0-2.500000000E+005.2892722659E+01+
*       -6.747957765E+01               0
GRID*             161294               0-2.500000000E+005.4425397477E+01+
*       -6.893749146E+01               0
GRID*             161295               0-2.500000000E+005.2932843401E+01+
*       -7.044923463E+01               0
GRID*             161296               0-2.500000000E+005.5922543921E+01+
*       -6.742569551E+01               0
GRID*             161297               0-2.500000000E+005.7450311133E+01+
*       -6.888113964E+01               0
GRID*             161298               0-2.500000000E+005.5953164690E+01+
*       -7.039293559E+01               0
GRID*             161299               0-2.500000000E+005.8954572760E+01+
*       -6.736633434E+01               0
GRID*             161300               0-2.500000000E+006.0480219701E+01+
*       -6.882215331E+01               0
GRID*             161301               0-2.500000000E+005.8975958074E+01+
*       -7.033695860E+01               0
GRID*             161302               0-2.500000000E+006.1992290346E+01+
*       -6.730106626E+01               0
GRID*             161303               0-2.500000000E+006.3518971525E+01+
*       -6.875791599E+01               0
GRID*             161304               0-2.500000000E+006.2006900880E+01+
*       -7.027900304E+01               0
GRID*             161305               0-2.500000000E+006.5037680421E+01+
*       -6.722843473E+01               0
GRID*             161306               0-2.500000000E+006.6567619365E+01+
*       -6.868519908E+01               0
GRID*             161307               0-2.500000000E+006.5048910468E+01+
*       -7.021468034E+01               0
GRID*             161308               0-2.500000000E+006.8090736427E+01+
*       -6.714736941E+01               0
GRID*             161309               0-2.500000000E+006.9624448088E+01+
*       -6.860254376E+01               0
GRID*             161310               0-2.500000000E+006.8101331025E+01+
*       -7.014037343E+01               0
GRID*             161311               0-2.500000000E+007.1149705982E+01+
*       -6.705829086E+01               0
GRID*             161312               0-2.500000000E+007.2686127719E+01+
*       -6.851104145E+01               0
GRID*             161313               0-2.500000000E+007.1160869824E+01+
*       -7.005529436E+01               0
GRID*             161314               0-2.500000000E+007.4211727318E+01+
*       -6.696339369E+01               0
GRID*             161315               0-2.500000000E+007.5748823357E+01+
*       -6.841389510E+01               0
GRID*             161316               0-2.500000000E+007.4223223757E+01+
*       -6.996154287E+01               0
GRID*             161317               0-2.500000000E+007.7273520252E+01+
*       -6.686618776E+01               0
GRID*             161318               0-2.500000000E+007.8809023331E+01+
*       -6.831532995E+01               0
GRID*             161319               0-2.500000000E+007.7284326436E+01+
*       -6.986303729E+01               0
GRID*             161320               0-2.500000000E+008.0332105590E+01+
*       -6.677051152E+01               0
GRID*             161321               0-2.500000000E+008.1864245349E+01+
*       -6.821922342E+01               0
GRID*             161322               0-2.500000000E+008.0341163090E+01+
*       -6.976404185E+01               0
GRID*             161323               0-2.500000000E+008.3385534623E+01+
*       -6.667935840E+01               0
GRID*             161324               0-2.500000000E+008.4913600822E+01+
*       -6.812789801E+01               0
GRID*             161325               0-2.500000000E+008.3392311549E+01+
*       -6.966776304E+01               0
GRID*             161326               0-2.500000000E+008.6434143409E+01+
*       -6.659311189E+01               0
GRID*             161327               0-2.500000000E+008.6438444541E+01+
*       -6.957510858E+01               0
GRID*             161328               0-2.500000000E+008.6443999724E+01+
*       -7.255798525E+01               0
GRID*             161329               0-2.500000000E+008.4920111031E+01+
*       -7.111380207E+01               0
GRID*             161330               0-2.500000000E+008.6451103578E+01+
*       -7.554324075E+01               0
GRID*             161331               0-2.500000000E+008.4928528386E+01+
*       -7.410187804E+01               0
GRID*             161332               0-2.500000000E+008.6461123130E+01+
*       -7.853114298E+01               0
GRID*             161333               0-2.500000000E+008.4939873904E+01+
*       -7.709343943E+01               0
GRID*             161334               0-2.500000000E+008.6475753589E+01+
*       -8.152163817E+01               0
GRID*             161335               0-2.500000000E+008.4956241925E+01+
*       -8.008858785E+01               0
GRID*             161336               0-2.500000000E+008.6496875315E+01+
*       -8.451428026E+01               0
GRID*             161337               0-2.500000000E+008.4980062837E+01+
*       -8.308695766E+01               0
GRID*             161338               0-2.500000000E+008.6526257844E+01+
*       -8.750818865E+01               0
GRID*             161339               0-2.500000000E+008.5013815287E+01+
*       -8.608760191E+01               0
GRID*             161340               0-2.500000000E+008.6565103199E+01+
*       -9.050216486E+01               0
GRID*             161341               0-2.500000000E+008.5059490737E+01+
*       -8.908902975E+01               0
GRID*             161342               0-2.500000000E+008.6613611735E+01+
*       -9.349501075E+01               0
GRID*             161343               0-2.500000000E+008.5117970708E+01+
*       -9.208950187E+01               0
GRID*             161344               0-2.500000000E+008.6671116113E+01+
*       -9.648582840E+01               0
GRID*             161345               0-2.500000000E+008.5188866741E+01+
*       -9.508744262E+01               0
GRID*             161346               0-2.500000000E+008.6736990373E+01+
*       -9.947408212E+01               0
GRID*             161347               0-2.500000000E+008.5271272953E+01+
*       -9.808162124E+01               0
GRID*             161348               0-2.500000000E+008.6811938084E+01+
*       -1.024597366E+02               0
GRID*             161349               0-2.500000000E+008.5365202817E+01+
*       -1.010709335E+02               0
GRID*             161350               0-2.500000000E+008.6899111533E+01+
*       -1.054439805E+02               0
GRID*             161351               0-2.500000000E+008.5473211465E+01+
*       -1.040530390E+02               0
GRID*             161352               0-2.500000000E+008.7005051241E+01+
*       -1.084302802E+02               0
GRID*             161353               0-2.500000000E+008.5602280311E+01+
*       -1.070145672E+02               0
GRID*             161354               0-2.500000000E+008.7136384813E+01+
*       -1.114360706E+02               0
GRID*             161355               0-2.500000000E+008.5763539775E+01+
*       -1.098714212E+02               0
GRID*             161356               0-2.500000000E+008.4562014077E+01+
*       -1.115746864E+02               0
GRID*             161357               0-2.500000000E+008.3121520539E+01+
*       -1.103193404E+02               0
GRID*             161358               0-2.500000000E+008.4323046236E+01+
*       -1.086160752E+02               0
GRID*             161359               0-2.500000000E+008.1819385282E+01+
*       -1.118182401E+02               0
GRID*             161360               0-2.500000000E+008.0275819653E+01+
*       -1.103023941E+02               0
GRID*             161361               0-2.500000000E+008.1577954910E+01+
*       -1.088034944E+02               0
GRID*             161362               0-2.500000000E+007.8993382389E+01+
*       -1.117788592E+02               0
GRID*             161363               0-2.500000000E+007.7508334050E+01+
*       -1.104120926E+02               0
GRID*             161364               0-2.500000000E+007.8790771314E+01+
*       -1.089356275E+02               0
GRID*             161365               0-2.500000000E+007.6246734171E+01+
*       -1.119045691E+02               0
GRID*             161366               0-2.500000000E+007.4743623333E+01+
*       -1.106028089E+02               0
GRID*             161367               0-2.500000000E+007.6005223211E+01+
*       -1.091103324E+02               0
GRID*             161368               0-2.500000000E+007.3499181098E+01+
*       -1.121174052E+02               0
GRID*             161369               0-2.500000000E+007.1971334774E+01+
*       -1.108546540E+02               0
GRID*             161370               0-2.500000000E+007.3215777009E+01+
*       -1.093400576E+02               0
GRID*             161371               0-2.500000000E+007.0745560200E+01+
*       -1.123951099E+02               0
GRID*             161372               0-2.500000000E+006.9194481570E+01+
*       -1.111642609E+02               0
GRID*             161373               0-2.500000000E+007.0420256145E+01+
*       -1.096238050E+02               0
GRID*             161374               0-2.500000000E+006.7986150031E+01+
*       -1.127410858E+02               0
GRID*             161375               0-2.500000000E+006.6407534821E+01+
*       -1.115374660E+02               0
GRID*             161376               0-2.500000000E+006.7615866360E+01+
*       -1.099606411E+02               0
GRID*             161377               0-2.500000000E+006.5200261523E+01+
*       -1.131684543E+02               0
GRID*             161378               0-2.500000000E+006.3583848781E+01+
*       -1.119767992E+02               0
GRID*             161379               0-2.500000000E+006.4791122079E+01+
*       -1.103458109E+02               0
GRID*             161380               0-2.500000000E+006.2336134936E+01+
*       -1.136685947E+02               0
GRID*             161381               0-2.500000000E+006.0678242544E+01+
*       -1.124493681E+02               0
GRID*             161382               0-2.500000000E+006.1925956390E+01+
*       -1.107575726E+02               0
GRID*             161383               0-2.500000000E+005.9356365235E+01+
*       -1.141294737E+02               0
GRID*             161384               0-2.500000000E+005.7688169826E+01+
*       -1.128239437E+02               0
GRID*             161385               0-2.500000000E+005.9010047135E+01+
*       -1.111438381E+02               0
GRID*             161386               0-2.500000000E+005.6311011468E+01+
*       -1.144608933E+02               0
GRID*             161387               0-2.500000000E+005.4685128779E+01+
*       -1.130981054E+02               0
GRID*             161388               0-2.500000000E+005.6062287138E+01+
*       -1.114611557E+02               0
GRID*             161389               0-2.500000000E+005.3274650432E+01+
*       -1.146872551E+02               0
GRID*             161390               0-2.500000000E+005.1702238849E+01+
*       -1.132933860E+02               0
GRID*             161391               0-2.500000000E+005.3112717196E+01+
*       -1.117042363E+02               0
GRID*             161392               0-2.500000000E+005.0271252957E+01+
*       -1.148395637E+02               0
GRID*             161393               0-2.500000000E+004.8747242155E+01+
*       -1.134286695E+02               0
GRID*             161394               0-2.500000000E+005.0178228047E+01+
*       -1.118824918E+02               0
GRID*             161395               0-2.500000000E+004.7301488396E+01+
*       -1.149383124E+02               0
GRID*             161396               0-2.500000000E+004.5818389941E+01+
*       -1.135171031E+02               0
GRID*             161397               0-2.500000000E+004.7264143700E+01+
*       -1.120074602E+02               0
GRID*             161398               0-2.500000000E+004.4359764202E+01+
*       -1.149957401E+02               0
GRID*             161399               0-2.500000000E+004.2911717804E+01+
*       -1.135675785E+02               0
GRID*             161400               0-2.500000000E+004.4370343544E+01+
*       -1.120889415E+02               0
GRID*             161401               0-2.500000000E+004.1440000927E+01+
*       -1.150192588E+02               0
GRID*             161402               0-2.500000000E+004.0023464233E+01+
*       -1.135859598E+02               0
GRID*             161403               0-2.500000000E+004.1495181110E+01+
*       -1.121342795E+02               0
GRID*             161404               0-2.500000000E+003.8536926237E+01+
*       -1.150134509E+02               0
GRID*             161405               0-2.500000000E+003.7150505305E+01+
*       -1.135759302E+02               0
GRID*             161406               0-2.500000000E+003.8637043300E+01+
*       -1.121484391E+02               0
GRID*             161407               0-2.500000000E+003.5646234752E+01+
*       -1.149810771E+02               0
GRID*             161408               0-2.500000000E+003.4290567856E+01+
*       -1.135394585E+02               0
GRID*             161409               0-2.500000000E+003.5794838408E+01+
*       -1.121343116E+02               0
GRID*             161410               0-2.500000000E+003.2765291978E+01+
*       -1.149232160E+02               0
GRID*             161411               0-2.500000000E+003.1443691264E+01+
*       -1.134767249E+02               0
GRID*             161412               0-2.500000000E+003.2968967142E+01+
*       -1.120929673E+02               0
GRID*             161413               0-2.500000000E+002.9895504918E+01+
*       -1.148385051E+02               0
GRID*             161414               0-2.500000000E+002.8615670867E+01+
*       -1.133855553E+02               0
GRID*             161415               0-2.500000000E+003.0163857213E+01+
*       -1.120237751E+02               0
GRID*             161416               0-2.500000000E+002.7046616013E+01+
*       -1.147216858E+02               0
GRID*             161417               0-2.500000000E+002.5822494860E+01+
*       -1.132608712E+02               0
GRID*             161418               0-2.500000000E+002.7391549714E+01+
*       -1.119247407E+02               0
GRID*             161419               0-2.500000000E+002.4247279085E+01+
*       -1.145624519E+02               0
GRID*             161420               0-2.500000000E+002.3099717154E+01+
*       -1.130958864E+02               0
GRID*             161421               0-2.500000000E+002.4674932929E+01+
*       -1.117943057E+02               0
GRID*             161422               0-2.500000000E+002.1573340425E+01+
*       -1.143478587E+02               0
GRID*             161423               0-2.500000000E+002.0521355759E+01+
*       -1.128896599E+02               0
GRID*             161424               0-2.500000000E+002.2047732489E+01+
*       -1.116376876E+02               0
GRID*             161425               0-2.500000000E+001.9073348302E+01+
*       -1.141638432E+02               0
GRID*             161426               0-2.500000000E+001.8083571570E+01+
*       -1.127612669E+02               0
GRID*             161427               0-2.500000000E+001.9531579027E+01+
*       -1.114870836E+02               0
GRID*             161428               0-2.500000000E+001.5768051014E+01+
*       -1.127287108E+02               0
GRID*             161429               0-2.500000000E+001.7121541467E+01+
*       -1.113756601E+02               0
GRID*             161430               0-2.500000000E+001.3592870946E+01+
*       -1.126819186E+02               0
GRID*             161431               0-2.500000000E+001.4799218202E+01+
*       -1.112898103E+02               0
GRID*             161432               0-2.500000000E+001.2510329353E+01+
*       -1.112054144E+02               0
GRID*             161433               0-2.500000000E+001.2610878764E+01+
*       -1.083017998E+02               0
GRID*             161434               0-2.500000000E+001.3732951407E+01+
*       -1.098089031E+02               0
GRID*             161435               0-2.500000000E+001.2721667663E+01+
*       -1.053771661E+02               0
GRID*             161436               0-2.500000000E+001.3884064800E+01+
*       -1.069160503E+02               0
GRID*             161437               0-2.500000000E+001.2828616079E+01+
*       -1.024373599E+02               0
GRID*             161438               0-2.500000000E+001.4030649433E+01+
*       -1.039989462E+02               0
GRID*             161439               0-2.500000000E+001.2929248924E+01+
*       -9.948816981E+01               0
GRID*             161440               0-2.500000000E+001.4168646181E+01+
*       -1.010654885E+02               0
GRID*             161441               0-2.500000000E+001.3024139074E+01+
*       -9.653213777E+01               0
GRID*             161442               0-2.500000000E+001.4298613213E+01+
*       -9.812118542E+01               0
GRID*             161443               0-2.500000000E+001.3113684082E+01+
*       -9.356894705E+01               0
GRID*             161444               0-2.500000000E+001.4421711173E+01+
*       -9.516739410E+01               0
GRID*             161445               0-2.500000000E+001.3196752542E+01+
*       -9.059706001E+01               0
GRID*             161446               0-2.500000000E+001.4537523901E+01+
*       -9.220267910E+01               0
GRID*             161447               0-2.500000000E+001.3270709381E+01+
*       -8.761569378E+01               0
GRID*             161448               0-2.500000000E+001.4643347385E+01+
*       -8.922528183E+01               0
GRID*             161449               0-2.500000000E+001.3332818119E+01+
*       -8.462618802E+01               0
GRID*             161450               0-2.500000000E+001.4735220525E+01+
*       -8.623550767E+01               0
GRID*             161451               0-2.500000000E+001.3382103259E+01+
*       -8.163160885E+01               0
GRID*             161452               0-2.500000000E+001.4810360376E+01+
*       -8.323645644E+01               0
GRID*             161453               0-2.500000000E+001.3419345659E+01+
*       -7.863520821E+01               0
GRID*             161454               0-2.500000000E+001.4868562818E+01+
*       -8.023260796E+01               0
GRID*             161455               0-2.500000000E+001.3446281298E+01+
*       -7.563945916E+01               0
GRID*             161456               0-2.500000000E+001.4911578327E+01+
*       -7.722800363E+01               0
GRID*             161457               0-2.500000000E+001.3464875367E+01+
*       -7.264589197E+01               0
GRID*             161458               0-2.500000000E+001.4941987664E+01+
*       -7.422547555E+01               0
GRID*             161459               0-2.500000000E+001.3476834715E+01+
*       -6.965421654E+01               0
GRID*             161460               0-2.500000000E+001.4962317353E+01+
*       -7.122567055E+01               0
GRID*             161461               0-2.500000000E+001.3483699883E+01+
*       -6.666711771E+01               0
GRID*             161462               0-2.500000000E+001.6447898241E+01+
*       -7.280630625E+01               0
GRID*             161463               0-2.500000000E+001.7952600629E+01+
*       -7.138168890E+01               0
GRID*             161464               0-2.500000000E+002.0954079200E+01+
*       -7.154034157E+01               0
GRID*             161465               0-2.500000000E+001.9441143256E+01+
*       -7.297047930E+01               0
GRID*             161466               0-2.500000000E+002.3970205789E+01+
*       -7.169548758E+01               0
GRID*             161467               0-2.500000000E+002.2448893340E+01+
*       -7.313459636E+01               0
GRID*             161468               0-2.500000000E+002.7003344383E+01+
*       -7.183888691E+01               0
GRID*             161469               0-2.500000000E+002.5474745851E+01+
*       -7.329103112E+01               0
GRID*             161470               0-2.500000000E+003.0053769461E+01+
*       -7.196126836E+01               0
GRID*             161471               0-2.500000000E+002.8520537926E+01+
*       -7.343013534E+01               0
GRID*             161472               0-2.500000000E+003.3118663738E+01+
*       -7.205388334E+01               0
GRID*             161473               0-2.500000000E+003.1584988524E+01+
*       -7.354154326E+01               0
GRID*             161474               0-2.500000000E+003.6191916695E+01+
*       -7.211097654E+01               0
GRID*             161475               0-2.500000000E+003.4662766567E+01+
*       -7.361663641E+01               0
GRID*             161476               0-2.500000000E+003.9265688856E+01+
*       -7.213216259E+01               0
GRID*             161477               0-2.500000000E+003.7745323293E+01+
*       -7.365191632E+01               0
GRID*             161478               0-2.500000000E+004.2332572119E+01+
*       -7.212101415E+01               0
GRID*             161479               0-2.500000000E+004.0823380344E+01+
*       -7.364962029E+01               0
GRID*             161480               0-2.500000000E+004.5386776841E+01+
*       -7.208358358E+01               0
GRID*             161481               0-2.500000000E+004.3888996585E+01+
*       -7.361558713E+01               0
GRID*             161482               0-2.500000000E+004.8425071002E+01+
*       -7.202833697E+01               0
GRID*             161483               0-2.500000000E+004.6936658208E+01+
*       -7.355841555E+01               0
GRID*             161484               0-2.500000000E+005.1448244912E+01+
*       -7.196576462E+01               0
GRID*             161485               0-2.500000000E+004.9964753770E+01+
*       -7.348964350E+01               0
GRID*             161486               0-2.500000000E+005.4461540923E+01+
*       -7.190464351E+01               0
GRID*             161487               0-2.500000000E+005.2976942434E+01+
*       -7.342117349E+01               0
GRID*             161488               0-2.500000000E+005.7473291673E+01+
*       -7.184919666E+01               0
GRID*             161489               0-2.500000000E+005.5981667906E+01+
*       -7.336090458E+01               0
GRID*             161490               0-2.500000000E+006.0492507340E+01+
*       -7.179802626E+01               0
GRID*             161491               0-2.500000000E+005.8989840939E+01+
*       -7.331026432E+01               0
GRID*             161492               0-2.500000000E+006.3525615626E+01+
*       -7.174473155E+01               0
GRID*             161493               0-2.500000000E+006.2011222086E+01+
*       -7.326375478E+01               0
GRID*             161494               0-2.500000000E+006.6573588772E+01+
*       -7.168142419E+01               0
GRID*             161495               0-2.500000000E+006.5050293930E+01+
*       -7.321147541E+01               0
GRID*             161496               0-2.500000000E+006.9632399252E+01+
*       -7.160442498E+01               0
GRID*             161497               0-2.500000000E+006.8104657000E+01+
*       -7.314547574E+01               0
GRID*             161498               0-2.500000000E+007.2696281559E+01+
*       -7.151471652E+01               0
GRID*             161499               0-2.500000000E+007.1167810987E+01+
*       -7.306384714E+01               0
GRID*             161500               0-2.500000000E+007.5759932635E+01+
*       -7.141627553E+01               0
GRID*             161501               0-2.500000000E+007.4232990437E+01+
*       -7.296944918E+01               0
GRID*             161502               0-2.500000000E+007.8819456921E+01+
*       -7.131413476E+01               0
GRID*             161503               0-2.500000000E+007.7295063120E+01+
*       -7.286737299E+01               0
GRID*             161504               0-2.500000000E+008.1872752160E+01+
*       -7.121269373E+01               0
GRID*             161505               0-2.500000000E+008.0351045991E+01+
*       -7.276278664E+01               0
GRID*             161506               0-2.500000000E+008.3400551642E+01+
*       -7.265873277E+01               0
GRID*             161507               0-2.500000000E+008.3411723082E+01+
*       -7.565318725E+01               0
GRID*             161508               0-2.500000000E+008.1883746339E+01+
*       -7.421004198E+01               0
GRID*             161509               0-2.500000000E+008.3427614260E+01+
*       -7.865249283E+01               0
GRID*             161510               0-2.500000000E+008.1899463438E+01+
*       -7.721224066E+01               0
GRID*             161511               0-2.500000000E+008.3451212524E+01+
*       -8.165656134E+01               0
GRID*             161512               0-2.500000000E+008.1922584859E+01+
*       -8.022046632E+01               0
GRID*             161513               0-2.500000000E+008.3485934158E+01+
*       -8.466452448E+01               0
GRID*             161514               0-2.500000000E+008.1957083845E+01+
*       -8.323412817E+01               0
GRID*             161515               0-2.500000000E+008.3535026398E+01+
*       -8.767454743E+01               0
GRID*             161516               0-2.500000000E+008.2007145268E+01+
*       -8.625147000E+01               0
GRID*             161517               0-2.500000000E+008.3600525511E+01+
*       -9.068399107E+01               0
GRID*             161518               0-2.500000000E+008.2076061172E+01+
*       -8.926950876E+01               0
GRID*             161519               0-2.500000000E+008.3682331722E+01+
*       -9.369011068E+01               0
GRID*             161520               0-2.500000000E+008.2164886526E+01+
*       -9.228459988E+01               0
GRID*             161521               0-2.500000000E+008.3778782448E+01+
*       -9.669070808E+01               0
GRID*             161522               0-2.500000000E+008.2272247429E+01+
*       -9.529337614E+01               0
GRID*             161523               0-2.500000000E+008.3888298566E+01+
*       -9.968418340E+01               0
GRID*             161524               0-2.500000000E+008.2395808061E+01+
*       -9.829327023E+01               0
GRID*             161525               0-2.500000000E+008.4011202582E+01+
*       -1.026694066E+02               0
GRID*             161526               0-2.500000000E+008.2534298331E+01+
*       -1.012826565E+02               0
GRID*             161527               0-2.500000000E+008.4151627551E+01+
*       -1.056459576E+02               0
GRID*             161528               0-2.500000000E+008.2689618668E+01+
*       -1.042623251E+02               0
GRID*             161529               0-2.500000000E+008.2872393475E+01+
*       -1.072474657E+02               0
GRID*             161530               0-2.500000000E+008.0079795153E+01+
*       -1.073982863E+02               0
GRID*             161531               0-2.500000000E+008.1374233718E+01+
*       -1.058422576E+02               0
GRID*             161532               0-2.500000000E+007.7281593904E+01+
*       -1.075699790E+02               0
GRID*             161533               0-2.500000000E+007.8570617742E+01+
*       -1.060326378E+02               0
GRID*             161534               0-2.500000000E+007.4477719400E+01+
*       -1.077864066E+02               0
GRID*             161535               0-2.500000000E+007.5754090093E+01+
*       -1.062460532E+02               0
GRID*             161536               0-2.500000000E+007.1667472334E+01+
*       -1.080512077E+02               0
GRID*             161537               0-2.500000000E+007.2929414725E+01+
*       -1.064975568E+02               0
GRID*             161538               0-2.500000000E+006.8852104139E+01+
*       -1.083643839E+02               0
GRID*             161539               0-2.500000000E+007.0099320328E+01+
*       -1.067917866E+02               0
GRID*             161540               0-2.500000000E+006.6028638857E+01+
*       -1.087233038E+02               0
GRID*             161541               0-2.500000000E+006.7264876636E+01+
*       -1.071270466E+02               0
GRID*             161542               0-2.500000000E+006.3185733461E+01+
*       -1.091164018E+02               0
GRID*             161543               0-2.500000000E+006.4423250239E+01+
*       -1.074938947E+02               0
GRID*             161544               0-2.500000000E+006.0308481317E+01+
*       -1.095125333E+02               0
GRID*             161545               0-2.500000000E+006.1568258388E+01+
*       -1.078713625E+02               0
GRID*             161546               0-2.500000000E+005.7398487945E+01+
*       -1.098591973E+02               0
GRID*             161547               0-2.500000000E+005.8696922126E+01+
*       -1.082278925E+02               0
GRID*             161548               0-2.500000000E+005.4479480356E+01+
*       -1.101386446E+02               0
GRID*             161549               0-2.500000000E+005.5815681163E+01+
*       -1.085366861E+02               0
GRID*             161550               0-2.500000000E+005.1568931571E+01+
*       -1.103526703E+02               0
GRID*             161551               0-2.500000000E+005.2935694731E+01+
*       -1.087870786E+02               0
GRID*             161552               0-2.500000000E+004.8674237542E+01+
*       -1.105097060E+02               0
GRID*             161553               0-2.500000000E+005.0064941065E+01+
*       -1.089798845E+02               0
GRID*             161554               0-2.500000000E+004.5796962750E+01+
*       -1.106191852E+02               0
GRID*             161555               0-2.500000000E+004.7207056592E+01+
*       -1.091214310E+02               0
GRID*             161556               0-2.500000000E+004.2936861513E+01+
*       -1.106894021E+02               0
GRID*             161557               0-2.500000000E+004.4363480720E+01+
*       -1.092196459E+02               0
GRID*             161558               0-2.500000000E+004.0093873280E+01+
*       -1.107263951E+02               0
GRID*             161559               0-2.500000000E+004.1535553683E+01+
*       -1.092815177E+02               0
GRID*             161560               0-2.500000000E+003.7268333619E+01+
*       -1.107336396E+02               0
GRID*             161561               0-2.500000000E+003.8725163599E+01+
*       -1.093115956E+02               0
GRID*             161562               0-2.500000000E+003.4460716914E+01+
*       -1.107123047E+02               0
GRID*             161563               0-2.500000000E+003.5934212125E+01+
*       -1.093116327E+02               0
GRID*             161564               0-2.500000000E+003.1672766371E+01+
*       -1.106618587E+02               0
GRID*             161565               0-2.500000000E+003.3164516143E+01+
*       -1.092811961E+02               0
GRID*             161566               0-2.500000000E+002.8910583971E+01+
*       -1.105810431E+02               0
GRID*             161567               0-2.500000000E+003.0419493130E+01+
*       -1.092191267E+02               0
GRID*             161568               0-2.500000000E+002.6187877200E+01+
*       -1.104691038E+02               0
GRID*             161569               0-2.500000000E+002.7706911457E+01+
*       -1.091254062E+02               0
GRID*             161570               0-2.500000000E+002.3527158940E+01+
*       -1.103278136E+02               0
GRID*             161571               0-2.500000000E+002.5040103211E+01+
*       -1.090026116E+02               0
GRID*             161572               0-2.500000000E+002.0955412525E+01+
*       -1.101678995E+02               0
GRID*             161573               0-2.500000000E+002.2434838976E+01+
*       -1.088580255E+02               0
GRID*             161574               0-2.500000000E+001.8476074688E+01+
*       -1.100259509E+02               0
GRID*             161575               0-2.500000000E+001.9899908186E+01+
*       -1.087067668E+02               0
GRID*             161576               0-2.500000000E+001.6076186939E+01+
*       -1.099127547E+02               0
GRID*             161577               0-2.500000000E+001.7430720160E+01+
*       -1.085630456E+02               0
GRID*             161578               0-2.500000000E+001.5009920143E+01+
*       -1.084318475E+02               0
GRID*             161579               0-2.500000000E+001.5199755780E+01+
*       -1.055442306E+02               0
GRID*             161580               0-2.500000000E+001.6325611123E+01+
*       -1.070600278E+02               0
GRID*             161581               0-2.500000000E+001.5374816940E+01+
*       -1.026318446E+02               0
GRID*             161582               0-2.500000000E+001.6543923286E+01+
*       -1.041771290E+02               0
GRID*             161583               0-2.500000000E+001.5538774580E+01+
*       -9.970462805E+01               0
GRID*             161584               0-2.500000000E+001.6744945338E+01+
*       -1.012709842E+02               0
GRID*             161585               0-2.500000000E+001.5695233089E+01+
*       -9.676638486E+01               0
GRID*             161586               0-2.500000000E+001.6935394455E+01+
*       -9.834982748E+01               0
GRID*             161587               0-2.500000000E+001.5845854383E+01+
*       -9.381566022E+01               0
GRID*             161588               0-2.500000000E+001.7119376299E+01+
*       -9.541465098E+01               0
GRID*             161589               0-2.500000000E+001.5988676460E+01+
*       -9.084842527E+01               0
GRID*             161590               0-2.500000000E+001.7297006942E+01+
*       -9.246140639E+01               0
GRID*             161591               0-2.500000000E+001.6117617920E+01+
*       -8.786212344E+01               0
GRID*             161592               0-2.500000000E+001.7462946995E+01+
*       -8.948526688E+01               0
GRID*             161593               0-2.500000000E+001.6225564203E+01+
*       -8.485925033E+01               0
GRID*             161594               0-2.500000000E+001.7607961598E+01+
*       -8.648586610E+01               0
GRID*             161595               0-2.500000000E+001.6310097584E+01+
*       -8.184653141E+01               0
GRID*             161596               0-2.500000000E+001.7725301411E+01+
*       -8.346932529E+01               0
GRID*             161597               0-2.500000000E+001.6372909132E+01+
*       -7.883076710E+01               0
GRID*             161598               0-2.500000000E+001.7814443898E+01+
*       -8.044469054E+01               0
GRID*             161599               0-2.500000000E+001.6417572712E+01+
*       -7.581682420E+01               0
GRID*             161600               0-2.500000000E+001.7878903517E+01+
*       -7.741958767E+01               0
GRID*             161601               0-2.500000000E+001.7923483289E+01+
*       -7.439765490E+01               0
GRID*             161602               0-2.500000000E+001.9401355258E+01+
*       -7.600000284E+01               0
GRID*             161603               0-2.500000000E+002.0919015225E+01+
*       -7.457282724E+01               0
GRID*             161604               0-2.500000000E+002.3933696827E+01+
*       -7.474588063E+01               0
GRID*             161605               0-2.500000000E+002.2403818712E+01+
*       -7.618411151E+01               0
GRID*             161606               0-2.500000000E+002.6971839187E+01+
*       -7.490728821E+01               0
GRID*             161607               0-2.500000000E+002.5430790163E+01+
*       -7.636213772E+01               0
GRID*             161608               0-2.500000000E+003.0035094586E+01+
*       -7.504480390E+01               0
GRID*             161609               0-2.500000000E+002.8486395846E+01+
*       -7.652195677E+01               0
GRID*             161610               0-2.500000000E+003.3120025028E+01+
*       -7.514492648E+01               0
GRID*             161611               0-2.500000000E+003.1570131089E+01+
*       -7.664818711E+01               0
GRID*             161612               0-2.500000000E+003.6216636409E+01+
*       -7.519774211E+01               0
GRID*             161613               0-2.500000000E+003.4673894870E+01+
*       -7.672603218E+01               0
GRID*             161614               0-2.500000000E+003.9312052137E+01+
*       -7.520456208E+01               0
GRID*             161615               0-2.500000000E+003.7783365253E+01+
*       -7.675038787E+01               0
GRID*             161616               0-2.500000000E+004.2395424039E+01+
*       -7.517191413E+01               0
GRID*             161617               0-2.500000000E+004.0884095832E+01+
*       -7.672685592E+01               0
GRID*             161618               0-2.500000000E+004.5458342262E+01+
*       -7.510795519E+01               0
GRID*             161619               0-2.500000000E+004.3964769716E+01+
*       -7.666428219E+01               0
GRID*             161620               0-2.500000000E+004.8494960820E+01+
*       -7.502440725E+01               0
GRID*             161621               0-2.500000000E+004.7016644874E+01+
*       -7.657394689E+01               0
GRID*             161622               0-2.500000000E+005.1505742260E+01+
*       -7.493907064E+01               0
GRID*             161623               0-2.500000000E+005.0035949310E+01+
*       -7.647383440E+01               0
GRID*             161624               0-2.500000000E+005.4499111661E+01+
*       -7.486637857E+01               0
GRID*             161625               0-2.500000000E+005.3027911487E+01+
*       -7.638427573E+01               0
GRID*             161626               0-2.500000000E+005.7489097854E+01+
*       -7.481295200E+01               0
GRID*             161627               0-2.500000000E+005.6006541609E+01+
*       -7.631842599E+01               0
GRID*             161628               0-2.500000000E+006.0491560190E+01+
*       -7.477572666E+01               0
GRID*             161629               0-2.500000000E+005.8990817105E+01+
*       -7.627841434E+01               0
GRID*             161630               0-2.500000000E+006.3518107453E+01+
*       -7.474128263E+01               0
GRID*             161631               0-2.500000000E+006.1998445557E+01+
*       -7.625325451E+01               0
GRID*             161632               0-2.500000000E+006.6569007274E+01+
*       -7.469169611E+01               0
GRID*             161633               0-2.500000000E+006.5036820798E+01+
*       -7.622150332E+01               0
GRID*             161634               0-2.500000000E+006.9634595680E+01+
*       -7.462077649E+01               0
GRID*             161635               0-2.500000000E+006.8098945955E+01+
*       -7.616699685E+01               0
GRID*             161636               0-2.500000000E+007.2704565694E+01+
*       -7.453102621E+01               0
GRID*             161637               0-2.500000000E+007.1171350387E+01+
*       -7.608795556E+01               0
GRID*             161638               0-2.500000000E+007.5771602068E+01+
*       -7.442862667E+01               0
GRID*             161639               0-2.500000000E+007.4243177326E+01+
*       -7.599020370E+01               0
GRID*             161640               0-2.500000000E+007.8831631247E+01+
*       -7.432020331E+01               0
GRID*             161641               0-2.500000000E+007.7308170195E+01+
*       -7.588145699E+01               0
GRID*             161642               0-2.500000000E+008.0364331595E+01+
*       -7.576745865E+01               0
GRID*             161643               0-2.500000000E+008.0384078893E+01+
*       -7.877900963E+01               0
GRID*             161644               0-2.500000000E+007.8848947050E+01+
*       -7.733422762E+01               0
GRID*             161645               0-2.500000000E+008.0414390546E+01+
*       -8.179831607E+01               0
GRID*             161646               0-2.500000000E+007.8875884580E+01+
*       -8.035685937E+01               0
GRID*             161647               0-2.500000000E+008.0460767291E+01+
*       -8.482412418E+01               0
GRID*             161648               0-2.500000000E+007.8918073992E+01+
*       -8.338831208E+01               0
GRID*             161649               0-2.500000000E+008.0528747618E+01+
*       -8.785317064E+01               0
GRID*             161650               0-2.500000000E+007.8982369640E+01+
*       -8.642582482E+01               0
GRID*             161651               0-2.500000000E+008.0621653077E+01+
*       -9.088024459E+01               0
GRID*             161652               0-2.500000000E+007.9074339523E+01+
*       -8.946390647E+01               0
GRID*             161653               0-2.500000000E+008.0738208633E+01+
*       -9.389986787E+01               0
GRID*             161654               0-2.500000000E+007.9194975184E+01+
*       -9.249551258E+01               0
GRID*             161655               0-2.500000000E+008.0874401056E+01+
*       -9.690792623E+01               0
GRID*             161656               0-2.500000000E+007.9340362260E+01+
*       -9.551441795E+01               0
GRID*             161657               0-2.500000000E+008.1026356656E+01+
*       -9.990164623E+01               0
GRID*             161658               0-2.500000000E+007.9504949651E+01+
*       -9.851630222E+01               0
GRID*             161659               0-2.500000000E+008.1192193722E+01+
*       -1.028790855E+02               0
GRID*             161660               0-2.500000000E+007.9684252047E+01+
*       -1.014980752E+02               0
GRID*             161661               0-2.500000000E+007.9876808772E+01+
*       -1.044590179E+02               0
GRID*             161662               0-2.500000000E+007.7048125528E+01+
*       -1.046693216E+02               0
GRID*             161663               0-2.500000000E+007.8354316558E+01+
*       -1.030957017E+02               0
GRID*             161664               0-2.500000000E+007.4208868199E+01+
*       -1.049108567E+02               0
GRID*             161665               0-2.500000000E+007.5502903634E+01+
*       -1.033341251E+02               0
GRID*             161666               0-2.500000000E+007.1363284749E+01+
*       -1.051917427E+02               0
GRID*             161667               0-2.500000000E+007.2642738223E+01+
*       -1.036050426E+02               0
GRID*             161668               0-2.500000000E+006.8515850144E+01+
*       -1.055138420E+02               0
GRID*             161669               0-2.500000000E+006.9779814565E+01+
*       -1.039137980E+02               0
GRID*             161670               0-2.500000000E+006.5669482042E+01+
*       -1.058722877E+02               0
GRID*             161671               0-2.500000000E+006.6920455550E+01+
*       -1.042590831E+02               0
GRID*             161672               0-2.500000000E+006.2823259248E+01+
*       -1.062520082E+02               0
GRID*             161673               0-2.500000000E+006.4069491052E+01+
*       -1.046304012E+02               0
GRID*             161674               0-2.500000000E+005.9973080528E+01+
*       -1.066259474E+02               0
GRID*             161675               0-2.500000000E+006.1228081388E+01+
*       -1.050065931E+02               0
GRID*             161676               0-2.500000000E+005.7118472298E+01+
*       -1.069630465E+02               0
GRID*             161677               0-2.500000000E+005.8394630699E+01+
*       -1.053611014E+02               0
GRID*             161678               0-2.500000000E+005.4265467680E+01+
*       -1.072459704E+02               0
GRID*             161679               0-2.500000000E+005.5568258815E+01+
*       -1.056723308E+02               0
GRID*             161680               0-2.500000000E+005.1419720182E+01+
*       -1.074703451E+02               0
GRID*             161681               0-2.500000000E+005.2749493131E+01+
*       -1.059292368E+02               0
GRID*             161682               0-2.500000000E+004.8583887828E+01+
*       -1.076398092E+02               0
GRID*             161683               0-2.500000000E+004.9938666945E+01+
*       -1.061302697E+02               0
GRID*             161684               0-2.500000000E+004.5758867471E+01+
*       -1.077620978E+02               0
GRID*             161685               0-2.500000000E+004.7135698708E+01+
*       -1.062804760E+02               0
GRID*             161686               0-2.500000000E+004.2946195004E+01+
*       -1.078458707E+02               0
GRID*             161687               0-2.500000000E+004.4341581755E+01+
*       -1.063883226E+02               0
GRID*             161688               0-2.500000000E+004.0149383508E+01+
*       -1.078974531E+02               0
GRID*             161689               0-2.500000000E+004.1560024829E+01+
*       -1.064618060E+02               0
GRID*             161690               0-2.500000000E+003.7372672035E+01+
*       -1.079192852E+02               0
GRID*             161691               0-2.500000000E+003.8796891944E+01+
*       -1.065051427E+02               0
GRID*             161692               0-2.500000000E+003.4618988928E+01+
*       -1.079099863E+02               0
GRID*             161693               0-2.500000000E+003.6057448838E+01+
*       -1.065176388E+02               0
GRID*             161694               0-2.500000000E+003.1889563693E+01+
*       -1.078660479E+02               0
GRID*             161695               0-2.500000000E+003.3344036477E+01+
*       -1.064948382E+02               0
GRID*             161696               0-2.500000000E+002.9186208025E+01+
*       -1.077854364E+02               0
GRID*             161697               0-2.500000000E+003.0656278587E+01+
*       -1.064323576E+02               0
GRID*             161698               0-2.500000000E+002.6515083584E+01+
*       -1.076709997E+02               0
GRID*             161699               0-2.500000000E+002.7994380151E+01+
*       -1.063310299E+02               0
GRID*             161700               0-2.500000000E+002.3887425046E+01+
*       -1.075290553E+02               0
GRID*             161701               0-2.500000000E+002.5362405419E+01+
*       -1.061974434E+02               0
GRID*             161702               0-2.500000000E+002.1314331044E+01+
*       -1.073700296E+02               0
GRID*             161703               0-2.500000000E+002.2766917113E+01+
*       -1.060410594E+02               0
GRID*             161704               0-2.500000000E+001.8797146019E+01+
*       -1.072095456E+02               0
GRID*             161705               0-2.500000000E+002.0211568877E+01+
*       -1.058728083E+02               0
GRID*             161706               0-2.500000000E+001.7692036983E+01+
*       -1.057065278E+02               0
GRID*             161707               0-2.500000000E+001.7925456891E+01+
*       -1.028244882E+02               0
GRID*             161708               0-2.500000000E+001.9073570588E+01+
*       -1.043538870E+02               0
GRID*             161709               0-2.500000000E+001.8144950780E+01+
*       -9.992506446E+01               0
GRID*             161710               0-2.500000000E+001.9325462333E+01+
*       -1.014785685E+02               0
GRID*             161711               0-2.500000000E+001.8358539906E+01+
*       -9.701260129E+01               0
GRID*             161712               0-2.500000000E+001.9568096230E+01+
*       -9.858783827E+01               0
GRID*             161713               0-2.500000000E+001.8570798486E+01+
*       -9.408288996E+01               0
GRID*             161714               0-2.500000000E+001.9809962093E+01+
*       -9.568084028E+01               0
GRID*             161715               0-2.500000000E+001.8779562189E+01+
*       -9.112640247E+01               0
GRID*             161716               0-2.500000000E+002.0053353733E+01+
*       -9.274788604E+01               0
GRID*             161717               0-2.500000000E+001.8972457006E+01+
*       -8.813563572E+01               0
GRID*             161718               0-2.500000000E+002.0289072200E+01+
*       -8.977677131E+01               0
GRID*             161719               0-2.500000000E+001.9131892676E+01+
*       -8.511455047E+01               0
GRID*             161720               0-2.500000000E+002.0496388084E+01+
*       -8.676432009E+01               0
GRID*             161721               0-2.500000000E+001.9253329072E+01+
*       -8.207738526E+01               0
GRID*             161722               0-2.500000000E+002.0659920337E+01+
*       -8.372261043E+01               0
GRID*             161723               0-2.500000000E+001.9340845716E+01+
*       -7.903694630E+01               0
GRID*             161724               0-2.500000000E+002.0779730889E+01+
*       -8.066964102E+01               0
GRID*             161725               0-2.500000000E+002.0863297457E+01+
*       -7.761736147E+01               0
GRID*             161726               0-2.500000000E+002.2332259187E+01+
*       -7.924878424E+01               0
GRID*             161727               0-2.500000000E+002.3872780443E+01+
*       -7.781553427E+01               0
GRID*             161728               0-2.500000000E+002.6914968536E+01+
*       -7.800503124E+01               0
GRID*             161729               0-2.500000000E+002.5356958816E+01+
*       -7.945842779E+01               0
GRID*             161730               0-2.500000000E+002.9995237163E+01+
*       -7.816944404E+01               0
GRID*             161731               0-2.500000000E+002.8423809852E+01+
*       -7.965251850E+01               0
GRID*             161732               0-2.500000000E+003.3110649660E+01+
*       -7.828542960E+01               0
GRID*             161733               0-2.500000000E+003.1535755734E+01+
*       -7.980668652E+01               0
GRID*             161734               0-2.500000000E+003.6243163146E+01+
*       -7.833100797E+01               0
GRID*             161735               0-2.500000000E+003.4679917935E+01+
*       -7.989040539E+01               0
GRID*             161736               0-2.500000000E+003.9370087894E+01+
*       -7.831549932E+01               0
GRID*             161737               0-2.500000000E+003.7829885786E+01+
*       -7.989611942E+01               0
GRID*             161738               0-2.500000000E+004.2477421532E+01+
*       -7.825210576E+01               0
GRID*             161739               0-2.500000000E+004.0963413593E+01+
*       -7.984074916E+01               0
GRID*             161740               0-2.500000000E+004.5554424006E+01+
*       -7.814940506E+01               0
GRID*             161741               0-2.500000000E+004.4067075823E+01+
*       -7.973722863E+01               0
GRID*             161742               0-2.500000000E+004.8588835308E+01+
*       -7.801988527E+01               0
GRID*             161743               0-2.500000000E+004.7126614441E+01+
*       -7.959534343E+01               0
GRID*             161744               0-2.500000000E+005.1578953697E+01+
*       -7.789759466E+01               0
GRID*             161745               0-2.500000000E+005.0131839695E+01+
*       -7.944364553E+01               0
GRID*             161746               0-2.500000000E+005.4538738649E+01+
*       -7.780684946E+01               0
GRID*             161747               0-2.500000000E+005.3089780859E+01+
*       -7.932016839E+01               0
GRID*             161748               0-2.500000000E+005.7491810948E+01+
*       -7.775856209E+01               0
GRID*             161749               0-2.500000000E+005.6024007987E+01+
*       -7.924698556E+01               0
GRID*             161750               0-2.500000000E+006.0466598020E+01+
*       -7.774866067E+01               0
GRID*             161751               0-2.500000000E+005.8967591863E+01+
*       -7.922880841E+01               0
GRID*             161752               0-2.500000000E+006.3486444797E+01+
*       -7.775136650E+01               0
GRID*             161753               0-2.500000000E+006.1954597259E+01+
*       -7.924677265E+01               0
GRID*             161754               0-2.500000000E+006.6549578536E+01+
*       -7.772295802E+01               0
GRID*             161755               0-2.500000000E+006.4999202535E+01+
*       -7.925282119E+01               0
GRID*             161756               0-2.500000000E+006.9631481561E+01+
*       -7.765756589E+01               0
GRID*             161757               0-2.500000000E+006.8082114142E+01+
*       -7.921352705E+01               0
GRID*             161758               0-2.500000000E+007.2713772610E+01+
*       -7.756405724E+01               0
GRID*             161759               0-2.500000000E+007.1173903783E+01+
*       -7.913366757E+01               0
GRID*             161760               0-2.500000000E+007.5787219163E+01+
*       -7.745353745E+01               0
GRID*             161761               0-2.500000000E+007.4257814447E+01+
*       -7.902739098E+01               0
GRID*             161762               0-2.500000000E+007.7327996018E+01+
*       -7.890630808E+01               0
GRID*             161763               0-2.500000000E+007.7360530713E+01+
*       -8.194289720E+01               0
GRID*             161764               0-2.500000000E+007.5812642151E+01+
*       -8.049234591E+01               0
GRID*             161765               0-2.500000000E+007.7414197784E+01+
*       -8.499060917E+01               0
GRID*             161766               0-2.500000000E+007.5856654505E+01+
*       -8.354519429E+01               0
GRID*             161767               0-2.500000000E+007.7498887191E+01+
*       -8.804423154E+01               0
GRID*             161768               0-2.500000000E+007.5930715334E+01+
*       -8.660901590E+01               0
GRID*             161769               0-2.500000000E+007.7621030688E+01+
*       -9.109364782E+01               0
GRID*             161770               0-2.500000000E+007.6045578356E+01+
*       -8.967397289E+01               0
GRID*             161771               0-2.500000000E+007.7775830255E+01+
*       -9.412848230E+01               0
GRID*             161772               0-2.500000000E+007.6201885760E+01+
*       -9.272661754E+01               0
GRID*             161773               0-2.500000000E+007.7954144414E+01+
*       -9.714238810E+01               0
GRID*             161774               0-2.500000000E+007.6389612409E+01+
*       -9.575645245E+01               0
GRID*             161775               0-2.500000000E+007.8148214846E+01+
*       -1.001320414E+02               0
GRID*             161776               0-2.500000000E+007.6597409609E+01+
*       -9.875812732E+01               0
GRID*             161777               0-2.500000000E+007.6818279357E+01+
*       -1.017296679E+02               0
GRID*             161778               0-2.500000000E+007.3940882115E+01+
*       -1.019896498E+02               0
GRID*             161779               0-2.500000000E+007.5256257837E+01+
*       -1.003851927E+02               0
GRID*             161780               0-2.500000000E+007.1057700675E+01+
*       -1.022867261E+02               0
GRID*             161781               0-2.500000000E+007.2355844566E+01+
*       -1.006713334E+02               0
GRID*             161782               0-2.500000000E+006.8177349098E+01+
*       -1.026247235E+02               0
GRID*             161783               0-2.500000000E+006.9455235208E+01+
*       -1.009976516E+02               0
GRID*             161784               0-2.500000000E+006.5310374659E+01+
*       -1.029996388E+02               0
GRID*             161785               0-2.500000000E+006.6567268207E+01+
*       -1.013652792E+02               0
GRID*             161786               0-2.500000000E+006.2465502615E+01+
*       -1.033944299E+02               0
GRID*             161787               0-2.500000000E+006.3706386222E+01+
*       -1.017636675E+02               0
GRID*             161788               0-2.500000000E+005.9642834701E+01+
*       -1.037781371E+02               0
GRID*             161789               0-2.500000000E+006.0880255928E+01+
*       -1.021659739E+02               0
GRID*             161790               0-2.500000000E+005.6837155418E+01+
*       -1.041232661E+02               0
GRID*             161791               0-2.500000000E+005.8085359420E+01+
*       -1.025403018E+02               0
GRID*             161792               0-2.500000000E+005.4043956396E+01+
*       -1.044139126E+02               0
GRID*             161793               0-2.500000000E+005.5312852999E+01+
*       -1.028648479E+02               0
GRID*             161794               0-2.500000000E+005.1259875459E+01+
*       -1.046448608E+02               0
GRID*             161795               0-2.500000000E+005.2554338723E+01+
*       -1.031295366E+02               0
GRID*             161796               0-2.500000000E+004.8481884006E+01+
*       -1.048189962E+02               0
GRID*             161797               0-2.500000000E+004.9803092520E+01+
*       -1.033335873E+02               0
GRID*             161798               0-2.500000000E+004.5708041764E+01+
*       -1.049453849E+02               0
GRID*             161799               0-2.500000000E+004.7054227062E+01+
*       -1.034839051E+02               0
GRID*             161800               0-2.500000000E+004.2940382746E+01+
*       -1.050362217E+02               0
GRID*             161801               0-2.500000000E+004.4306842755E+01+
*       -1.035932839E+02               0
GRID*             161802               0-2.500000000E+004.0186786368E+01+
*       -1.050996797E+02               0
GRID*             161803               0-2.500000000E+004.1567144285E+01+
*       -1.036740954E+02               0
GRID*             161804               0-2.500000000E+003.7457052495E+01+
*       -1.051367846E+02               0
GRID*             161805               0-2.500000000E+003.8846946919E+01+
*       -1.037313217E+02               0
GRID*             161806               0-2.500000000E+003.4757676921E+01+
*       -1.051410546E+02               0
GRID*             161807               0-2.500000000E+003.6157280578E+01+
*       -1.037602004E+02               0
GRID*             161808               0-2.500000000E+003.2088196757E+01+
*       -1.051013319E+02               0
GRID*             161809               0-2.500000000E+003.3501837201E+01+
*       -1.037475484E+02               0
GRID*             161810               0-2.500000000E+002.9441823656E+01+
*       -1.050106824E+02               0
GRID*             161811               0-2.500000000E+003.0873741825E+01+
*       -1.036796568E+02               0
GRID*             161812               0-2.500000000E+002.6813774468E+01+
*       -1.048777682E+02               0
GRID*             161813               0-2.500000000E+002.8261217973E+01+
*       -1.035574207E+02               0
GRID*             161814               0-2.500000000E+002.4206880951E+01+
*       -1.047154568E+02               0
GRID*             161815               0-2.500000000E+002.5658250000E+01+
*       -1.033957816E+02               0
GRID*             161816               0-2.500000000E+002.1626613458E+01+
*       -1.045360432E+02               0
GRID*             161817               0-2.500000000E+002.3066577296E+01+
*       -1.032104406E+02               0
GRID*             161818               0-2.500000000E+002.0488615169E+01+
*       -1.030171219E+02               0
GRID*             161819               0-2.500000000E+002.0750520993E+01+
*       -1.001510096E+02               0
GRID*             161820               0-2.500000000E+002.1913673830E+01+
*       -1.016895630E+02               0
GRID*             161821               0-2.500000000E+002.1012839847E+01+
*       -9.727469878E+01               0
GRID*             161822               0-2.500000000E+002.2195264609E+01+
*       -9.883787012E+01               0
GRID*             161823               0-2.500000000E+002.1286243268E+01+
*       -9.437917504E+01               0
GRID*             161824               0-2.500000000E+002.2489121022E+01+
*       -9.597303354E+01               0
GRID*             161825               0-2.500000000E+002.1571622226E+01+
*       -9.144397458E+01               0
GRID*             161826               0-2.500000000E+002.2804511760E+01+
*       -9.307526358E+01               0
GRID*             161827               0-2.500000000E+002.1846635050E+01+
*       -8.844829337E+01               0
GRID*             161828               0-2.500000000E+002.3129185076E+01+
*       -9.011549664E+01               0
GRID*             161829               0-2.500000000E+002.2065596621E+01+
*       -8.539726262E+01               0
GRID*             161830               0-2.500000000E+002.3415843588E+01+
*       -8.708123590E+01               0
GRID*             161831               0-2.500000000E+002.2223701990E+01+
*       -8.232340702E+01               0
GRID*             161832               0-2.500000000E+002.3629378274E+01+
*       -8.399805921E+01               0
GRID*             161833               0-2.500000000E+002.3776230288E+01+
*       -8.090255024E+01               0
GRID*             161834               0-2.500000000E+002.5237437473E+01+
*       -8.257919025E+01               0
GRID*             161835               0-2.500000000E+002.6818166001E+01+
*       -8.113506780E+01               0
GRID*             161836               0-2.500000000E+002.9919796872E+01+
*       -8.134856125E+01               0
GRID*             161837               0-2.500000000E+002.8314153021E+01+
*       -8.283111054E+01               0
GRID*             161838               0-2.500000000E+003.3084601358E+01+
*       -8.150060034E+01               0
GRID*             161839               0-2.500000000E+003.1468642497E+01+
*       -8.304247507E+01               0
GRID*             161840               0-2.500000000E+003.6275089233E+01+
*       -8.152596497E+01               0
GRID*             161841               0-2.500000000E+003.4679772656E+01+
*       -8.313615992E+01               0
GRID*             161842               0-2.500000000E+003.9445804484E+01+
*       -8.147206620E+01               0
GRID*             161843               0-2.500000000E+003.7891007930E+01+
*       -8.310191176E+01               0
GRID*             161844               0-2.500000000E+004.2586527564E+01+
*       -8.136731213E+01               0
GRID*             161845               0-2.500000000E+004.1068918455E+01+
*       -8.299862917E+01               0
GRID*             161846               0-2.500000000E+004.5689283267E+01+
*       -8.121215977E+01               0
GRID*             161847               0-2.500000000E+004.4208735008E+01+
*       -8.284224327E+01               0
GRID*             161848               0-2.500000000E+004.8722600462E+01+
*       -8.100240581E+01               0
GRID*             161849               0-2.500000000E+004.7285269288E+01+
*       -8.261922214E+01               0
GRID*             161850               0-2.500000000E+005.1678035389E+01+
*       -8.081957278E+01               0
GRID*             161851               0-2.500000000E+005.0268796156E+01+
*       -8.237833306E+01               0
GRID*             161852               0-2.500000000E+005.4581304073E+01+
*       -8.070087680E+01               0
GRID*             161853               0-2.500000000E+005.3169558603E+01+
*       -8.220028119E+01               0
GRID*             161854               0-2.500000000E+005.7470479946E+01+
*       -8.066250283E+01               0
GRID*             161855               0-2.500000000E+005.6027776032E+01+
*       -8.211639408E+01               0
GRID*             161856               0-2.500000000E+006.0395441477E+01+
*       -8.070549838E+01               0
GRID*             161857               0-2.500000000E+005.8898329560E+01+
*       -8.213919280E+01               0
GRID*             161858               0-2.500000000E+006.3410043478E+01+
*       -8.078981544E+01               0
GRID*             161859               0-2.500000000E+006.1850887695E+01+
*       -8.224854117E+01               0
GRID*             161860               0-2.500000000E+006.6509880281E+01+
*       -8.079072606E+01               0
GRID*             161861               0-2.500000000E+006.4920721224E+01+
*       -8.232772032E+01               0
GRID*             161862               0-2.500000000E+006.9626357223E+01+
*       -8.072443119E+01               0
GRID*             161863               0-2.500000000E+006.8054123362E+01+
*       -8.230163020E+01               0
GRID*             161864               0-2.500000000E+007.2729807330E+01+
*       -8.061865605E+01               0
GRID*             161865               0-2.500000000E+007.1182260769E+01+
*       -8.220941967E+01               0
GRID*             161866               0-2.500000000E+007.4284635034E+01+
*       -8.208361098E+01               0
GRID*             161867               0-2.500000000E+007.4336619556E+01+
*       -8.515956321E+01               0
GRID*             161868               0-2.500000000E+007.2764600084E+01+
*       -8.369797990E+01               0
GRID*             161869               0-2.500000000E+007.4432759149E+01+
*       -8.824847197E+01               0
GRID*             161870               0-2.500000000E+007.2838663370E+01+
*       -8.679901928E+01               0
GRID*             161871               0-2.500000000E+007.4589670049E+01+
*       -9.132970769E+01               0
GRID*             161872               0-2.500000000E+007.2976850841E+01+
*       -8.990420677E+01               0
GRID*             161873               0-2.500000000E+007.4791181690E+01+
*       -9.438340059E+01               0
GRID*             161874               0-2.500000000E+007.3178965978E+01+
*       -9.298649074E+01               0
GRID*             161875               0-2.500000000E+007.5017410728E+01+
*       -9.740210081E+01               0
GRID*             161876               0-2.500000000E+007.3418980009E+01+
*       -9.602904895E+01               0
GRID*             161877               0-2.500000000E+007.3676258957E+01+
*       -9.902916615E+01               0
GRID*             161878               0-2.500000000E+007.0747813876E+01+
*       -9.933988442E+01               0
GRID*             161879               0-2.500000000E+007.2068228267E+01+
*       -9.769771720E+01               0
GRID*             161880               0-2.500000000E+006.7824658258E+01+
*       -9.969947780E+01               0
GRID*             161881               0-2.500000000E+006.9117236926E+01+
*       -9.804171060E+01               0
GRID*             161882               0-2.500000000E+006.4928550059E+01+
*       -1.001094112E+02               0
GRID*             161883               0-2.500000000E+006.6185940109E+01+
*       -9.844360977E+01               0
GRID*             161884               0-2.500000000E+006.2084957642E+01+
*       -1.005511414E+02               0
GRID*             161885               0-2.500000000E+006.3307121479E+01+
*       -9.889688505E+01               0
GRID*             161886               0-2.500000000E+005.9294872932E+01+
*       -1.009722581E+02               0
GRID*             161887               0-2.500000000E+006.0499574647E+01+
*       -9.935742553E+01               0
GRID*             161888               0-2.500000000E+005.6542154337E+01+
*       -1.013409146E+02               0
GRID*             161889               0-2.500000000E+005.7751667849E+01+
*       -9.977287092E+01               0
GRID*             161890               0-2.500000000E+005.3811272029E+01+
*       -1.016438978E+02               0
GRID*             161891               0-2.500000000E+005.5040573368E+01+
*       -1.001199645E+02               0
GRID*             161892               0-2.500000000E+005.1091105531E+01+
*       -1.018781687E+02               0
GRID*             161893               0-2.500000000E+005.2348038837E+01+
*       -1.003925299E+02               0
GRID*             161894               0-2.500000000E+004.8372814791E+01+
*       -1.020478826E+02               0
GRID*             161895               0-2.500000000E+004.9660827802E+01+
*       -1.005924640E+02               0
GRID*             161896               0-2.500000000E+004.5649177425E+01+
*       -1.021662676E+02               0
GRID*             161897               0-2.500000000E+004.6967765154E+01+
*       -1.007302451E+02               0
GRID*             161898               0-2.500000000E+004.2920460894E+01+
*       -1.022562036E+02               0
GRID*             161899               0-2.500000000E+004.4262795564E+01+
*       -1.008291873E+02               0
GRID*             161900               0-2.500000000E+004.0201514122E+01+
*       -1.023310803E+02               0
GRID*             161901               0-2.500000000E+004.1554830731E+01+
*       -1.009131886E+02               0
GRID*             161902               0-2.500000000E+003.7512296078E+01+
*       -1.023906760E+02               0
GRID*             161903               0-2.500000000E+003.8866863282E+01+
*       -1.009904346E+02               0
GRID*             161904               0-2.500000000E+003.4867487376E+01+
*       -1.024198477E+02               0
GRID*             161905               0-2.500000000E+003.6222502876E+01+
*       -1.010503233E+02               0
GRID*             161906               0-2.500000000E+003.2265917614E+01+
*       -1.023901213E+02               0
GRID*             161907               0-2.500000000E+003.3631567790E+01+
*       -1.010624206E+02               0
GRID*             161908               0-2.500000000E+002.9684123526E+01+
*       -1.022766803E+02               0
GRID*             161909               0-2.500000000E+003.1076299315E+01+
*       -1.009871449E+02               0
GRID*             161910               0-2.500000000E+002.7098564524E+01+
*       -1.021053822E+02               0
GRID*             161911               0-2.500000000E+002.8521470077E+01+
*       -1.008246418E+02               0
GRID*             161912               0-2.500000000E+002.4506382385E+01+
*       -1.019031183E+02               0
GRID*             161913               0-2.500000000E+002.5946696909E+01+
*       -1.006127189E+02               0
GRID*             161914               0-2.500000000E+002.3353478918E+01+
*       -1.003822407E+02               0
GRID*             161915               0-2.500000000E+002.3650546110E+01+
*       -9.755604241E+01               0
GRID*             161916               0-2.500000000E+002.4808760419E+01+
*       -9.910041304E+01               0
GRID*             161917               0-2.500000000E+002.3981281165E+01+
*       -9.471645886E+01               0
GRID*             161918               0-2.500000000E+002.5142706253E+01+
*       -9.629946773E+01               0
GRID*             161919               0-2.500000000E+002.4361173008E+01+
*       -9.182443015E+01               0
GRID*             161920               0-2.500000000E+002.5537942412E+01+
*       -9.346562543E+01               0
GRID*             161921               0-2.500000000E+002.4761652006E+01+
*       -8.882330401E+01               0
GRID*             161922               0-2.500000000E+002.5993639938E+01+
*       -9.053223752E+01               0
GRID*             161923               0-2.500000000E+002.5049121046E+01+
*       -8.571330047E+01               0
GRID*             161924               0-2.500000000E+002.6394929464E+01+
*       -8.745536858E+01               0
GRID*             161925               0-2.500000000E+002.6657180245E+01+
*       -8.429443151E+01               0
GRID*             161926               0-2.500000000E+002.8121694045E+01+
*       -8.606358132E+01               0
GRID*             161927               0-2.500000000E+002.9778666821E+01+
*       -8.460026036E+01               0
GRID*             161928               0-2.500000000E+003.3031735104E+01+
*       -8.485494041E+01               0
GRID*             161929               0-2.500000000E+003.1341759428E+01+
*       -8.641272569E+01               0
GRID*             161930               0-2.500000000E+003.6325276507E+01+
*       -8.480211701E+01               0
GRID*             161931               0-2.500000000E+003.4677238954E+01+
*       -8.652089749E+01               0
GRID*             161932               0-2.500000000E+003.9547026982E+01+
*       -8.467653432E+01               0
GRID*             161933               0-2.500000000E+003.7981295559E+01+
*       -8.637673957E+01               0
GRID*             161934               0-2.500000000E+004.2727252902E+01+
*       -8.452686705E+01               0
GRID*             161935               0-2.500000000E+004.1205361429E+01+
*       -8.620477220E+01               0
GRID*             161936               0-2.500000000E+004.5886913333E+01+
*       -8.432213782E+01               0
GRID*             161937               0-2.500000000E+004.4405431226E+01+
*       -8.600676160E+01               0
GRID*             161938               0-2.500000000E+004.8925161847E+01+
*       -8.395038906E+01               0
GRID*             161939               0-2.500000000E+004.7526805892E+01+
*       -8.565330473E+01               0
GRID*             161940               0-2.500000000E+005.1820487483E+01+
*       -8.367151658E+01               0
GRID*             161941               0-2.500000000E+005.0476853174E+01+
*       -8.524357258E+01               0
GRID*             161942               0-2.500000000E+005.4630828220E+01+
*       -8.351075266E+01               0
GRID*             161943               0-2.500000000E+005.3281757100E+01+
*       -8.498198805E+01               0
GRID*             161944               0-2.500000000E+005.7409192562E+01+
*       -8.348270748E+01               0
GRID*             161945               0-2.500000000E+005.6012244751E+01+
*       -8.487706607E+01               0
GRID*             161946               0-2.500000000E+006.0232824490E+01+
*       -8.361661028E+01               0
GRID*             161947               0-2.500000000E+005.8743687492E+01+
*       -8.496012496E+01               0
GRID*             161948               0-2.500000000E+006.3241651879E+01+
*       -8.390943231E+01               0
GRID*             161949               0-2.500000000E+006.1623588674E+01+
*       -8.527750141E+01               0
GRID*             161950               0-2.500000000E+006.6449053886E+01+
*       -8.392678491E+01               0
GRID*             161951               0-2.500000000E+006.4769984542E+01+
*       -8.550849690E+01               0
GRID*             161952               0-2.500000000E+006.9631385025E+01+
*       -8.383416039E+01               0
GRID*             161953               0-2.500000000E+006.8026315550E+01+
*       -8.545931510E+01               0
GRID*             161954               0-2.500000000E+007.1213724340E+01+
*       -8.532272062E+01               0
GRID*             161955               0-2.500000000E+007.1305958552E+01+
*       -8.846875383E+01               0
GRID*             161956               0-2.500000000E+006.9681019522E+01+
*       -8.699245517E+01               0
GRID*             161957               0-2.500000000E+007.1515526476E+01+
*       -9.160056434E+01               0
GRID*             161958               0-2.500000000E+006.9844634187E+01+
*       -9.016511141E+01               0
GRID*             161959               0-2.500000000E+007.1783053587E+01+
*       -9.467750404E+01               0
GRID*             161960               0-2.500000000E+007.0119614084E+01+
*       -9.329157764E+01               0
GRID*             161961               0-2.500000000E+007.0432301845E+01+
*       -9.634617229E+01               0
GRID*             161962               0-2.500000000E+006.7443605319E+01+
*       -9.672680728E+01               0
GRID*             161963               0-2.500000000E+006.8758670239E+01+
*       -9.503126897E+01               0
GRID*             161964               0-2.500000000E+006.4491288553E+01+
*       -9.719114803E+01               0
GRID*             161965               0-2.500000000E+006.5748953763E+01+
*       -9.547434553E+01               0
GRID*             161966               0-2.500000000E+006.1647832214E+01+
*       -9.773282324E+01               0
GRID*             161967               0-2.500000000E+006.2831999287E+01+
*       -9.602708621E+01               0
GRID*             161968               0-2.500000000E+005.8906038409E+01+
*       -9.822254883E+01               0
GRID*             161969               0-2.500000000E+006.0054295976E+01+
*       -9.659794654E+01               0
GRID*             161970               0-2.500000000E+005.6220863060E+01+
*       -9.862679991E+01               0
GRID*             161971               0-2.500000000E+005.7375233620E+01+
*       -9.707647783E+01               0
GRID*             161972               0-2.500000000E+005.3562178938E+01+
*       -9.894404234E+01               0
GRID*             161973               0-2.500000000E+005.4742468630E+01+
*       -9.745087776E+01               0
GRID*             161974               0-2.500000000E+005.0913946878E+01+
*       -9.917700815E+01               0
GRID*             161975               0-2.500000000E+005.2128086979E+01+
*       -9.772852062E+01               0
GRID*             161976               0-2.500000000E+004.8263057371E+01+
*       -9.932945768E+01               0
GRID*             161977               0-2.500000000E+004.9516176447E+01+
*       -9.791400180E+01               0
GRID*             161978               0-2.500000000E+004.5591524843E+01+
*       -9.941772803E+01               0
GRID*             161979               0-2.500000000E+004.6886817060E+01+
*       -9.801694057E+01               0
GRID*             161980               0-2.500000000E+004.2889453615E+01+
*       -9.949436412E+01               0
GRID*             161981               0-2.500000000E+004.4218182894E+01+
*       -9.808290484E+01               0
GRID*             161982               0-2.500000000E+004.0186220729E+01+
*       -9.958268763E+01               0
GRID*             161983               0-2.500000000E+004.1520843613E+01+
*       -9.816386318E+01               0
GRID*             161984               0-2.500000000E+003.7521873091E+01+
*       -9.968228496E+01               0
GRID*             161985               0-2.500000000E+003.8841230538E+01+
*       -9.827453801E+01               0
GRID*             161986               0-2.500000000E+003.4931266166E+01+
*       -9.976713210E+01               0
GRID*             161987               0-2.500000000E+003.6230636381E+01+
*       -9.839909380E+01               0
GRID*             161988               0-2.500000000E+003.2421392472E+01+
*       -9.977427605E+01               0
GRID*             161989               0-2.500000000E+003.3721090848E+01+
*       -9.847898754E+01               0
GRID*             161990               0-2.500000000E+002.9930749638E+01+
*       -9.961080120E+01               0
GRID*             161991               0-2.500000000E+003.1275842795E+01+
*       -9.839793238E+01               0
GRID*             161992               0-2.500000000E+002.7393131359E+01+
*       -9.936759750E+01               0
GRID*             161993               0-2.500000000E+002.8802410920E+01+
*       -9.815375687E+01               0
GRID*             161994               0-2.500000000E+002.6255194869E+01+
*       -9.785529162E+01               0
GRID*             161995               0-2.500000000E+002.6626971893E+01+
*       -9.510810802E+01               0
GRID*             161996               0-2.500000000E+002.7739460510E+01+
*       -9.666393191E+01               0
GRID*             161997               0-2.500000000E+002.7122019679E+01+
*       -9.231157045E+01               0
GRID*             161998               0-2.500000000E+002.8211049159E+01+
*       -9.395405304E+01               0
GRID*             161999               0-2.500000000E+002.7772857725E+01+
*       -8.931479206E+01               0
GRID*             162000               0-2.500000000E+002.8901237466E+01+
*       -9.109412499E+01               0
GRID*             162001               0-2.500000000E+002.9499622306E+01+
*       -8.792300480E+01               0
GRID*             162002               0-2.500000000E+003.1088345547E+01+
*       -9.009656534E+01               0
GRID*             162003               0-2.500000000E+003.2930482669E+01+
*       -8.858628623E+01               0
GRID*             162004               0-2.500000000E+003.6443656563E+01+
*       -8.815690791E+01               0
GRID*             162005               0-2.500000000E+003.4696900278E+01+
*       -9.022229665E+01               0
GRID*             162006               0-2.500000000E+003.9681998523E+01+
*       -8.790308911E+01               0
GRID*             162007               0-2.500000000E+003.8144359527E+01+
*       -8.968325745E+01               0
GRID*             162008               0-2.500000000E+004.2877254907E+01+
*       -8.773393991E+01               0
GRID*             162009               0-2.500000000E+004.1353892001E+01+
*       -8.943225682E+01               0
GRID*             162010               0-2.500000000E+004.6200938778E+01+
*       -8.760512968E+01               0
GRID*             162011               0-2.500000000E+004.4672762459E+01+
*       -8.933230800E+01               0
GRID*             162012               0-2.500000000E+004.9252169505E+01+
*       -8.680650741E+01               0
GRID*             162013               0-2.500000000E+004.7926302391E+01+
*       -8.875833236E+01               0
GRID*             162014               0-2.500000000E+005.2033876021E+01+
*       -8.640314305E+01               0
GRID*             162015               0-2.500000000E+005.0809192353E+01+
*       -8.796607789E+01               0
GRID*             162016               0-2.500000000E+005.4701658054E+01+
*       -8.618714946E+01               0
GRID*             162017               0-2.500000000E+005.3453776975E+01+
*       -8.760830446E+01               0
GRID*             162018               0-2.500000000E+005.7297252819E+01+
*       -8.614433276E+01               0
GRID*             162019               0-2.500000000E+005.5986666122E+01+
*       -8.745441615E+01               0
GRID*             162020               0-2.500000000E+005.9891440134E+01+
*       -8.637262042E+01               0
GRID*             162021               0-2.500000000E+005.8445005460E+01+
*       -8.755682823E+01               0
GRID*             162022               0-2.500000000E+006.2831351236E+01+
*       -8.733453659E+01               0
GRID*             162023               0-2.500000000E+006.1099202695E+01+
*       -8.842965561E+01               0
GRID*             162024               0-2.500000000E+006.6401957037E+01+
*       -8.717967553E+01               0
GRID*             162025               0-2.500000000E+006.4463323730E+01+
*       -8.900571522E+01               0
GRID*             162026               0-2.500000000E+006.8056661009E+01+
*       -8.871281560E+01               0
GRID*             162027               0-2.500000000E+006.8384895978E+01+
*       -9.193383899E+01               0
GRID*             162028               0-2.500000000E+006.6596922799E+01+
*       -9.048154318E+01               0
GRID*             162029               0-2.500000000E+006.7023952132E+01+
*       -9.367353032E+01               0
GRID*             162030               0-2.500000000E+006.3936057606E+01+
*       -9.419686078E+01               0
GRID*             162031               0-2.500000000E+006.5211055976E+01+
*       -9.239604556E+01               0
GRID*             162032               0-2.500000000E+006.1103120543E+01+
*       -9.496917571E+01               0
GRID*             162033               0-2.500000000E+006.2207178862E+01+
*       -9.313895027E+01               0
GRID*             162034               0-2.500000000E+005.8453000394E+01+
*       -9.555993414E+01               0
GRID*             162035               0-2.500000000E+005.9501824962E+01+
*       -9.393116331E+01               0
GRID*             162036               0-2.500000000E+005.5863927247E+01+
*       -9.600003875E+01               0
GRID*             162037               0-2.500000000E+005.6941694021E+01+
*       -9.448349506E+01               0
GRID*             162038               0-2.500000000E+005.3292288701E+01+
*       -9.632742745E+01               0
GRID*             162039               0-2.500000000E+005.4413747318E+01+
*       -9.487658844E+01               0
GRID*             162040               0-2.500000000E+005.0728801713E+01+
*       -9.655494515E+01               0
GRID*             162041               0-2.500000000E+005.1893003435E+01+
*       -9.515385199E+01               0
GRID*             162042               0-2.500000000E+004.8164639843E+01+
*       -9.667512252E+01               0
GRID*             162043               0-2.500000000E+004.9377265109E+01+
*       -9.531606588E+01               0
GRID*             162044               0-2.500000000E+004.5558645559E+01+
*       -9.668262678E+01               0
GRID*             162045               0-2.500000000E+004.6836468343E+01+
*       -9.534080874E+01               0
GRID*             162046               0-2.500000000E+004.2856773729E+01+
*       -9.672409064E+01               0
GRID*             162047               0-2.500000000E+004.4197236395E+01+
*       -9.532381259E+01               0
GRID*             162048               0-2.500000000E+004.0129702864E+01+
*       -9.682903919E+01               0
GRID*             162049               0-2.500000000E+004.1465632980E+01+
*       -9.538926665E+01               0
GRID*             162050               0-2.500000000E+003.7453252920E+01+
*       -9.699829596E+01               0
GRID*             162051               0-2.500000000E+003.8741725246E+01+
*       -9.555279714E+01               0
GRID*             162052               0-2.500000000E+003.4907616909E+01+
*       -9.720577268E+01               0
GRID*             162053               0-2.500000000E+003.6130233449E+01+
*       -9.580497484E+01               0
GRID*             162054               0-2.500000000E+003.2552518949E+01+
*       -9.734403639E+01               0
GRID*             162055               0-2.500000000E+003.3739045010E+01+
*       -9.607082153E+01               0
GRID*             162056               0-2.500000000E+003.0225153799E+01+
*       -9.704469118E+01               0
GRID*             162057               0-2.500000000E+003.1501829953E+01+
*       -9.599079519E+01               0
GRID*             162058               0-2.500000000E+002.9162203388E+01+
*       -9.555486622E+01               0
GRID*             162059               0-2.500000000E+002.9740911042E+01+
*       -9.298057470E+01               0
GRID*             162060               0-2.500000000E+003.0692065270E+01+
*       -9.458138788E+01               0
GRID*             162061               0-2.500000000E+003.1928019123E+01+
*       -9.198301504E+01               0
GRID*             162062               0-2.500000000E+006.3077456907E+01+
*       -9.092021760E+01               0
GRID*             162063               0-2.500000000E+003.2652298435E+01+
*       -9.531181317E+01               0
GRID*             162064               0-2.500000000E+003.1842533753E+01+
*       -9.390240585E+01               0
GRID*             162065               0-2.500000000E+003.6811974223E+01+
*       -9.137807682E+01               0
GRID*             162066               0-2.500000000E+003.5789844525E+01+
*       -9.320374069E+01               0
GRID*             162067               0-2.500000000E+003.3674770580E+01+
*       -9.204796052E+01               0
GRID*             162068               0-2.500000000E+003.3589285210E+01+
*       -9.396735133E+01               0
GRID*             162069               0-2.500000000E+005.9396595575E+01+
*       -9.032281046E+01               0
GRID*             162070               0-2.500000000E+005.9251843081E+01+
*       -8.859892773E+01               0
GRID*             162071               0-2.500000000E+006.1243955189E+01+
*       -9.015353834E+01               0
GRID*             162072               0-2.500000000E+006.0373677145E+01+
*       -9.237227101E+01               0
GRID*             162073               0-2.500000000E+005.7984756267E+01+
*       -8.958875917E+01               0
GRID*             162074               0-2.500000000E+005.7177918645E+01+
*       -8.854665967E+01               0
GRID*             162075               0-2.500000000E+005.8798657360E+01+
*       -9.148505695E+01               0
GRID*             162076               0-2.500000000E+005.7386818051E+01+
*       -9.075100565E+01               0
GRID*             162077               0-2.500000000E+005.7926805177E+01+
*       -9.304394924E+01               0
GRID*             162078               0-2.500000000E+004.0018707645E+01+
*       -9.401424816E+01               0
GRID*             162079               0-2.500000000E+003.7244046190E+01+
*       -9.428235584E+01               0
GRID*             162080               0-2.500000000E+003.8521028588E+01+
*       -9.274380686E+01               0
GRID*             162081               0-2.500000000E+003.9853413892E+01+
*       -9.104898750E+01               0
GRID*             162082               0-2.500000000E+005.6022146779E+01+
*       -8.978385053E+01               0
GRID*             162083               0-2.500000000E+005.4830894255E+01+
*       -8.869160702E+01               0
GRID*             162084               0-2.500000000E+005.6460911013E+01+
*       -9.204341625E+01               0
GRID*             162085               0-2.500000000E+005.5096239741E+01+
*       -9.107626113E+01               0
GRID*             162086               0-2.500000000E+005.5475799858E+01+
*       -9.348296207E+01               0
GRID*             162087               0-2.500000000E+004.2846929781E+01+
*       -9.389026403E+01               0
GRID*             162088               0-2.500000000E+004.1400004445E+01+
*       -9.251524553E+01               0
GRID*             162089               0-2.500000000E+004.2900482554E+01+
*       -9.089851485E+01               0
GRID*             162090               0-2.500000000E+005.3719554538E+01+
*       -9.003574752E+01               0
GRID*             162091               0-2.500000000E+005.2342437257E+01+
*       -8.895244496E+01               0
GRID*             162092               0-2.500000000E+005.4062234204E+01+
*       -9.241261038E+01               0
GRID*             162093               0-2.500000000E+005.2685549001E+01+
*       -9.137209678E+01               0
GRID*             162094               0-2.500000000E+005.3000181664E+01+
*       -9.380623676E+01               0
GRID*             162095               0-2.500000000E+005.1335407680E+01+
*       -9.033085152E+01               0
GRID*             162096               0-2.500000000E+004.9802162775E+01+
*       -8.934448444E+01               0
GRID*             162097               0-2.500000000E+005.1638581861E+01+
*       -9.268777494E+01               0
GRID*             162098               0-2.500000000E+005.0288440539E+01+
*       -9.164652968E+01               0
GRID*             162099               0-2.500000000E+005.0531403632E+01+
*       -9.403539018E+01               0
GRID*             162100               0-2.500000000E+004.5619261781E+01+
*       -9.391240939E+01               0
GRID*             162101               0-2.500000000E+004.4268955166E+01+
*       -9.247886082E+01               0
GRID*             162102               0-2.500000000E+004.6041235071E+01+
*       -9.091265396E+01               0
GRID*             162103               0-2.500000000E+004.7250659971E+01+
*       -9.006253908E+01               0
GRID*             162104               0-2.500000000E+004.9126520355E+01+
*       -9.064869116E+01               0
GRID*             162105               0-2.500000000E+004.9251812175E+01+
*       -9.284816596E+01               0
GRID*             162106               0-2.500000000E+004.8089891990E+01+
*       -9.185032744E+01               0
GRID*             162107               0-2.500000000E+004.8097673652E+01+
*       -9.412884167E+01               0
GRID*             162108               0-2.500000000E+008.2121464201E+01+
*       -3.759613563E+01               0
GRID*             162109               0-2.500000000E+008.0391768270E+01+
*       -3.928024273E+01               0
GRID*             162110               0-2.500000000E+007.8917044033E+01+
*       -3.752340578E+01               0
GRID*             162111               0-2.500000000E+008.0646739964E+01+
*       -3.583929868E+01               0
GRID*             162112               0-2.500000000E+008.2517789473E+01+
*       -3.421409307E+01               0
GRID*             162113               0-2.500000000E+007.9427108463E+01+
*       -3.376896592E+01               0
GRID*             162114               0-2.500000000E+008.1298157971E+01+
*       -3.214376031E+01               0
GRID*             162115               0-2.500000000E+007.9628313912E+01+
*       -2.877833506E+01               0
GRID*             162116               0-2.500000000E+007.8906714255E+01+
*       -2.814687361E+01               0
GRID*             162117               0-2.500000000E+008.0371601184E+01+
*       -2.778146106E+01               0
GRID*             162118               0-2.500000000E+008.3157035968E+01+
*       -3.101401869E+01               0
GRID*             162119               0-2.500000000E+008.0715647792E+01+
*       -3.046764415E+01               0
GRID*             162120               0-2.500000000E+008.2574525789E+01+
*       -2.933790253E+01               0
GRID*             162121               0-2.500000000E+007.9364475445E+01+
*       -3.046238288E+01               0
GRID*             162122               0-2.500000000E+008.0979486259E+01+
*       -2.878359633E+01               0
GRID*             162123               0-2.500000000E+008.6692907568E+01+
*       -3.631139010E+01               0
GRID*             162124               0-2.500000000E+008.6549329383E+01+
*       -3.945816709E+01               0
GRID*             162125               0-2.500000000E+008.5150642932E+01+
*       -3.776988772E+01               0
GRID*             162126               0-2.500000000E+008.3521458899E+01+
*       -3.932305619E+01               0
GRID*             162127               0-2.500000000E+008.3750648234E+01+
*       -3.604296716E+01               0
GRID*             162128               0-2.500000000E+008.6929417374E+01+
*       -3.312195297E+01               0
GRID*             162129               0-2.500000000E+008.5406097960E+01+
*       -3.452454482E+01               0
GRID*             162130               0-2.500000000E+008.4173239199E+01+
*       -3.269567073E+01               0
GRID*             162131               0-2.500000000E+008.5779720416E+01+
*       -3.117161812E+01               0
GRID*             162132               0-2.500000000E+008.7257570566E+01+
*       -2.987103796E+01               0
GRID*             162133               0-2.500000000E+008.5446877997E+01+
*       -2.830419843E+01               0
GRID*             162134               0-2.500000000E+008.6704728527E+01+
*       -2.851841657E+01               0
GRID*             162135               0-2.500000000E+008.4763517185E+01+
*       -2.948996607E+01               0
GRID*             162136               0-2.500000000E+007.7214067522E+01+
*       -3.587138750E+01               0
GRID*             162137               0-2.500000000E+007.7138507394E+01+
*       -3.942529447E+01               0
GRID*             162138               0-2.500000000E+007.5435530883E+01+
*       -3.777327619E+01               0
GRID*             162139               0-2.500000000E+007.3867091321E+01+
*       -3.984847064E+01               0
GRID*             162140               0-2.500000000E+007.2138811010E+01+
*       -3.869430783E+01               0
GRID*             162141               0-2.500000000E+007.3707250572E+01+
*       -3.661911338E+01               0
GRID*             162142               0-2.500000000E+007.0709551209E+01+
*       -4.035116030E+01               0
GRID*             162143               0-2.500000000E+006.9088538293E+01+
*       -3.918505932E+01               0
GRID*             162144               0-2.500000000E+007.0517798095E+01+
*       -3.752820685E+01               0
GRID*             162145               0-2.500000000E+006.7651195681E+01+
*       -4.072640985E+01               0
GRID*             162146               0-2.500000000E+006.6087369644E+01+
*       -3.952072318E+01               0
GRID*             162147               0-2.500000000E+006.7524712256E+01+
*       -3.797937265E+01               0
GRID*             162148               0-2.500000000E+006.4628059078E+01+
*       -4.100878281E+01               0
GRID*             162149               0-2.500000000E+006.3089423472E+01+
*       -3.976899033E+01               0
GRID*             162150               0-2.500000000E+006.4548734038E+01+
*       -3.828093070E+01               0
GRID*             162151               0-2.500000000E+006.1612276663E+01+
*       -4.122406846E+01               0
GRID*             162152               0-2.500000000E+006.0083252792E+01+
*       -3.995642029E+01               0
GRID*             162153               0-2.500000000E+006.1560399601E+01+
*       -3.850134216E+01               0
GRID*             162154               0-2.500000000E+005.8593445387E+01+
*       -4.138717977E+01               0
GRID*             162155               0-2.500000000E+005.7066622605E+01+
*       -4.009583415E+01               0
GRID*             162156               0-2.500000000E+005.8556430010E+01+
*       -3.866507466E+01               0
GRID*             162157               0-2.500000000E+005.5568240285E+01+
*       -4.150670075E+01               0
GRID*             162158               0-2.500000000E+005.4039922324E+01+
*       -4.019433261E+01               0
GRID*             162159               0-2.500000000E+005.5538304644E+01+
*       -3.878346601E+01               0
GRID*             162160               0-2.500000000E+005.2536113613E+01+
*       -4.158777679E+01               0
GRID*             162161               0-2.500000000E+005.1004306251E+01+
*       -4.025610137E+01               0
GRID*             162162               0-2.500000000E+005.2508114961E+01+
*       -3.886265719E+01               0
GRID*             162163               0-2.500000000E+004.9497692154E+01+
*       -4.163349500E+01               0
GRID*             162164               0-2.500000000E+004.7961250199E+01+
*       -4.028351356E+01               0
GRID*             162165               0-2.500000000E+004.9467864296E+01+
*       -3.890611993E+01               0
GRID*             162166               0-2.500000000E+004.6454270335E+01+
*       -4.164552558E+01               0
GRID*             162167               0-2.500000000E+004.4912577033E+01+
*       -4.027760305E+01               0
GRID*             162168               0-2.500000000E+004.6419556897E+01+
*       -3.891559103E+01               0
GRID*             162169               0-2.500000000E+004.3407733853E+01+
*       -4.162444648E+01               0
GRID*             162170               0-2.500000000E+004.1860644228E+01+
*       -4.023829678E+01               0
GRID*             162171               0-2.500000000E+004.3365487409E+01+
*       -3.889145336E+01               0
GRID*             162172               0-2.500000000E+004.0360634866E+01+
*       -4.156995099E+01               0
GRID*             162173               0-2.500000000E+003.8808532672E+01+
*       -4.016455945E+01               0
GRID*             162174               0-2.500000000E+004.0308542034E+01+
*       -3.883290524E+01               0
GRID*             162175               0-2.500000000E+003.7316221921E+01+
*       -4.148105758E+01               0
GRID*             162176               0-2.500000000E+003.5760046908E+01+
*       -4.005452948E+01               0
GRID*             162177               0-2.500000000E+003.7252357659E+01+
*       -3.873803136E+01               0
GRID*             162178               0-2.500000000E+003.4278266009E+01+
*       -4.135636895E+01               0
GRID*             162179               0-2.500000000E+003.2719581047E+01+
*       -3.990554797E+01               0
GRID*             162180               0-2.500000000E+003.4201361946E+01+
*       -3.860370851E+01               0
GRID*             162181               0-2.500000000E+003.1250764592E+01+
*       -4.119439599E+01               0
GRID*             162182               0-2.500000000E+002.9692109562E+01+
*       -3.971407336E+01               0
GRID*             162183               0-2.500000000E+003.1160926017E+01+
*       -3.842522534E+01               0
GRID*             162184               0-2.500000000E+002.8237585180E+01+
*       -4.099430034E+01               0
GRID*             162185               0-2.500000000E+002.6682793434E+01+
*       -3.947632400E+01               0
GRID*             162186               0-2.500000000E+002.8137317816E+01+
*       -3.819609702E+01               0
GRID*             162187               0-2.500000000E+002.5241673292E+01+
*       -4.075808167E+01               0
GRID*             162188               0-2.500000000E+002.3694930223E+01+
*       -3.919171213E+01               0
GRID*             162189               0-2.500000000E+002.5136050365E+01+
*       -3.790995447E+01               0
GRID*             162190               0-2.500000000E+002.2264231952E+01+
*       -4.049590214E+01               0
GRID*             162191               0-2.500000000E+002.0730409179E+01+
*       -3.887567964E+01               0
GRID*             162192               0-2.500000000E+002.2161107450E+01+
*       -3.757148963E+01               0
GRID*             162193               0-2.500000000E+001.9304076226E+01+
*       -4.023365513E+01               0
GRID*             162194               0-2.500000000E+001.7791114012E+01+
*       -3.858888549E+01               0
GRID*             162195               0-2.500000000E+001.9217446965E+01+
*       -3.723091001E+01               0
GRID*             162196               0-2.500000000E+001.6353815416E+01+
*       -3.999762631E+01               0
GRID*             162197               0-2.500000000E+001.4852458567E+01+
*       -3.831329009E+01               0
GRID*             162198               0-2.500000000E+001.6289757164E+01+
*       -3.690454927E+01               0
GRID*             162199               0-2.500000000E+001.3408270521E+01+
*       -3.983162311E+01               0
GRID*             162200               0-2.500000000E+001.3360237574E+01+
*       -3.671934108E+01               0
GRID*             162201               0-2.500000000E+001.3277422377E+01+
*       -3.336674417E+01               0
GRID*             162202               0-2.500000000E+001.4792774325E+01+
*       -3.496864778E+01               0
GRID*             162203               0-2.500000000E+001.2566676313E+01+
*       -3.024814870E+01               0
GRID*             162204               0-2.500000000E+001.4218570415E+01+
*       -3.161716837E+01               0
GRID*             162205               0-2.500000000E+001.2506069942E+01+
*       -2.732842674E+01               0
GRID*             162206               0-2.500000000E+001.3638435297E+01+
*       -2.859267321E+01               0
GRID*             162207               0-2.500000000E+001.5268174072E+01+
*       -2.832926938E+01               0
GRID*             162208               0-2.500000000E+001.4556613517E+01+
*       -2.977194154E+01               0
GRID*             162209               0-2.500000000E+001.6838812659E+01+
*       -2.819844739E+01               0
GRID*             162210               0-2.500000000E+001.6256988734E+01+
*       -2.937771572E+01               0
GRID*             162211               0-2.500000000E+001.8367749528E+01+
*       -2.803595003E+01               0
GRID*             162212               0-2.500000000E+001.7856561329E+01+
*       -2.908439637E+01               0
GRID*             162213               0-2.500000000E+001.9682441845E+01+
*       -2.772371015E+01               0
GRID*             162214               0-2.500000000E+001.9200189084E+01+
*       -2.860965948E+01               0
GRID*             162215               0-2.500000000E+002.1101494057E+01+
*       -2.805330938E+01               0
GRID*             162216               0-2.500000000E+002.0433933613E+01+
*       -2.862701955E+01               0
GRID*             162217               0-2.500000000E+002.2897893111E+01+
*       -2.833353649E+01               0
GRID*             162218               0-2.500000000E+002.2149384879E+01+
*       -2.923684626E+01               0
GRID*             162219               0-2.500000000E+002.5867916983E+01+
*       -2.887882567E+01               0
GRID*             162220               0-2.500000000E+002.4630468910E+01+
*       -2.978598255E+01               0
GRID*             162221               0-2.500000000E+002.8981226792E+01+
*       -2.908456609E+01               0
GRID*             162222               0-2.500000000E+002.7600350662E+01+
*       -3.019688278E+01               0
GRID*             162223               0-2.500000000E+003.2214897977E+01+
*       -2.925916701E+01               0
GRID*             162224               0-2.500000000E+003.0717500761E+01+
*       -3.044000334E+01               0
GRID*             162225               0-2.500000000E+003.5422102964E+01+
*       -2.939420826E+01               0
GRID*             162226               0-2.500000000E+003.3881796946E+01+
*       -3.061510887E+01               0
GRID*             162227               0-2.500000000E+003.8589345977E+01+
*       -2.949415977E+01               0
GRID*             162228               0-2.500000000E+003.7035946076E+01+
*       -3.074252598E+01               0
GRID*             162229               0-2.500000000E+004.1723749903E+01+
*       -2.956267479E+01               0
GRID*             162230               0-2.500000000E+004.0168245841E+01+
*       -3.083213134E+01               0
GRID*             162231               0-2.500000000E+004.4832936188E+01+
*       -2.960244559E+01               0
GRID*             162232               0-2.500000000E+004.3279195497E+01+
*       -3.088902261E+01               0
GRID*             162233               0-2.500000000E+004.7921383724E+01+
*       -2.961548662E+01               0
GRID*             162234               0-2.500000000E+004.6371062115E+01+
*       -3.091617046E+01               0
GRID*             162235               0-2.500000000E+005.0991211479E+01+
*       -2.960319433E+01               0
GRID*             162236               0-2.500000000E+004.9445250842E+01+
*       -3.091533563E+01               0
GRID*             162237               0-2.500000000E+005.4043126503E+01+
*       -2.956620873E+01               0
GRID*             162238               0-2.500000000E+005.2502060776E+01+
*       -3.088727669E+01               0
GRID*             162239               0-2.500000000E+005.7076440527E+01+
*       -2.950353184E+01               0
GRID*             162240               0-2.500000000E+005.5540585822E+01+
*       -3.083164990E+01               0
GRID*             162241               0-2.500000000E+006.0088906971E+01+
*       -2.941462652E+01               0
GRID*             162242               0-2.500000000E+005.8558246085E+01+
*       -3.074748458E+01               0
GRID*             162243               0-2.500000000E+006.3075952464E+01+
*       -2.930038696E+01               0
GRID*             162244               0-2.500000000E+006.1549785275E+01+
*       -3.063431993E+01               0
GRID*             162245               0-2.500000000E+006.6029228344E+01+
*       -2.916497214E+01               0
GRID*             162246               0-2.500000000E+006.4505323074E+01+
*       -3.049385386E+01               0
GRID*             162247               0-2.500000000E+006.8934086398E+01+
*       -2.901942173E+01               0
GRID*             162248               0-2.500000000E+006.7407257044E+01+
*       -3.033321516E+01               0
GRID*             162249               0-2.500000000E+007.1765141473E+01+
*       -2.888618192E+01               0
GRID*             162250               0-2.500000000E+007.0228165798E+01+
*       -3.016958141E+01               0
GRID*             162251               0-2.500000000E+007.4454666147E+01+
*       -2.878231816E+01               0
GRID*             162252               0-2.500000000E+007.2934218665E+01+
*       -3.002070675E+01               0
GRID*             162253               0-2.500000000E+007.7108975304E+01+
*       -2.840524136E+01               0
GRID*             162254               0-2.500000000E+007.5536040170E+01+
*       -2.980597672E+01               0
GRID*             162255               0-2.500000000E+007.7865688033E+01+
*       -2.940211535E+01               0
GRID*             162256               0-2.500000000E+007.8188450601E+01+
*       -3.213692148E+01               0
GRID*             162257               0-2.500000000E+007.6689663188E+01+
*       -3.107665395E+01               0
GRID*             162258               0-2.500000000E+007.5975409660E+01+
*       -3.423934306E+01               0
GRID*             162259               0-2.500000000E+001.7711119149E+01+
*       -3.553679746E+01               0
GRID*             162260               0-2.500000000E+001.6214136310E+01+
*       -3.360089597E+01               0
GRID*             162261               0-2.500000000E+001.7422645017E+01+
*       -3.034322914E+01               0
GRID*             162262               0-2.500000000E+001.6852421836E+01+
*       -3.145885644E+01               0
GRID*             162263               0-2.500000000E+001.5686765553E+01+
*       -3.049334301E+01               0
GRID*             162264               0-2.500000000E+001.7717835696E+01+
*       -3.272118257E+01               0
GRID*             162265               0-2.500000000E+001.5348722450E+01+
*       -3.233856985E+01               0
GRID*             162266               0-2.500000000E+002.0604276977E+01+
*       -3.587417663E+01               0
GRID*             162267               0-2.500000000E+001.9097949161E+01+
*       -3.418006408E+01               0
GRID*             162268               0-2.500000000E+001.9023268530E+01+
*       -3.128612264E+01               0
GRID*             162269               0-2.500000000E+002.0403381995E+01+
*       -3.274500415E+01               0
GRID*             162270               0-2.500000000E+002.0690929371E+01+
*       -3.004464994E+01               0
GRID*             162271               0-2.500000000E+001.9457184842E+01+
*       -3.002728986E+01               0
GRID*             162272               0-2.500000000E+007.2720540981E+01+
*       -3.243838015E+01               0
GRID*             162273               0-2.500000000E+007.1540244479E+01+
*       -3.129677441E+01               0
GRID*             162274               0-2.500000000E+007.4114515168E+01+
*       -3.116231249E+01               0
GRID*             162275               0-2.500000000E+007.5268138186E+01+
*       -3.243298973E+01               0
GRID*             162276               0-2.500000000E+007.1768079573E+01+
*       -3.605839381E+01               0
GRID*             162277               0-2.500000000E+007.2613835860E+01+
*       -3.469026422E+01               0
GRID*             162278               0-2.500000000E+007.4553006859E+01+
*       -3.525098379E+01               0
GRID*             162279               0-2.500000000E+007.1488641457E+01+
*       -3.368401390E+01               0
GRID*             162280               0-2.500000000E+007.3845735384E+01+
*       -3.344463046E+01               0
GRID*             162281               0-2.500000000E+006.8912230716E+01+
*       -3.651240693E+01               0
GRID*             162282               0-2.500000000E+007.0162512194E+01+
*       -3.504259388E+01               0
GRID*             162283               0-2.500000000E+006.8789309967E+01+
*       -3.397264826E+01               0
GRID*             162284               0-2.500000000E+007.0115439230E+01+
*       -3.261406828E+01               0
GRID*             162285               0-2.500000000E+006.8803360549E+01+
*       -3.148687528E+01               0
GRID*             162286               0-2.500000000E+006.4482481845E+01+
*       -3.563201351E+01               0
GRID*             162287               0-2.500000000E+006.3009973661E+01+
*       -3.444397797E+01               0
GRID*             162288               0-2.500000000E+006.4466696212E+01+
*       -3.304505003E+01               0
GRID*             162289               0-2.500000000E+006.5939204396E+01+
*       -3.423308557E+01               0
GRID*             162290               0-2.500000000E+006.1525189218E+01+
*       -3.583499464E+01               0
GRID*             162291               0-2.500000000E+006.0036237595E+01+
*       -3.460864422E+01               0
GRID*             162292               0-2.500000000E+006.1521022038E+01+
*       -3.321762756E+01               0
GRID*             162293               0-2.500000000E+005.8534747385E+01+
*       -3.598837251E+01               0
GRID*             162294               0-2.500000000E+005.7033764263E+01+
*       -3.473221142E+01               0
GRID*             162295               0-2.500000000E+005.8535254473E+01+
*       -3.335248313E+01               0
GRID*             162296               0-2.500000000E+005.5521694919E+01+
*       -3.609959774E+01               0
GRID*             162297               0-2.500000000E+005.4010462660E+01+
*       -3.481893738E+01               0
GRID*             162298               0-2.500000000E+005.5522532004E+01+
*       -3.345155107E+01               0
GRID*             162299               0-2.500000000E+005.2491539536E+01+
*       -3.617351251E+01               0
GRID*             162300               0-2.500000000E+005.0970658799E+01+
*       -3.487185266E+01               0
GRID*             162301               0-2.500000000E+005.2489581923E+01+
*       -3.351727753E+01               0
GRID*             162302               0-2.500000000E+004.9447612548E+01+
*       -3.621306048E+01               0
GRID*             162303               0-2.500000000E+004.7916970434E+01+
*       -3.489274489E+01               0
GRID*             162304               0-2.500000000E+004.9440016685E+01+
*       -3.355153707E+01               0
GRID*             162305               0-2.500000000E+004.6392333366E+01+
*       -3.621964946E+01               0
GRID*             162306               0-2.500000000E+004.4851281160E+01+
*       -3.488207349E+01               0
GRID*             162307               0-2.500000000E+004.6375918227E+01+
*       -3.355516892E+01               0
GRID*             162308               0-2.500000000E+004.3327955138E+01+
*       -3.619330340E+01               0
GRID*             162309               0-2.500000000E+004.1775334424E+01+
*       -3.483901462E+01               0
GRID*             162310               0-2.500000000E+004.3298660445E+01+
*       -3.352778471E+01               0
GRID*             162311               0-2.500000000E+004.0257052244E+01+
*       -3.613270226E+01               0
GRID*             162312               0-2.500000000E+003.8691090490E+01+
*       -3.476139311E+01               0
GRID*             162313               0-2.500000000E+004.0209372670E+01+
*       -3.346770547E+01               0
GRID*             162314               0-2.500000000E+003.7182878121E+01+
*       -3.603501879E+01               0
GRID*             162315               0-2.500000000E+003.5601306978E+01+
*       -3.464522556E+01               0
GRID*             162316               0-2.500000000E+003.7109519348E+01+
*       -3.337159988E+01               0
GRID*             162317               0-2.500000000E+003.4110025252E+01+
*       -3.589521778E+01               0
GRID*             162318               0-2.500000000E+003.2511423541E+01+
*       -3.448322162E+01               0
GRID*             162319               0-2.500000000E+003.4002705267E+01+
*       -3.323322940E+01               0
GRID*             162320               0-2.500000000E+003.1045821960E+01+
*       -3.570432591E+01               0
GRID*             162321               0-2.500000000E+002.9433417722E+01+
*       -3.426121908E+01               0
GRID*             162322               0-2.500000000E+003.0899019302E+01+
*       -3.304011479E+01               0
GRID*             162323               0-2.500000000E+002.8001412174E+01+
*       -3.544649657E+01               0
GRID*             162324               0-2.500000000E+002.6389103575E+01+
*       -3.395046680E+01               0
GRID*             162325               0-2.500000000E+002.7821109122E+01+
*       -3.276518931E+01               0
GRID*             162326               0-2.500000000E+002.4986471942E+01+
*       -3.509475637E+01               0
GRID*             162327               0-2.500000000E+002.3384437267E+01+
*       -3.347805362E+01               0
GRID*             162328               0-2.500000000E+002.4787068899E+01+
*       -3.233376405E+01               0
GRID*             162329               0-2.500000000E+006.5994984697E+01+
*       -3.683584843E+01               0
GRID*             162330               0-2.500000000E+006.7382503157E+01+
*       -3.536888270E+01               0
GRID*             162331               0-2.500000000E+006.3036231186E+01+
*       -3.707709579E+01               0
GRID*             162332               0-2.500000000E+006.0049357633E+01+
*       -3.725924101E+01               0
GRID*             162333               0-2.500000000E+005.7041819761E+01+
*       -3.739420616E+01               0
GRID*             162334               0-2.500000000E+005.4018179802E+01+
*       -3.748885758E+01               0
GRID*             162335               0-2.500000000E+005.0981474695E+01+
*       -3.754731212E+01               0
GRID*             162336               0-2.500000000E+004.7934002149E+01+
*       -3.757186828E+01               0
GRID*             162337               0-2.500000000E+004.4877888114E+01+
*       -3.756337221E+01               0
GRID*             162338               0-2.500000000E+004.1815554434E+01+
*       -3.752138455E+01               0
GRID*             162339               0-2.500000000E+003.8750039844E+01+
*       -3.744422296E+01               0
GRID*             162340               0-2.500000000E+003.5685195935E+01+
*       -3.732882718E+01               0
GRID*             162341               0-2.500000000E+003.2626191263E+01+
*       -3.717009910E+01               0
GRID*             162342               0-2.500000000E+002.9580556714E+01+
*       -3.695945214E+01               0
GRID*             162343               0-2.500000000E+002.6558173275E+01+
*       -3.668314144E+01               0
GRID*             162344               0-2.500000000E+002.3564349032E+01+
*       -3.632156940E+01               0
GRID*             162345               0-2.500000000E+002.2007518559E+01+
*       -3.462425639E+01               0
GRID*             162346               0-2.500000000E+002.1780300703E+01+
*       -3.159880138E+01               0
GRID*             162347               0-2.500000000E+002.3238756211E+01+
*       -3.079099770E+01               0
GRID*             162348               0-2.500000000E+002.6178781598E+01+
*       -3.132874890E+01               0
GRID*             162349               0-2.500000000E+002.9242678187E+01+
*       -3.163332319E+01               0
GRID*             162350               0-2.500000000E+003.2373841877E+01+
*       -3.184679494E+01               0
GRID*             162351               0-2.500000000E+003.5510660337E+01+
*       -3.200154333E+01               0
GRID*             162352               0-2.500000000E+003.8634805087E+01+
*       -3.211258253E+01               0
GRID*             162353               0-2.500000000E+004.1742813424E+01+
*       -3.218725428E+01               0
GRID*             162354               0-2.500000000E+004.4835042518E+01+
*       -3.222955304E+01               0
GRID*             162355               0-2.500000000E+004.7911937824E+01+
*       -3.224178634E+01               0
GRID*             162356               0-2.500000000E+005.0973329703E+01+
*       -3.222508636E+01               0
GRID*             162357               0-2.500000000E+005.4018312996E+01+
*       -3.217946785E+01               0
GRID*             162358               0-2.500000000E+005.7044804829E+01+
*       -3.210373312E+01               0
GRID*             162359               0-2.500000000E+006.0048695729E+01+
*       -3.199623460E+01               0
GRID*             162360               0-2.500000000E+006.3022111584E+01+
*       -3.185571289E+01               0
GRID*             162361               0-2.500000000E+006.5949907702E+01+
*       -3.168319100E+01               0
GRID*             162362               0-2.500000000E+006.7346011206E+01+
*       -3.283685112E+01               0
GRID*             162363               0-2.500000000E+008.5006080698E+01+
*       -4.094783682E+01               0
GRID*             162364               0-2.500000000E+008.6474240286E+01+
*       -4.255841570E+01               0
GRID*             162365               0-2.500000000E+008.6437802866E+01+
*       -4.561867953E+01               0
GRID*             162366               0-2.500000000E+008.4934357003E+01+
*       -4.406468039E+01               0
GRID*             162367               0-2.500000000E+008.6422359212E+01+
*       -4.864943022E+01               0
GRID*             162368               0-2.500000000E+008.4901925623E+01+
*       -4.713373438E+01               0
GRID*             162369               0-2.500000000E+008.6417677311E+01+
*       -5.165998941E+01               0
GRID*             162370               0-2.500000000E+008.4889956157E+01+
*       -5.016934223E+01               0
GRID*             162371               0-2.500000000E+008.6418194047E+01+
*       -5.465738309E+01               0
GRID*             162372               0-2.500000000E+008.4888059596E+01+
*       -5.318286824E+01               0
GRID*             162373               0-2.500000000E+008.6421052163E+01+
*       -5.764655648E+01               0
GRID*             162374               0-2.500000000E+008.4890819174E+01+
*       -5.618240772E+01               0
GRID*             162375               0-2.500000000E+008.6424894376E+01+
*       -6.063089697E+01               0
GRID*             162376               0-2.500000000E+008.4895568148E+01+
*       -5.917350242E+01               0
GRID*             162377               0-2.500000000E+008.6429152855E+01+
*       -6.361274205E+01               0
GRID*             162378               0-2.500000000E+008.4901096608E+01+
*       -6.215994153E+01               0
GRID*             162379               0-2.500000000E+008.4907384522E+01+
*       -6.514379131E+01               0
GRID*             162380               0-2.500000000E+008.1855005337E+01+
*       -6.523032748E+01               0
GRID*             162381               0-2.500000000E+008.3376855237E+01+
*       -6.369476039E+01               0
GRID*             162382               0-2.500000000E+007.8797201921E+01+
*       -6.532308432E+01               0
GRID*             162383               0-2.500000000E+008.0320101668E+01+
*       -6.378290027E+01               0
GRID*             162384               0-2.500000000E+007.5735404059E+01+
*       -6.542000090E+01               0
GRID*             162385               0-2.500000000E+007.7259085728E+01+
*       -6.387689746E+01               0
GRID*             162386               0-2.500000000E+007.2672208949E+01+
*       -6.551764711E+01               0
GRID*             162387               0-2.500000000E+007.4195885690E+01+
*       -6.397425433E+01               0
GRID*             162388               0-2.500000000E+006.9610665647E+01+
*       -6.561223070E+01               0
GRID*             162389               0-2.500000000E+007.1133168614E+01+
*       -6.407158696E+01               0
GRID*             162390               0-2.500000000E+006.6553600766E+01+
*       -6.570062056E+01               0
GRID*             162391               0-2.500000000E+006.8073529986E+01+
*       -6.416548186E+01               0
GRID*             162392               0-2.500000000E+006.3503057965E+01+
*       -6.578103291E+01               0
GRID*             162393               0-2.500000000E+006.5018978309E+01+
*       -6.425321875E+01               0
GRID*             162394               0-2.500000000E+006.0459787165E+01+
*       -6.585317287E+01               0
GRID*             162395               0-2.500000000E+006.1970554784E+01+
*       -6.433313952E+01               0
GRID*             162396               0-2.500000000E+005.7422870606E+01+
*       -6.591769950E+01               0
GRID*             162397               0-2.500000000E+005.8928085011E+01+
*       -6.440453803E+01               0
GRID*             162398               0-2.500000000E+005.4389851749E+01+
*       -6.597508711E+01               0
GRID*             162399               0-2.500000000E+005.5890178435E+01+
*       -6.446709110E+01               0
GRID*             162400               0-2.500000000E+005.1357458633E+01+
*       -6.602459973E+01               0
GRID*             162401               0-2.500000000E+005.2854587723E+01+
*       -6.452010918E+01               0
GRID*             162402               0-2.500000000E+004.8322606372E+01+
*       -6.606386045E+01               0
GRID*             162403               0-2.500000000E+004.9818856246E+01+
*       -6.456200315E+01               0
GRID*             162404               0-2.500000000E+004.5283294147E+01+
*       -6.608916603E+01               0
GRID*             162405               0-2.500000000E+004.6781029257E+01+
*       -6.459020667E+01               0
GRID*             162406               0-2.500000000E+004.2239131391E+01+
*       -6.609631450E+01               0
GRID*             162407               0-2.500000000E+004.3740195715E+01+
*       -6.460155054E+01               0
GRID*             162408               0-2.500000000E+003.9191366933E+01+
*       -6.608154867E+01               0
GRID*             162409               0-2.500000000E+004.0696711776E+01+
*       -6.459288987E+01               0
GRID*             162410               0-2.500000000E+003.6142516246E+01+
*       -6.604222037E+01               0
GRID*             162411               0-2.500000000E+003.7652084855E+01+
*       -6.456173346E+01               0
GRID*             162412               0-2.500000000E+003.3095795541E+01+
*       -6.597730505E+01               0
GRID*             162413               0-2.500000000E+003.4608610798E+01+
*       -6.450676756E+01               0
GRID*             162414               0-2.500000000E+003.0054465342E+01+
*       -6.588789475E+01               0
GRID*             162415               0-2.500000000E+003.1568884107E+01+
*       -6.442831227E+01               0
GRID*             162416               0-2.500000000E+002.7021165194E+01+
*       -6.577744709E+01               0
GRID*             162417               0-2.500000000E+002.8535281145E+01+
*       -6.432866311E+01               0
GRID*             162418               0-2.500000000E+002.3997438463E+01+
*       -6.565141697E+01               0
GRID*             162419               0-2.500000000E+002.5509522425E+01+
*       -6.421209057E+01               0
GRID*             162420               0-2.500000000E+002.0983589546E+01+
*       -6.551633810E+01               0
GRID*             162421               0-2.500000000E+002.2492411234E+01+
*       -6.408428852E+01               0
GRID*             162422               0-2.500000000E+001.7978812291E+01+
*       -6.537856731E+01               0
GRID*             162423               0-2.500000000E+001.9483775342E+01+
*       -6.395130126E+01               0
GRID*             162424               0-2.500000000E+001.4981456144E+01+
*       -6.524296837E+01               0
GRID*             162425               0-2.500000000E+001.6482570060E+01+
*       -6.381818601E+01               0
GRID*             162426               0-2.500000000E+001.3487037561E+01+
*       -6.368747556E+01               0
GRID*             162427               0-2.500000000E+001.3487301062E+01+
*       -6.071019502E+01               0
GRID*             162428               0-2.500000000E+001.4983764688E+01+
*       -6.226259099E+01               0
GRID*             162429               0-2.500000000E+001.3485181958E+01+
*       -5.773652023E+01               0
GRID*             162430               0-2.500000000E+001.4982420166E+01+
*       -5.928602569E+01               0
GRID*             162431               0-2.500000000E+001.3480985297E+01+
*       -5.476576383E+01               0
GRID*             162432               0-2.500000000E+001.4978099146E+01+
*       -5.631399259E+01               0
GRID*             162433               0-2.500000000E+001.3474790226E+01+
*       -5.179662416E+01               0
GRID*             162434               0-2.500000000E+001.4971020692E+01+
*       -5.334520783E+01               0
GRID*             162435               0-2.500000000E+001.3466218400E+01+
*       -4.882655811E+01               0
GRID*             162436               0-2.500000000E+001.4960933226E+01+
*       -5.037730984E+01               0
GRID*             162437               0-2.500000000E+001.3453973607E+01+
*       -4.585064894E+01               0
GRID*             162438               0-2.500000000E+001.4946711251E+01+
*       -4.740581183E+01               0
GRID*             162439               0-2.500000000E+001.3435423614E+01+
*       -4.285925385E+01               0
GRID*             162440               0-2.500000000E+001.4925897892E+01+
*       -4.442198016E+01               0
GRID*             162441               0-2.500000000E+001.4896537161E+01+
*       -4.140690443E+01               0
GRID*             162442               0-2.500000000E+001.7851003054E+01+
*       -4.160590800E+01               0
GRID*             162443               0-2.500000000E+001.6393724800E+01+
*       -4.301518612E+01               0
GRID*             162444               0-2.500000000E+002.0810117867E+01+
*       -4.183629505E+01               0
GRID*             162445               0-2.500000000E+001.9357044696E+01+
*       -4.320854793E+01               0
GRID*             162446               0-2.500000000E+002.3782642658E+01+
*       -4.208119658E+01               0
GRID*             162447               0-2.500000000E+002.2328528573E+01+
*       -4.342158949E+01               0
GRID*             162448               0-2.500000000E+002.6771184532E+01+
*       -4.231283042E+01               0
GRID*             162449               0-2.500000000E+002.5312153898E+01+
*       -4.363594534E+01               0
GRID*             162450               0-2.500000000E+002.9775887171E+01+
*       -4.251659261E+01               0
GRID*             162451               0-2.500000000E+002.8309486523E+01+
*       -4.383512269E+01               0
GRID*             162452               0-2.500000000E+003.2795081722E+01+
*       -4.268703790E+01               0
GRID*             162453               0-2.500000000E+003.1320204301E+01+
*       -4.400923452E+01               0
GRID*             162454               0-2.500000000E+003.5825760525E+01+
*       -4.282289723E+01               0
GRID*             162455               0-2.500000000E+003.4342576238E+01+
*       -4.415356619E+01               0
GRID*             162456               0-2.500000000E+003.8864472508E+01+
*       -4.292448659E+01               0
GRID*             162457               0-2.500000000E+003.7374011111E+01+
*       -4.426632624E+01               0
GRID*             162458               0-2.500000000E+004.1907757155E+01+
*       -4.299260141E+01               0
GRID*             162459               0-2.500000000E+004.0411594797E+01+
*       -4.434713700E+01               0
GRID*             162460               0-2.500000000E+004.4952457652E+01+
*       -4.302802791E+01               0
GRID*             162461               0-2.500000000E+004.3452480954E+01+
*       -4.439618284E+01               0
GRID*             162462               0-2.500000000E+004.7995993620E+01+
*       -4.303120380E+01               0
GRID*             162463               0-2.500000000E+004.6494180936E+01+
*       -4.441370613E+01               0
GRID*             162464               0-2.500000000E+005.1036447066E+01+
*       -4.300196208E+01               0
GRID*             162465               0-2.500000000E+004.9534748532E+01+
*       -4.439967089E+01               0
GRID*             162466               0-2.500000000E+005.4072536485E+01+
*       -4.293934704E+01               0
GRID*             162467               0-2.500000000E+005.2572869938E+01+
*       -4.435353233E+01               0
GRID*             162468               0-2.500000000E+005.7103651965E+01+
*       -4.284143062E+01               0
GRID*             162469               0-2.500000000E+005.5607948165E+01+
*       -4.427407691E+01               0
GRID*             162470               0-2.500000000E+006.0130113313E+01+
*       -4.270504818E+01               0
GRID*             162471               0-2.500000000E+005.8640319891E+01+
*       -4.415929902E+01               0
GRID*             162472               0-2.500000000E+006.3153969080E+01+
*       -4.252530817E+01               0
GRID*             162473               0-2.500000000E+006.1671805731E+01+
*       -4.400628789E+01               0
GRID*             162474               0-2.500000000E+006.6180984186E+01+
*       -4.229462750E+01               0
GRID*             162475               0-2.500000000E+006.4706894188E+01+
*       -4.381115287E+01               0
GRID*             162476               0-2.500000000E+006.9225055816E+01+
*       -4.200120521E+01               0
GRID*             162477               0-2.500000000E+006.7754844321E+01+
*       -4.356942286E+01               0
GRID*             162478               0-2.500000000E+007.2316630357E+01+
*       -4.162918038E+01               0
GRID*             162479               0-2.500000000E+007.0832134964E+01+
*       -4.327922528E+01               0
GRID*             162480               0-2.500000000E+007.5510510163E+01+
*       -4.117489141E+01               0
GRID*             162481               0-2.500000000E+007.3960049200E+01+
*       -4.295560116E+01               0
GRID*             162482               0-2.500000000E+007.8761751818E+01+
*       -4.093292128E+01               0
GRID*             162483               0-2.500000000E+007.7133754588E+01+
*       -4.268251822E+01               0
GRID*             162484               0-2.500000000E+008.1931435682E+01+
*       -4.088522907E+01               0
GRID*             162485               0-2.500000000E+008.0301419230E+01+
*       -4.253790761E+01               0
GRID*             162486               0-2.500000000E+008.3416057481E+01+
*       -4.251000971E+01               0
GRID*             162487               0-2.500000000E+008.1851746825E+01+
*       -4.406681369E+01               0
GRID*             162488               0-2.500000000E+008.3370046347E+01+
*       -4.562148437E+01               0
GRID*             162489               0-2.500000000E+008.3353600350E+01+
*       -4.868280597E+01               0
GRID*             162490               0-2.500000000E+008.1821721074E+01+
*       -4.717055596E+01               0
GRID*             162491               0-2.500000000E+008.3351172962E+01+
*       -5.171203051E+01               0
GRID*             162492               0-2.500000000E+008.1814817155E+01+
*       -5.022549424E+01               0
GRID*             162493               0-2.500000000E+008.3355025053E+01+
*       -5.472123312E+01               0
GRID*             162494               0-2.500000000E+008.1818138419E+01+
*       -5.325039539E+01               0
GRID*             162495               0-2.500000000E+008.3361418655E+01+
*       -5.771834222E+01               0
GRID*             162496               0-2.500000000E+008.1825624533E+01+
*       -5.625716762E+01               0
GRID*             162497               0-2.500000000E+008.3368681938E+01+
*       -6.070858785E+01               0
GRID*             162498               0-2.500000000E+008.1834532445E+01+
*       -5.925342765E+01               0
GRID*             162499               0-2.500000000E+008.1844440567E+01+
*       -6.224340672E+01               0
GRID*             162500               0-2.500000000E+007.8783412580E+01+
*       -6.233420100E+01               0
GRID*             162501               0-2.500000000E+008.0307751478E+01+
*       -6.079470744E+01               0
GRID*             162502               0-2.500000000E+007.5719112137E+01+
*       -6.243127800E+01               0
GRID*             162503               0-2.500000000E+007.7243438988E+01+
*       -6.088858154E+01               0
GRID*             162504               0-2.500000000E+007.2654200894E+01+
*       -6.253150762E+01               0
GRID*             162505               0-2.500000000E+007.4177427340E+01+
*       -6.098853129E+01               0
GRID*             162506               0-2.500000000E+006.9591413557E+01+
*       -6.263109226E+01               0
GRID*             162507               0-2.500000000E+007.1112445837E+01+
*       -6.109101292E+01               0
GRID*             162508               0-2.500000000E+006.6532971325E+01+
*       -6.272643104E+01               0
GRID*             162509               0-2.500000000E+006.8050854897E+01+
*       -6.119204145E+01               0
GRID*             162510               0-2.500000000E+006.3480237988E+01+
*       -6.281474624E+01               0
GRID*             162511               0-2.500000000E+006.4994231004E+01+
*       -6.128795854E+01               0
GRID*             162512               0-2.500000000E+006.0433520767E+01+
*       -6.289429362E+01               0
GRID*             162513               0-2.500000000E+006.1943203971E+01+
*       -6.137590034E+01               0
GRID*             162514               0-2.500000000E+005.7392020130E+01+
*       -6.296410145E+01               0
GRID*             162515               0-2.500000000E+005.8897455886E+01+
*       -6.145385704E+01               0
GRID*             162516               0-2.500000000E+005.4354030231E+01+
*       -6.302336635E+01               0
GRID*             162517               0-2.500000000E+005.5855871926E+01+
*       -6.152037670E+01               0
GRID*             162518               0-2.500000000E+005.1317410488E+01+
*       -6.307085760E+01               0
GRID*             162519               0-2.500000000E+005.2816852996E+01+
*       -6.157411476E+01               0
GRID*             162520               0-2.500000000E+004.8280192708E+01+
*       -6.310461864E+01               0
GRID*             162521               0-2.500000000E+004.9778746950E+01+
*       -6.161347308E+01               0
GRID*             162522               0-2.500000000E+004.5241127473E+01+
*       -6.312207681E+01               0
GRID*             162523               0-2.500000000E+004.6740290924E+01+
*       -6.163648878E+01               0
GRID*             162524               0-2.500000000E+004.2200010807E+01+
*       -6.312047034E+01               0
GRID*             162525               0-2.500000000E+004.3700942565E+01+
*       -6.164099661E+01               0
GRID*             162526               0-2.500000000E+003.9157716040E+01+
*       -6.309739501E+01               0
GRID*             162527               0-2.500000000E+004.0661015071E+01+
*       -6.162497548E+01               0
GRID*             162528               0-2.500000000E+003.6115967056E+01+
*       -6.305129360E+01               0
GRID*             162529               0-2.500000000E+003.7621598240E+01+
*       -6.158695515E+01               0
GRID*             162530               0-2.500000000E+003.3076956887E+01+
*       -6.298189326E+01               0
GRID*             162531               0-2.500000000E+003.4584313145E+01+
*       -6.152641930E+01               0
GRID*             162532               0-2.500000000E+003.0042905958E+01+
*       -6.289062040E+01               0
GRID*             162533               0-2.500000000E+003.1550978739E+01+
*       -6.144420139E+01               0
GRID*             162534               0-2.500000000E+002.7015640031E+01+
*       -6.278084479E+01               0
GRID*             162535               0-2.500000000E+002.8523264844E+01+
*       -6.134280208E+01               0
GRID*             162536               0-2.500000000E+002.3996274037E+01+
*       -6.265765050E+01               0
GRID*             162537               0-2.500000000E+002.5502391642E+01+
*       -6.122640472E+01               0
GRID*             162538               0-2.500000000E+002.0985056961E+01+
*       -6.252696931E+01               0
GRID*             162539               0-2.500000000E+002.2488919763E+01+
*       -6.110033129E+01               0
GRID*             162540               0-2.500000000E+001.7981368219E+01+
*       -6.239432499E+01               0
GRID*             162541               0-2.500000000E+001.9482649838E+01+
*       -6.096999304E+01               0
GRID*             162542               0-2.500000000E+001.6482562846E+01+
*       -6.083872997E+01               0
GRID*             162543               0-2.500000000E+001.6478550487E+01+
*       -5.786462335E+01               0
GRID*             162544               0-2.500000000E+001.7978693168E+01+
*       -5.941732763E+01               0
GRID*             162545               0-2.500000000E+001.6471063443E+01+
*       -5.489609987E+01               0
GRID*             162546               0-2.500000000E+001.7971514784E+01+
*       -5.644673063E+01               0
GRID*             162547               0-2.500000000E+001.6460074398E+01+
*       -5.193143722E+01               0
GRID*             162548               0-2.500000000E+001.7960117149E+01+
*       -5.348232925E+01               0
GRID*             162549               0-2.500000000E+001.6444817008E+01+
*       -4.896760878E+01               0
GRID*             162550               0-2.500000000E+001.7943958179E+01+
*       -5.052173616E+01               0
GRID*             162551               0-2.500000000E+001.6423286136E+01+
*       -4.599920012E+01               0
GRID*             162552               0-2.500000000E+001.7921391892E+01+
*       -4.756099707E+01               0
GRID*             162553               0-2.500000000E+001.7891113044E+01+
*       -4.459240608E+01               0
GRID*             162554               0-2.500000000E+002.0862252861E+01+
*       -4.478490351E+01               0
GRID*             162555               0-2.500000000E+001.9396321209E+01+
*       -4.616876166E+01               0
GRID*             162556               0-2.500000000E+002.3843003969E+01+
*       -4.498662017E+01               0
GRID*             162557               0-2.500000000E+002.2376728257E+01+
*       -4.634993418E+01               0
GRID*             162558               0-2.500000000E+002.6835630301E+01+
*       -4.518128174E+01               0
GRID*             162559               0-2.500000000E+002.5366480373E+01+
*       -4.653195657E+01               0
GRID*             162560               0-2.500000000E+002.9840670540E+01+
*       -4.535722739E+01               0
GRID*             162561               0-2.500000000E+002.8366814318E+01+
*       -4.670338645E+01               0
GRID*             162562               0-2.500000000E+003.2857243646E+01+
*       -4.550779700E+01               0
GRID*             162563               0-2.500000000E+003.1377709885E+01+
*       -4.685578987E+01               0
GRID*             162564               0-2.500000000E+003.5883431267E+01+
*       -4.562969168E+01               0
GRID*             162565               0-2.500000000E+003.4398098675E+01+
*       -4.698392249E+01               0
GRID*             162566               0-2.500000000E+003.8916785563E+01+
*       -4.572153403E+01               0
GRID*             162567               0-2.500000000E+003.7426205719E+01+
*       -4.708489946E+01               0
GRID*             162568               0-2.500000000E+004.1954732359E+01+
*       -4.578293818E+01               0
GRID*             162569               0-2.500000000E+004.0459923125E+01+
*       -4.715733521E+01               0
GRID*             162570               0-2.500000000E+004.4994887738E+01+
*       -4.581392844E+01               0
GRID*             162571               0-2.500000000E+004.3497139143E+01+
*       -4.720068379E+01               0
GRID*             162572               0-2.500000000E+004.8035295726E+01+
*       -4.581454430E+01               0
GRID*             162573               0-2.500000000E+004.6536002529E+01+
*       -4.721476661E+01               0
GRID*             162574               0-2.500000000E+005.1074567830E+01+
*       -4.578456962E+01               0
GRID*             162575               0-2.500000000E+004.9575115025E+01+
*       -4.719944303E+01               0
GRID*             162576               0-2.500000000E+005.4111968413E+01+
*       -4.572336358E+01               0
GRID*             162577               0-2.500000000E+005.2613666305E+01+
*       -4.715440087E+01               0
GRID*             162578               0-2.500000000E+005.7147540261E+01+
*       -4.562977687E+01               0
GRID*             162579               0-2.500000000E+005.5651560509E+01+
*       -4.707906354E+01               0
GRID*             162580               0-2.500000000E+006.0182390654E+01+
*       -4.550215200E+01               0
GRID*             162581               0-2.500000000E+005.8689611024E+01+
*       -4.697262984E+01               0
GRID*             162582               0-2.500000000E+006.3219307767E+01+
*       -4.533842920E+01               0
GRID*             162583               0-2.500000000E+006.1729892691E+01+
*       -4.683429331E+01               0
GRID*             162584               0-2.500000000E+006.6263881153E+01+
*       -4.513649766E+01               0
GRID*             162585               0-2.500000000E+006.4776294733E+01+
*       -4.666377399E+01               0
GRID*             162586               0-2.500000000E+006.9326038845E+01+
*       -4.489551486E+01               0
GRID*             162587               0-2.500000000E+006.7835075677E+01+
*       -4.646258966E+01               0
GRID*             162588               0-2.500000000E+007.2420569260E+01+
*       -4.462094300E+01               0
GRID*             162589               0-2.500000000E+007.0914473140E+01+
*       -4.623723258E+01               0
GRID*             162590               0-2.500000000E+007.5560279703E+01+
*       -4.434080157E+01               0
GRID*             162591               0-2.500000000E+007.4020799763E+01+
*       -4.600614341E+01               0
GRID*             162592               0-2.500000000E+007.8720998812E+01+
*       -4.415045733E+01               0
GRID*             162593               0-2.500000000E+007.7147523927E+01+
*       -4.580874068E+01               0
GRID*             162594               0-2.500000000E+008.0271326407E+01+
*       -4.567936341E+01               0
GRID*             162595               0-2.500000000E+007.8716522345E+01+
*       -4.726257291E+01               0
GRID*             162596               0-2.500000000E+008.0266917012E+01+
*       -4.875376546E+01               0
GRID*             162597               0-2.500000000E+008.0273404766E+01+
*       -5.178963709E+01               0
GRID*             162598               0-2.500000000E+007.8725504624E+01+
*       -5.031790831E+01               0
GRID*             162599               0-2.500000000E+008.0283987753E+01+
*       -5.480270910E+01               0
GRID*             162600               0-2.500000000E+007.8739254100E+01+
*       -5.334195081E+01               0
GRID*             162601               0-2.500000000E+008.0295631433E+01+
*       -5.780257841E+01               0
GRID*             162602               0-2.500000000E+007.8753994652E+01+
*       -5.634811989E+01               0
GRID*             162603               0-2.500000000E+007.8768850467E+01+
*       -5.934385820E+01               0
GRID*             162604               0-2.500000000E+007.5700687385E+01+
*       -5.944336877E+01               0
GRID*             162605               0-2.500000000E+007.7226098863E+01+
*       -5.789864543E+01               0
GRID*             162606               0-2.500000000E+007.2632478318E+01+
*       -5.954924805E+01               0
GRID*             162607               0-2.500000000E+007.4155738362E+01+
*       -5.800408553E+01               0
GRID*             162608               0-2.500000000E+006.9567089111E+01+
*       -5.965692752E+01               0
GRID*             162609               0-2.500000000E+007.1087121592E+01+
*       -5.811516265E+01               0
GRID*             162610               0-2.500000000E+006.6506489933E+01+
*       -5.976171270E+01               0
GRID*             162611               0-2.500000000E+006.8022724147E+01+
*       -5.822659877E+01               0
GRID*             162612               0-2.500000000E+006.3451616479E+01+
*       -5.985958058E+01               0
GRID*             162613               0-2.500000000E+006.4963875408E+01+
*       -5.833333474E+01               0
GRID*             162614               0-2.500000000E+006.0402424905E+01+
*       -5.994753402E+01               0
GRID*             162615               0-2.500000000E+006.1910837413E+01+
*       -5.843121426E+01               0
GRID*             162616               0-2.500000000E+005.7358068798E+01+
*       -6.002348933E+01               0
GRID*             162617               0-2.500000000E+005.8863037817E+01+
*       -5.851716631E+01               0
GRID*             162618               0-2.500000000E+005.4317170458E+01+
*       -6.008588156E+01               0
GRID*             162619               0-2.500000000E+005.5819367330E+01+
*       -5.858899419E+01               0
GRID*             162620               0-2.500000000E+005.1278178504E+01+
*       -6.013323709E+01               0
GRID*             162621               0-2.500000000E+005.2778495965E+01+
*       -5.864500389E+01               0
GRID*             162622               0-2.500000000E+004.8239758251E+01+
*       -6.016391132E+01               0
GRID*             162623               0-2.500000000E+004.9739189805E+01+
*       -5.868367533E+01               0
GRID*             162624               0-2.500000000E+004.5201124602E+01+
*       -6.017607699E+01               0
GRID*             162625               0-2.500000000E+004.6700591929E+01+
*       -5.870349953E+01               0
GRID*             162626               0-2.500000000E+004.2162233450E+01+
*       -6.016793129E+01               0
GRID*             162627               0-2.500000000E+004.3662415487E+01+
*       -5.870301167E+01               0
GRID*             162628               0-2.500000000E+003.9123788659E+01+
*       -6.013802216E+01               0
GRID*             162629               0-2.500000000E+004.0625007038E+01+
*       -5.868097797E+01               0
GRID*             162630               0-2.500000000E+003.6087080178E+01+
*       -6.008560445E+01               0
GRID*             162631               0-2.500000000E+003.7589270596E+01+
*       -5.863667147E+01               0
GRID*             162632               0-2.500000000E+003.3053713367E+01+
*       -6.001101341E+01               0
GRID*             162633               0-2.500000000E+003.4556480399E+01+
*       -5.857019857E+01               0
GRID*             162634               0-2.500000000E+003.0025298199E+01+
*       -5.991604326E+01               0
GRID*             162635               0-2.500000000E+003.1528032827E+01+
*       -5.848285528E+01               0
GRID*             162636               0-2.500000000E+002.7003153848E+01+
*       -5.980418068E+01               0
GRID*             162637               0-2.500000000E+002.8505187203E+01+
*       -5.837742186E+01               0
GRID*             162638               0-2.500000000E+002.3988070512E+01+
*       -5.968040048E+01               0
GRID*             162639               0-2.500000000E+002.5488832718E+01+
*       -5.825817644E+01               0
GRID*             162640               0-2.500000000E+002.0980162668E+01+
*       -5.955017791E+01               0
GRID*             162641               0-2.500000000E+002.2479313417E+01+
*       -5.813024710E+01               0
GRID*             162642               0-2.500000000E+001.9476205998E+01+
*       -5.799751250E+01               0
GRID*             162643               0-2.500000000E+001.9464944977E+01+
*       -5.503274082E+01               0
GRID*             162644               0-2.500000000E+002.0969636190E+01+
*       -5.658352269E+01               0
GRID*             162645               0-2.500000000E+001.9448712402E+01+
*       -5.207520655E+01               0
GRID*             162646               0-2.500000000E+002.0953540230E+01+
*       -5.362561812E+01               0
GRID*             162647               0-2.500000000E+001.9426345199E+01+
*       -4.912232938E+01               0
GRID*             162648               0-2.500000000E+002.0931099422E+01+
*       -5.067579977E+01               0
GRID*             162649               0-2.500000000E+002.0901274516E+01+
*       -4.773009397E+01               0
GRID*             162650               0-2.500000000E+002.3889151811E+01+
*       -4.790353000E+01               0
GRID*             162651               0-2.500000000E+002.2413698070E+01+
*       -4.928368979E+01               0
GRID*             162652               0-2.500000000E+002.6886387028E+01+
*       -4.807184537E+01               0
GRID*             162653               0-2.500000000E+002.5409058466E+01+
*       -4.944341881E+01               0
GRID*             162654               0-2.500000000E+002.9893477103E+01+
*       -4.822587537E+01               0
GRID*             162655               0-2.500000000E+002.8413049812E+01+
*       -4.959433430E+01               0
GRID*             162656               0-2.500000000E+003.2909904321E+01+
*       -4.835930498E+01               0
GRID*             162657               0-2.500000000E+003.1425671540E+01+
*       -4.972939048E+01               0
GRID*             162658               0-2.500000000E+003.5934362769E+01+
*       -4.846823474E+01               0
GRID*             162659               0-2.500000000E+003.4446168415E+01+
*       -4.984361723E+01               0
GRID*             162660               0-2.500000000E+003.8965081297E+01+
*       -4.855050942E+01               0
GRID*             162661               0-2.500000000E+003.7473238347E+01+
*       -4.993384470E+01               0
GRID*             162662               0-2.500000000E+004.2000141584E+01+
*       -4.860510612E+01               0
GRID*             162663               0-2.500000000E+004.0505299756E+01+
*       -4.999828033E+01               0
GRID*             162664               0-2.500000000E+004.5037756234E+01+
*       -4.863164612E+01               0
GRID*             162665               0-2.500000000E+004.3540758674E+01+
*       -5.003606845E+01               0
GRID*             162666               0-2.500000000E+004.8076489371E+01+
*       -4.863002791E+01               0
GRID*             162667               0-2.500000000E+004.6578243076E+01+
*       -5.004690742E+01               0
GRID*             162668               0-2.500000000E+005.1115412969E+01+
*       -4.860017311E+01               0
GRID*             162669               0-2.500000000E+004.9616787315E+01+
*       -5.003075799E+01               0
GRID*             162670               0-2.500000000E+005.4154220059E+01+
*       -4.854188785E+01               0
GRID*             162671               0-2.500000000E+005.2655966722E+01+
*       -4.998766010E+01               0
GRID*             162672               0-2.500000000E+005.7193342337E+01+
*       -4.845485530E+01               0
GRID*             162673               0-2.500000000E+005.5696001886E+01+
*       -4.991767961E+01               0
GRID*             162674               0-2.500000000E+006.0234134174E+01+
*       -4.833879369E+01               0
GRID*             162675               0-2.500000000E+005.8737865486E+01+
*       -4.982101915E+01               0
GRID*             162676               0-2.500000000E+006.3279172940E+01+
*       -4.819384324E+01               0
GRID*             162677               0-2.500000000E+006.1783414423E+01+
*       -4.969834363E+01               0
GRID*             162678               0-2.500000000E+006.6332623280E+01+
*       -4.802133464E+01               0
GRID*             162679               0-2.500000000E+006.4835501487E+01+
*       -4.955140390E+01               0
GRID*             162680               0-2.500000000E+006.9400295675E+01+
*       -4.782538109E+01               0
GRID*             162681               0-2.500000000E+006.7897843278E+01+
*       -4.938412607E+01               0
GRID*             162682               0-2.500000000E+007.2488290172E+01+
*       -4.761626205E+01               0
GRID*             162683               0-2.500000000E+007.0974112706E+01+
*       -4.920441056E+01               0
GRID*             162684               0-2.500000000E+007.5598022017E+01+
*       -4.741626582E+01               0
GRID*             162685               0-2.500000000E+007.4065512426E+01+
*       -4.902638446E+01               0
GRID*             162686               0-2.500000000E+007.7167020435E+01+
*       -4.887009805E+01               0
GRID*             162687               0-2.500000000E+007.5629267653E+01+
*       -5.044844102E+01               0
GRID*             162688               0-2.500000000E+007.7187751841E+01+
*       -5.189625129E+01               0
GRID*             162689               0-2.500000000E+007.7207559155E+01+
*       -5.490304005E+01               0
GRID*             162690               0-2.500000000E+007.5656056896E+01+
*       -5.345734053E+01               0
GRID*             162691               0-2.500000000E+007.5679663366E+01+
*       -5.645356559E+01               0
GRID*             162692               0-2.500000000E+007.2606395640E+01+
*       -5.656914603E+01               0
GRID*             162693               0-2.500000000E+007.4130320644E+01+
*       -5.501862608E+01               0
GRID*             162694               0-2.500000000E+006.9537263014E+01+
*       -5.668915771E+01               0
GRID*             162695               0-2.500000000E+007.1056537063E+01+
*       -5.514314109E+01               0
GRID*             162696               0-2.500000000E+006.6474140109E+01+
*       -5.680705347E+01               0
GRID*             162697               0-2.500000000E+006.7988678977E+01+
*       -5.526961241E+01               0
GRID*             162698               0-2.500000000E+006.3417521584E+01+
*       -5.691723365E+01               0
GRID*             162699               0-2.500000000E+006.4927786286E+01+
*       -5.539095237E+01               0
GRID*             162700               0-2.500000000E+006.0366878447E+01+
*       -5.701554853E+01               0
GRID*             162701               0-2.500000000E+006.1873562618E+01+
*       -5.550156792E+01               0
GRID*             162702               0-2.500000000E+005.7321085131E+01+
*       -5.709915096E+01               0
GRID*             162703               0-2.500000000E+005.8824925761E+01+
*       -5.559753317E+01               0
GRID*             162704               0-2.500000000E+005.4278778857E+01+
*       -5.716608371E+01               0
GRID*             162705               0-2.500000000E+005.5780496658E+01+
*       -5.567624048E+01               0
GRID*             162706               0-2.500000000E+005.1238658821E+01+
*       -5.721485026E+01               0
GRID*             162707               0-2.500000000E+005.2738941713E+01+
*       -5.573593009E+01               0
GRID*             162708               0-2.500000000E+004.8199739606E+01+
*       -5.724411951E+01               0
GRID*             162709               0-2.500000000E+004.9699208622E+01+
*       -5.577529445E+01               0
GRID*             162710               0-2.500000000E+004.5161540985E+01+
*       -5.725262543E+01               0
GRID*             162711               0-2.500000000E+004.6660688661E+01+
*       -5.579324541E+01               0
GRID*             162712               0-2.500000000E+004.2124180132E+01+
*       -5.723924730E+01               0
GRID*             162713               0-2.500000000E+004.3623305629E+01+
*       -5.578886107E+01               0
GRID*             162714               0-2.500000000E+003.9088344308E+01+
*       -5.720321454E+01               0
GRID*             162715               0-2.500000000E+004.0587517402E+01+
*       -5.576148387E+01               0
GRID*             162716               0-2.500000000E+003.6055151528E+01+
*       -5.714438542E+01               0
GRID*             162717               0-2.500000000E+003.7554225240E+01+
*       -5.571092849E+01               0
GRID*             162718               0-2.500000000E+003.3025934699E+01+
*       -5.706358173E+01               0
GRID*             162719               0-2.500000000E+003.4524605828E+01+
*       -5.563776857E+01               0
GRID*             162720               0-2.500000000E+003.0001994856E+01+
*       -5.696294218E+01               0
GRID*             162721               0-2.500000000E+003.1499896728E+01+
*       -5.554366863E+01               0
GRID*             162722               0-2.500000000E+002.6984362004E+01+
*       -5.684615874E+01               0
GRID*             162723               0-2.500000000E+002.8481169656E+01+
*       -5.543167906E+01               0
GRID*             162724               0-2.500000000E+002.3973590625E+01+
*       -5.671840296E+01               0
GRID*             162725               0-2.500000000E+002.5469119911E+01+
*       -5.530638526E+01               0
GRID*             162726               0-2.500000000E+002.2463913399E+01+
*       -5.517167854E+01               0
GRID*             162727               0-2.500000000E+002.2442354069E+01+
*       -5.222359446E+01               0
GRID*             162728               0-2.500000000E+002.3952727238E+01+
*       -5.376965488E+01               0
GRID*             162729               0-2.500000000E+002.3924952717E+01+
*       -5.083148447E+01               0
GRID*             162730               0-2.500000000E+002.6926782872E+01+
*       -5.098119072E+01               0
GRID*             162731               0-2.500000000E+002.5442677123E+01+
*       -5.236925639E+01               0
GRID*             162732               0-2.500000000E+002.9936846679E+01+
*       -5.111847420E+01               0
GRID*             162733               0-2.500000000E+002.8450579739E+01+
*       -5.250533063E+01               0
GRID*             162734               0-2.500000000E+003.2954724354E+01+
*       -5.123787261E+01               0
GRID*             162735               0-2.500000000E+003.1465899493E+01+
*       -5.262695634E+01               0
GRID*             162736               0-2.500000000E+003.5979406023E+01+
*       -5.133550612E+01               0
GRID*             162737               0-2.500000000E+003.4487961961E+01+
*       -5.272976150E+01               0
GRID*             162738               0-2.500000000E+003.9009508581E+01+
*       -5.140898084E+01               0
GRID*             162739               0-2.500000000E+003.7515676256E+01+
*       -5.281064225E+01               0
GRID*             162740               0-2.500000000E+004.2043528775E+01+
*       -5.145705355E+01               0
GRID*             162741               0-2.500000000E+004.0547737600E+01+
*       -5.286775405E+01               0
GRID*             162742               0-2.500000000E+004.5080086597E+01+
*       -5.147925813E+01               0
GRID*             162743               0-2.500000000E+004.3582856697E+01+
*       -5.290024323E+01               0
GRID*             162744               0-2.500000000E+004.8118130380E+01+
*       -5.147558190E+01               0
GRID*             162745               0-2.500000000E+004.6619973901E+01+
*       -5.290793261E+01               0
GRID*             162746               0-2.500000000E+005.1157087536E+01+
*       -5.144622837E+01               0
GRID*             162747               0-2.500000000E+004.9658430601E+01+
*       -5.289105228E+01               0
GRID*             162748               0-2.500000000E+005.4196961780E+01+
*       -5.139149092E+01               0
GRID*             162749               0-2.500000000E+005.2698082594E+01+
*       -5.285005919E+01               0
GRID*             162750               0-2.500000000E+005.7238395013E+01+
*       -5.131176862E+01               0
GRID*             162751               0-2.500000000E+005.5739354907E+01+
*       -5.278557993E+01               0
GRID*             162752               0-2.500000000E+006.0282719348E+01+
*       -5.120776458E+01               0
GRID*             162753               0-2.500000000E+005.8783248876E+01+
*       -5.269851406E+01               0
GRID*             162754               0-2.500000000E+006.3331999688E+01+
*       -5.108091141E+01               0
GRID*             162755               0-2.500000000E+006.1831304613E+01+
*       -5.259033236E+01               0
GRID*             162756               0-2.500000000E+006.6388979496E+01+
*       -5.093408364E+01               0
GRID*             162757               0-2.500000000E+006.4885477697E+01+
*       -5.246359115E+01               0
GRID*             162758               0-2.500000000E+006.9456666169E+01+
*       -5.077270844E+01               0
GRID*             162759               0-2.500000000E+006.7947802387E+01+
*       -5.232266601E+01               0
GRID*             162760               0-2.500000000E+007.2537076208E+01+
*       -5.060634623E+01               0
GRID*             162761               0-2.500000000E+007.1019629671E+01+
*       -5.217464411E+01               0
GRID*             162762               0-2.500000000E+007.4100831435E+01+
*       -5.202840279E+01               0
GRID*             162763               0-2.500000000E+007.2575095183E+01+
*       -5.358968834E+01               0
GRID*             162764               0-2.500000000E+006.9501071550E+01+
*       -5.372809686E+01               0
GRID*             162765               0-2.500000000E+006.6435409814E+01+
*       -5.386418157E+01               0
GRID*             162766               0-2.500000000E+006.3377854169E+01+
*       -5.399036196E+01               0
GRID*             162767               0-2.500000000E+006.0327013062E+01+
*       -5.410153832E+01               0
GRID*             162768               0-2.500000000E+005.7281161574E+01+
*       -5.419450891E+01               0
GRID*             162769               0-2.500000000E+005.4238689991E+01+
*       -5.426731150E+01               0
GRID*             162770               0-2.500000000E+005.1198334316E+01+
*       -5.431867778E+01               0
GRID*             162771               0-2.500000000E+004.8159304907E+01+
*       -5.434766895E+01               0
GRID*             162772               0-2.500000000E+004.5121357655E+01+
*       -5.435350908E+01               0
GRID*             162773               0-2.500000000E+004.2084804672E+01+
*       -5.433559522E+01               0
GRID*             162774               0-2.500000000E+003.9050450330E+01+
*       -5.429364271E+01               0
GRID*             162775               0-2.500000000E+003.6019451167E+01+
*       -5.422792803E+01               0
GRID*             162776               0-2.500000000E+003.2993116622E+01+
*       -5.413960204E+01               0
GRID*             162777               0-2.500000000E+002.9972679598E+01+
*       -5.403102293E+01               0
GRID*             162778               0-2.500000000E+002.6959069797E+01+
*       -5.390598677E+01               0
GRID*             162779               0-2.500000000E+001.5086058388E+01+
*       -1.501834701E+01               0
GRID*             162780               0-2.500000000E+001.3232619232E+01+
*       -1.431317719E+01               0
GRID*             162781               0-2.500000000E+001.3458328765E+01+
*       -1.570694489E+01               0
GRID*             162782               0-2.500000000E+001.2068170928E+01+
*       -1.610556649E+01               0
GRID*             162783               0-2.500000000E+001.2717990925E+01+
*       -1.921077903E+01               0
GRID*             162784               0-2.500000000E+001.2695644975E+01+
*       -2.146905544E+01               0
GRID*             162785               0-2.500000000E+001.2646052451E+01+
*       -2.521324920E+01               0
GRID*             162786               0-2.500000000E+001.3033121581E+01+
*       -2.408479341E+01               0
GRID*             162787               0-2.500000000E+001.2485509794E+01+
*       -2.332959383E+01               0
GRID*             162788               0-2.500000000E+001.3052384423E+01+
*       -2.264480004E+01               0
GRID*             162789               0-2.500000000E+001.2079178538E+01+
*       -2.439804299E+01               0
GRID*             162790               0-2.500000000E+001.2148033188E+01+
*       -2.221385586E+01               0
GRID*             162791               0-2.500000000E+008.7614541604E+01+
*       -1.139706872E+02               0
GRID*             162792               0-2.500000000E+008.7954873868E+01+
*       -1.123551431E+02               0
GRID*             162793               0-2.500000000E+008.6112753963E+01+
*       -1.140706043E+02               0
GRID*             162794               0-2.500000000E+008.6757452479E+01+
*       -1.131267731E+02               0
GRID*             162795               0-2.500000000E+008.5938963424E+01+
*       -1.122077006E+02               0
GRID*             162796               0-2.500000000E+004.8794436432E+01+
*       -1.163955486E+02               0
GRID*             162797               0-2.500000000E+005.1807525333E+01+
*       -1.162947945E+02               0
GRID*             162798               0-2.500000000E+004.5818602893E+01+
*       -1.164542659E+02               0
GRID*             162799               0-2.500000000E+004.2870014044E+01+
*       -1.164791142E+02               0
GRID*             162800               0-2.500000000E+003.9940979370E+01+
*       -1.164746895E+02               0
GRID*             162801               0-2.500000000E+003.7025256014E+01+
*       -1.164436915E+02               0
GRID*             162802               0-2.500000000E+003.4117460407E+01+
*       -1.163875617E+02               0
GRID*             162803               0-2.500000000E+003.1213406542E+01+
*       -1.163062224E+02               0
GRID*             162804               0-2.500000000E+002.8312147060E+01+
*       -1.161966545E+02               0
GRID*             162805               0-2.500000000E+002.5416011832E+01+
*       -1.160494661E+02               0
GRID*             162806               0-2.500000000E+002.2553157914E+01+
*       -1.158395297E+02               0
GRID*             162807               0-2.500000000E+002.0945607895E+01+
*       -1.169583277E+02               0
GRID*             162808               0-2.500000000E+001.9965790406E+01+
*       -1.154666567E+02               0
GRID*             162809               0-2.500000000E+006.6823585164E+01+
*       -1.142824656E+02               0
GRID*             162810               0-2.500000000E+006.9544570061E+01+
*       -1.138942253E+02               0
GRID*             162811               0-2.500000000E+006.4064576231E+01+
*       -1.148028005E+02               0
GRID*             162812               0-2.500000000E+006.1136903930E+01+
*       -1.154863941E+02               0
GRID*             162813               0-2.500000000E+005.7991035224E+01+
*       -1.158901590E+02               0
GRID*             162814               0-2.500000000E+005.4870224175E+01+
*       -1.161368829E+02               0
GRID*             162815               0-2.500000000E+007.5003064103E+01+
*       -1.133428876E+02               0
GRID*             162816               0-2.500000000E+007.7711880794E+01+
*       -1.131533311E+02               0
GRID*             162817               0-2.500000000E+007.2272125042E+01+
*       -1.135900475E+02               0
GRID*             162818               0-2.500000000E+008.0370529504E+01+
*       -1.130656759E+02               0
GRID*             162819               0-2.500000000E+008.3001359998E+01+
*       -1.132134093E+02               0
GRID*             162820               0-2.500000000E+008.4551091951E+01+
*       -1.141122538E+02               0
GRID*             162821               0-2.500000000E+008.5273559313E+01+
*       -1.132084901E+02               0
GRID*             162822               0-2.500000000E+008.3896609967E+01+
*       -1.125754759E+02               0
GRID*             162823               0-2.500000000E+004.1090657615E+01+
*       -1.851485942E+02               0
GRID*             162824               0-2.500000000E+008.1902963024E+01+
*       -1.767888222E+01               0
GRID*             162825               0-2.500000000E+008.2502057827E+01+
*       -1.697167626E+01               0
GRID*             162826               0-2.500000000E+008.1316476303E+01+
*       -1.694374932E+01               0
GRID*             162827               0-2.500000000E+001.4338470397E+01+
*       -3.132753148E+02               0
GRID*             162828               0-2.500000000E+001.4512841183E+01+
*       -3.143491885E+02               0
GRID*             162829               0-2.500000000E+002.0007487171E+01+
*       -2.191898472E+02               0
GRID*             162830               0-2.500000000E+001.9940776609E+01+
*       -2.204935012E+02               0
GRID*             162831               0-2.500000000E+003.1814298954E+01+
*       -1.913479762E+02               0
GRID*             162832               0-2.500000000E+003.8876987018E+01+
*       -1.741485487E+02               0
GRID*             162833               0-2.500000000E+003.6780130093E+01+
*       -1.773994200E+02               0
GRID*             162834               0-2.500000000E+003.7492282542E+01+
*       -1.760943737E+02               0
GRID*             162835               0-2.500000000E+005.5845202680E+01+
*       -1.799276428E+02               0
GRID*             162836               0-2.500000000E+005.7392002856E+01+
*       -1.810123006E+02               0
GRID*             162837               0-2.500000000E+005.9185445808E+01+
*       -1.819945207E+02               0
GRID*             162838               0-2.500000000E+002.0078256696E+01+
*       -1.194222005E+02               0
GRID*             162839               0-2.500000000E+002.0000850833E+01+
*       -1.207265802E+02               0
GRID*             162840               0-2.500000000E+001.4386726013E+01+
*       -1.602101929E+01               0
GRID*             162841               0-2.500000000E+001.3011081891E+01+
*       -1.673914384E+01               0
GRID*             162842               0-2.500000000E+007.6263964030E+01+
*       -1.816820200E+01               0
GRID*             162843               0-2.500000000E+002.6130608909E+01+
*       -2.208503119E+01               0
GRID*             162844               0-2.500000000E+002.6115963872E+01+
*       -2.335354776E+01               0
GRID*             162845               0-2.500000000E+003.4676031785E+01+
*       -9.472635969E+01               0
GRID*             162846               0-2.500000000E+004.6880467090E+01+
*       -9.270044232E+01               0
GRID*             162847               0-2.500000000E+008.3466640714E+01+
*       -2.833576726E+01               0
GRID*             162848               0-2.500000000E+008.1757886602E+01+
*       -2.815213489E+01               0
GRID*             162849               0-2.500000000E+001.2514779832E+01+
*       -1.804195020E+01               0
GRID*             162850               0-2.500000000E+003.3689528558E+01+
*       -1.906949283E+02               0
GRID*             162851               0-2.500000000E+008.6789187646E+01+
*       -3.214335005E+02               0
GRID*             162852               0-2.500000000E+008.7373096922E+01+
*       -3.218679099E+02               0
GRID*             162853               0-2.500000000E+008.7390048723E+01+
*       -3.208124540E+02               0
GRID*             162854               0-2.500000000E+001.8098832145E+01+
*       -3.249604734E+02               0
GRID*             162855               0-2.500000000E+001.7508705060E+01+
*       -3.256620610E+02               0
GRID*             162856               0-2.500000000E+001.8686343579E+01+
*       -3.256675485E+02               0
GRID*             162857               0-2.500000000E+001.3198402689E+01+
*       -3.184875683E+02               0
GRID*             162858               0-2.500000000E+001.2594126279E+01+
*       -3.178869793E+02               0
GRID*             162859               0-2.500000000E+001.2586705461E+01+
*       -3.190393275E+02               0
GRID*             162860               0-2.500000000E+001.3255547991E+01+
*       -3.140650688E+02               0
GRID*             162861               0-2.500000000E+001.3281382389E+01+
*       -3.125363553E+02               0
GRID*             162862               0-2.500000000E+001.3768007995E+01+
*       -3.148176143E+02               0
GRID*             153221               0-1.250000000E+009.1000000000E+01+
*       -3.270277778E+02               0
GRID*             153222               0-1.250000000E+009.1000000000E+01+
*       -3.240555556E+02               0
GRID*             153223               0-1.250000000E+009.1000000000E+01+
*       -3.210833333E+02               0
GRID*             153224               0-1.250000000E+009.1000000000E+01+
*       -3.181111111E+02               0
GRID*             153225               0-1.250000000E+009.1000000000E+01+
*       -3.151388889E+02               0
GRID*             153226               0-1.250000000E+009.1000000000E+01+
*       -3.121666667E+02               0
GRID*             153227               0-1.250000000E+009.1000000000E+01+
*       -3.091944444E+02               0
GRID*             153228               0-1.250000000E+009.1000000000E+01+
*       -3.062222222E+02               0
GRID*             153229               0-1.250000000E+009.1000000000E+01+
*       -3.032500000E+02               0
GRID*             153230               0-1.250000000E+009.1000000000E+01+
*       -3.002777778E+02               0
GRID*             153231               0-1.250000000E+009.1000000000E+01+
*       -2.973055556E+02               0
GRID*             153232               0-1.250000000E+009.1000000000E+01+
*       -2.943333333E+02               0
GRID*             153233               0-1.250000000E+009.1000000000E+01+
*       -2.913611111E+02               0
GRID*             153234               0-1.250000000E+009.1000000000E+01+
*       -2.883888889E+02               0
GRID*             153235               0-1.250000000E+009.1000000000E+01+
*       -2.854166667E+02               0
GRID*             153236               0-1.250000000E+009.1000000000E+01+
*       -2.824444444E+02               0
GRID*             153237               0-1.250000000E+009.1000000000E+01+
*       -2.794722222E+02               0
GRID*             153238               0-1.250000000E+009.1000000000E+01+
*       -2.765000000E+02               0
GRID*             153239               0-1.250000000E+009.1000000000E+01+
*       -2.735277778E+02               0
GRID*             153240               0-1.250000000E+009.1000000000E+01+
*       -2.705555556E+02               0
GRID*             153241               0-1.250000000E+009.1000000000E+01+
*       -2.675833333E+02               0
GRID*             153242               0-1.250000000E+009.1000000000E+01+
*       -2.646111111E+02               0
GRID*             153243               0-1.250000000E+009.1000000000E+01+
*       -2.616388889E+02               0
GRID*             153244               0-1.250000000E+009.1000000000E+01+
*       -2.586666667E+02               0
GRID*             153245               0-1.250000000E+009.1000000000E+01+
*       -2.556944444E+02               0
GRID*             153246               0-1.250000000E+009.1000000000E+01+
*       -2.527222222E+02               0
GRID*             153247               0-1.250000000E+009.1000000000E+01+
*       -2.497500000E+02               0
GRID*             153248               0-1.250000000E+009.1000000000E+01+
*       -2.467777778E+02               0
GRID*             153249               0-1.250000000E+009.1000000000E+01+
*       -2.438055556E+02               0
GRID*             153250               0-1.250000000E+009.1000000000E+01+
*       -2.408333333E+02               0
GRID*             153251               0-1.250000000E+009.1000000000E+01+
*       -2.378611111E+02               0
GRID*             153252               0-1.250000000E+009.1000000000E+01+
*       -2.348888889E+02               0
GRID*             153253               0-1.250000000E+009.1000000000E+01+
*       -2.319166667E+02               0
GRID*             153254               0-1.250000000E+009.1000000000E+01+
*       -2.289444444E+02               0
GRID*             153255               0-1.250000000E+009.1000000000E+01+
*       -2.259722222E+02               0
GRID*             153121               0-1.250000000E+008.9999980927E+00+
*       -2.259722222E+02               0
GRID*             153122               0-1.250000000E+008.9999980927E+00+
*       -2.289444444E+02               0
GRID*             153123               0-1.250000000E+008.9999980927E+00+
*       -2.319166667E+02               0
GRID*             153124               0-1.250000000E+008.9999980927E+00+
*       -2.348888889E+02               0
GRID*             153125               0-1.250000000E+008.9999980927E+00+
*       -2.378611111E+02               0
GRID*             153126               0-1.250000000E+008.9999980927E+00+
*       -2.408333333E+02               0
GRID*             153127               0-1.250000000E+008.9999980927E+00+
*       -2.438055556E+02               0
GRID*             153128               0-1.250000000E+008.9999980927E+00+
*       -2.467777778E+02               0
GRID*             153129               0-1.250000000E+008.9999980927E+00+
*       -2.497500000E+02               0
GRID*             153130               0-1.250000000E+008.9999980927E+00+
*       -2.527222222E+02               0
GRID*             153131               0-1.250000000E+008.9999980927E+00+
*       -2.556944444E+02               0
GRID*             153132               0-1.250000000E+008.9999980927E+00+
*       -2.586666667E+02               0
GRID*             153133               0-1.250000000E+008.9999980927E+00+
*       -2.616388889E+02               0
GRID*             153134               0-1.250000000E+008.9999980927E+00+
*       -2.646111111E+02               0
GRID*             153135               0-1.250000000E+008.9999980927E+00+
*       -2.675833333E+02               0
GRID*             153136               0-1.250000000E+008.9999980927E+00+
*       -2.705555556E+02               0
GRID*             153137               0-1.250000000E+008.9999980927E+00+
*       -2.735277778E+02               0
GRID*             153138               0-1.250000000E+008.9999980927E+00+
*       -2.765000000E+02               0
GRID*             153139               0-1.250000000E+008.9999980927E+00+
*       -2.794722222E+02               0
GRID*             153140               0-1.250000000E+008.9999980927E+00+
*       -2.824444444E+02               0
GRID*             153141               0-1.250000000E+008.9999980927E+00+
*       -2.854166667E+02               0
GRID*             153142               0-1.250000000E+008.9999980927E+00+
*       -2.883888889E+02               0
GRID*             153143               0-1.250000000E+008.9999980927E+00+
*       -2.913611111E+02               0
GRID*             153144               0-1.250000000E+008.9999980927E+00+
*       -2.943333333E+02               0
GRID*             153145               0-1.250000000E+008.9999980927E+00+
*       -2.973055556E+02               0
GRID*             153146               0-1.250000000E+008.9999980927E+00+
*       -3.002777778E+02               0
GRID*             153147               0-1.250000000E+008.9999980927E+00+
*       -3.032500000E+02               0
GRID*             153148               0-1.250000000E+008.9999980927E+00+
*       -3.062222222E+02               0
GRID*             153149               0-1.250000000E+008.9999980927E+00+
*       -3.091944444E+02               0
GRID*             153150               0-1.250000000E+008.9999980927E+00+
*       -3.121666667E+02               0
GRID*             153151               0-1.250000000E+008.9999980927E+00+
*       -3.151388889E+02               0
GRID*             153152               0-1.250000000E+008.9999980927E+00+
*       -3.181111111E+02               0
GRID*             153153               0-1.250000000E+008.9999980927E+00+
*       -3.210833333E+02               0
GRID*             153154               0-1.250000000E+008.9999980927E+00+
*       -3.240555556E+02               0
GRID*             153155               0-1.250000000E+008.9999980927E+00+
*       -3.270277778E+02               0
GRID*             153095               0-1.250000000E+001.2037035200E+01+
*       -1.000000000E+01               0
GRID*             153096               0-1.250000000E+001.5074072308E+01+
*       -1.000000000E+01               0
GRID*             153097               0-1.250000000E+001.8111109416E+01+
*       -1.000000000E+01               0
GRID*             153098               0-1.250000000E+002.1148146523E+01+
*       -1.000000000E+01               0
GRID*             153099               0-1.250000000E+002.4185183631E+01+
*       -1.000000000E+01               0
GRID*             153100               0-1.250000000E+002.7222220739E+01+
*       -1.000000000E+01               0
GRID*             153101               0-1.250000000E+003.0259257846E+01+
*       -1.000000000E+01               0
GRID*             153102               0-1.250000000E+003.3296294954E+01+
*       -1.000000000E+01               0
GRID*             153103               0-1.250000000E+003.6333332062E+01+
*       -1.000000000E+01               0
GRID*             153104               0-1.250000000E+003.9370369169E+01+
*       -1.000000000E+01               0
GRID*             153105               0-1.250000000E+004.2407406277E+01+
*       -1.000000000E+01               0
GRID*             153106               0-1.250000000E+004.5444443385E+01+
*       -1.000000000E+01               0
GRID*             153107               0-1.250000000E+004.8481480492E+01+
*       -1.000000000E+01               0
GRID*             153108               0-1.250000000E+005.1518517600E+01+
*       -1.000000000E+01               0
GRID*             153109               0-1.250000000E+005.4555554708E+01+
*       -1.000000000E+01               0
GRID*             153110               0-1.250000000E+005.7592591816E+01+
*       -1.000000000E+01               0
GRID*             153111               0-1.250000000E+006.0629628923E+01+
*       -1.000000000E+01               0
GRID*             153112               0-1.250000000E+006.3666666031E+01+
*       -1.000000000E+01               0
GRID*             153113               0-1.250000000E+006.6703703139E+01+
*       -1.000000000E+01               0
GRID*             153114               0-1.250000000E+006.9740740246E+01+
*       -1.000000000E+01               0
GRID*             153115               0-1.250000000E+007.2777777354E+01+
*       -1.000000000E+01               0
GRID*             153116               0-1.250000000E+007.5814814462E+01+
*       -1.000000000E+01               0
GRID*             153117               0-1.250000000E+007.8851851569E+01+
*       -1.000000000E+01               0
GRID*             153118               0-1.250000000E+008.1888888677E+01+
*       -1.000000000E+01               0
GRID*             153119               0-1.250000000E+008.4925925785E+01+
*       -1.000000000E+01               0
GRID*             153120               0-1.250000000E+008.7962962892E+01+
*       -1.000000000E+01               0
GRID*             153069               0-1.250000000E+008.7962962892E+01+
*       -3.300000000E+02               0
GRID*             153070               0-1.250000000E+008.4925925785E+01+
*       -3.300000000E+02               0
GRID*             153071               0-1.250000000E+008.1888888677E+01+
*       -3.300000000E+02               0
GRID*             153072               0-1.250000000E+007.8851851569E+01+
*       -3.300000000E+02               0
GRID*             153073               0-1.250000000E+007.5814814462E+01+
*       -3.300000000E+02               0
GRID*             153074               0-1.250000000E+007.2777777354E+01+
*       -3.300000000E+02               0
GRID*             153075               0-1.250000000E+006.9740740246E+01+
*       -3.300000000E+02               0
GRID*             153076               0-1.250000000E+006.6703703139E+01+
*       -3.300000000E+02               0
GRID*             153077               0-1.250000000E+006.3666666031E+01+
*       -3.300000000E+02               0
GRID*             153078               0-1.250000000E+006.0629628923E+01+
*       -3.300000000E+02               0
GRID*             153079               0-1.250000000E+005.7592591816E+01+
*       -3.300000000E+02               0
GRID*             153080               0-1.250000000E+005.4555554708E+01+
*       -3.300000000E+02               0
GRID*             153081               0-1.250000000E+005.1518517600E+01+
*       -3.300000000E+02               0
GRID*             153082               0-1.250000000E+004.8481480492E+01+
*       -3.300000000E+02               0
GRID*             153083               0-1.250000000E+004.5444443385E+01+
*       -3.300000000E+02               0
GRID*             153084               0-1.250000000E+004.2407406277E+01+
*       -3.300000000E+02               0
GRID*             153085               0-1.250000000E+003.9370369169E+01+
*       -3.300000000E+02               0
GRID*             153086               0-1.250000000E+003.6333332062E+01+
*       -3.300000000E+02               0
GRID*             153087               0-1.250000000E+003.3296294954E+01+
*       -3.300000000E+02               0
GRID*             153088               0-1.250000000E+003.0259257846E+01+
*       -3.300000000E+02               0
GRID*             153089               0-1.250000000E+002.7222220739E+01+
*       -3.300000000E+02               0
GRID*             153090               0-1.250000000E+002.4185183631E+01+
*       -3.300000000E+02               0
GRID*             153091               0-1.250000000E+002.1148146523E+01+
*       -3.300000000E+02               0
GRID*             153092               0-1.250000000E+001.8111109416E+01+
*       -3.300000000E+02               0
GRID*             153093               0-1.250000000E+001.5074072308E+01+
*       -3.300000000E+02               0
GRID*             153094               0-1.250000000E+001.2037035200E+01+
*       -3.300000000E+02               0
GRID*             149969               0-1.250000000E+001.6599999428E+01+
*       -1.814999819E+01               0
GRID*             149970               0-1.250000000E+001.8100002289E+01+
*       -1.814999819E+01               0
GRID*             149971               0-1.250000000E+001.5099996567E+01+
*       -1.814999819E+01               0
GRID*             149972               0-1.250000000E+001.3599995136E+01+
*       -1.814999819E+01               0
GRID*             149973               0-1.250000000E+001.3599995136E+01+
*       -1.964999962E+01               0
GRID*             149974               0-1.250000000E+001.3599995852E+01+
*       -2.114999962E+01               0
GRID*             149975               0-1.250000000E+001.3599996567E+01+
*       -2.264999962E+01               0
GRID*             149976               0-1.250000000E+001.3599995852E+01+
*       -2.414999962E+01               0
GRID*             149977               0-1.250000000E+001.3599995136E+01+
*       -2.564999962E+01               0
GRID*             149978               0-1.250000000E+001.3599995136E+01+
*       -2.715000105E+01               0
GRID*             149979               0-1.250000000E+001.5099996567E+01+
*       -2.715000105E+01               0
GRID*             149980               0-1.250000000E+001.6599999428E+01+
*       -2.715000105E+01               0
GRID*             149981               0-1.250000000E+001.8100002289E+01+
*       -2.715000105E+01               0
GRID*             149982               0-1.250000000E+001.9600002289E+01+
*       -2.715000033E+01               0
GRID*             149983               0-1.250000000E+002.1100002289E+01+
*       -2.714999962E+01               0
GRID*             149984               0-1.250000000E+002.2600002289E+01+
*       -2.714999962E+01               0
GRID*             149985               0-1.250000000E+002.2600002289E+01+
*       -2.564999962E+01               0
GRID*             149986               0-1.250000000E+002.2600002289E+01+
*       -2.414999962E+01               0
GRID*             149987               0-1.250000000E+002.2600002289E+01+
*       -2.264999962E+01               0
GRID*             149988               0-1.250000000E+002.2600002289E+01+
*       -2.114999962E+01               0
GRID*             149989               0-1.250000000E+002.2600002289E+01+
*       -1.964999962E+01               0
GRID*             149990               0-1.250000000E+002.2600002289E+01+
*       -1.814999962E+01               0
GRID*             149991               0-1.250000000E+002.1100002289E+01+
*       -1.814999962E+01               0
GRID*             149992               0-1.250000000E+001.9600002289E+01+
*       -1.814999890E+01               0
GRID*             149993               0-1.250000000E+001.3599995136E+01+
*       -3.230000000E+02               0
GRID*             149994               0-1.250000000E+001.3599995852E+01+
*       -3.215000000E+02               0
GRID*             149995               0-1.250000000E+001.3599995136E+01+
*       -3.245000014E+02               0
GRID*             149996               0-1.250000000E+001.5099996567E+01+
*       -3.245000014E+02               0
GRID*             149997               0-1.250000000E+001.6599999428E+01+
*       -3.245000014E+02               0
GRID*             149998               0-1.250000000E+001.8100002289E+01+
*       -3.245000014E+02               0
GRID*             149999               0-1.250000000E+001.9600002289E+01+
*       -3.245000007E+02               0
GRID*             150000               0-1.250000000E+002.1100002289E+01+
*       -3.245000000E+02               0
GRID*             150001               0-1.250000000E+002.2600002289E+01+
*       -3.245000000E+02               0
GRID*             150002               0-1.250000000E+002.2600002289E+01+
*       -3.230000000E+02               0
GRID*             150003               0-1.250000000E+002.2600002289E+01+
*       -3.215000000E+02               0
GRID*             150004               0-1.250000000E+002.2600002289E+01+
*       -3.200000000E+02               0
GRID*             150005               0-1.250000000E+002.2600002289E+01+
*       -3.185000000E+02               0
GRID*             150006               0-1.250000000E+002.2600002289E+01+
*       -3.170000000E+02               0
GRID*             150007               0-1.250000000E+002.2600002289E+01+
*       -3.155000000E+02               0
GRID*             150008               0-1.250000000E+002.1100002289E+01+
*       -3.155000000E+02               0
GRID*             150009               0-1.250000000E+001.9600002289E+01+
*       -3.154999993E+02               0
GRID*             150010               0-1.250000000E+001.8100002289E+01+
*       -3.154999986E+02               0
GRID*             150011               0-1.250000000E+001.6599999428E+01+
*       -3.154999986E+02               0
GRID*             150012               0-1.250000000E+001.5099996567E+01+
*       -3.154999986E+02               0
GRID*             150013               0-1.250000000E+001.3599995136E+01+
*       -3.154999986E+02               0
GRID*             150014               0-1.250000000E+001.3599995136E+01+
*       -3.170000000E+02               0
GRID*             150015               0-1.250000000E+001.3599995852E+01+
*       -3.185000000E+02               0
GRID*             150016               0-1.250000000E+001.3599996567E+01+
*       -3.200000000E+02               0
GRID*             150017               0-1.250000000E+008.6400001526E+01+
*       -3.185000000E+02               0
GRID*             150018               0-1.250000000E+008.6400001526E+01+
*       -3.200000000E+02               0
GRID*             150019               0-1.250000000E+008.6400001526E+01+
*       -3.170000000E+02               0
GRID*             150020               0-1.250000000E+008.6400001526E+01+
*       -3.155000000E+02               0
GRID*             150021               0-1.250000000E+008.4900001526E+01+
*       -3.155000000E+02               0
GRID*             150022               0-1.250000000E+008.3400001526E+01+
*       -3.155000000E+02               0
GRID*             150023               0-1.250000000E+008.1900001526E+01+
*       -3.155000000E+02               0
GRID*             150024               0-1.250000000E+008.0400001526E+01+
*       -3.155000000E+02               0
GRID*             150025               0-1.250000000E+007.8900001526E+01+
*       -3.155000000E+02               0
GRID*             150026               0-1.250000000E+007.7400001526E+01+
*       -3.155000000E+02               0
GRID*             150027               0-1.250000000E+007.7400001526E+01+
*       -3.170000000E+02               0
GRID*             150028               0-1.250000000E+007.7400001526E+01+
*       -3.185000000E+02               0
GRID*             150029               0-1.250000000E+007.7400001526E+01+
*       -3.200000000E+02               0
GRID*             150030               0-1.250000000E+007.7400001526E+01+
*       -3.215000000E+02               0
GRID*             150031               0-1.250000000E+007.7400001526E+01+
*       -3.230000000E+02               0
GRID*             150032               0-1.250000000E+007.7400001526E+01+
*       -3.245000000E+02               0
GRID*             150033               0-1.250000000E+007.8900001526E+01+
*       -3.245000000E+02               0
GRID*             150034               0-1.250000000E+008.0400001526E+01+
*       -3.245000000E+02               0
GRID*             150035               0-1.250000000E+008.1900001526E+01+
*       -3.245000000E+02               0
GRID*             150036               0-1.250000000E+008.3400001526E+01+
*       -3.245000000E+02               0
GRID*             150037               0-1.250000000E+008.4900001526E+01+
*       -3.245000000E+02               0
GRID*             150038               0-1.250000000E+008.6400001526E+01+
*       -3.245000000E+02               0
GRID*             150039               0-1.250000000E+008.6400001526E+01+
*       -3.230000000E+02               0
GRID*             150040               0-1.250000000E+008.6400001526E+01+
*       -3.215000000E+02               0
GRID*             150041               0-1.250000000E+008.6400001526E+01+
*       -1.964999962E+01               0
GRID*             150042               0-1.250000000E+008.6400001526E+01+
*       -2.114999962E+01               0
GRID*             150043               0-1.250000000E+008.6400001526E+01+
*       -1.814999962E+01               0
GRID*             150044               0-1.250000000E+008.4900001526E+01+
*       -1.814999962E+01               0
GRID*             150045               0-1.250000000E+008.3400001526E+01+
*       -1.814999962E+01               0
GRID*             150046               0-1.250000000E+008.1900001526E+01+
*       -1.814999962E+01               0
GRID*             150047               0-1.250000000E+008.0400001526E+01+
*       -1.814999962E+01               0
GRID*             150048               0-1.250000000E+007.8900001526E+01+
*       -1.814999962E+01               0
GRID*             150049               0-1.250000000E+007.7400001526E+01+
*       -1.814999962E+01               0
GRID*             150050               0-1.250000000E+007.7400001526E+01+
*       -1.964999962E+01               0
GRID*             150051               0-1.250000000E+007.7400001526E+01+
*       -2.114999962E+01               0
GRID*             150052               0-1.250000000E+007.7400001526E+01+
*       -2.264999962E+01               0
GRID*             150053               0-1.250000000E+007.7400001526E+01+
*       -2.414999962E+01               0
GRID*             150054               0-1.250000000E+007.7400001526E+01+
*       -2.564999962E+01               0
GRID*             150055               0-1.250000000E+007.7400001526E+01+
*       -2.714999962E+01               0
GRID*             150056               0-1.250000000E+007.8900001526E+01+
*       -2.714999962E+01               0
GRID*             150057               0-1.250000000E+008.0400001526E+01+
*       -2.714999962E+01               0
GRID*             150058               0-1.250000000E+008.1900001526E+01+
*       -2.714999962E+01               0
GRID*             150059               0-1.250000000E+008.3400001526E+01+
*       -2.714999962E+01               0
GRID*             150060               0-1.250000000E+008.4900001526E+01+
*       -2.714999962E+01               0
GRID*             150061               0-1.250000000E+008.6400001526E+01+
*       -2.714999962E+01               0
GRID*             150062               0-1.250000000E+008.6400001526E+01+
*       -2.564999962E+01               0
GRID*             150063               0-1.250000000E+008.6400001526E+01+
*       -2.414999962E+01               0
GRID*             150064               0-1.250000000E+008.6400001526E+01+
*       -2.264999962E+01               0
GRID*             150065               0-1.250000000E+008.7870341068E+01+
*       -1.284619035E+01               0
GRID*             150066               0-1.250000000E+008.7632578886E+01+
*       -1.586043797E+01               0
GRID*             150067               0-1.250000000E+008.8009429677E+01+
*       -1.884622038E+01               0
GRID*             150068               0-1.250000000E+008.8185666041E+01+
*       -2.189152208E+01               0
GRID*             150069               0-1.250000000E+008.8384651963E+01+
*       -2.481345791E+01               0
GRID*             150070               0-1.250000000E+008.8963967658E+01+
*       -2.763242501E+01               0
GRID*             150071               0-1.250000000E+008.8521386664E+01+
*       -3.028367868E+01               0
GRID*             150072               0-1.250000000E+008.8293148386E+01+
*       -3.335906693E+01               0
GRID*             150073               0-1.250000000E+008.8139305579E+01+
*       -3.645852955E+01               0
GRID*             150074               0-1.250000000E+008.8043882460E+01+
*       -3.954080940E+01               0
GRID*             150075               0-1.250000000E+008.7991095482E+01+
*       -4.259668253E+01               0
GRID*             150076               0-1.250000000E+008.7964276815E+01+
*       -4.562814715E+01               0
GRID*             150077               0-1.250000000E+008.7952196096E+01+
*       -4.864060359E+01               0
GRID*             150078               0-1.250000000E+008.7947964637E+01+
*       -5.163955120E+01               0
GRID*             150079               0-1.250000000E+008.7947658887E+01+
*       -5.462945731E+01               0
GRID*             150080               0-1.250000000E+008.7949195185E+01+
*       -5.761360638E+01               0
GRID*             150081               0-1.250000000E+008.7951561597E+01+
*       -6.059429568E+01               0
GRID*             150082               0-1.250000000E+008.7954339650E+01+
*       -6.357309930E+01               0
GRID*             150083               0-1.250000000E+008.7957483835E+01+
*       -6.655102596E+01               0
GRID*             150084               0-1.250000000E+008.7960490422E+01+
*       -6.952961897E+01               0
GRID*             150085               0-1.250000000E+008.7964176047E+01+
*       -7.250896454E+01               0
GRID*             150086               0-1.250000000E+008.7968973785E+01+
*       -7.548973137E+01               0
GRID*             150087               0-1.250000000E+008.7975731821E+01+
*       -7.847215724E+01               0
GRID*             150088               0-1.250000000E+008.7985537766E+01+
*       -8.145622936E+01               0
GRID*             150089               0-1.250000000E+008.7999594369E+01+
*       -8.444169219E+01               0
GRID*             150090               0-1.250000000E+008.8019041376E+01+
*       -8.742804180E+01               0
GRID*             150091               0-1.250000000E+008.8044699237E+01+
*       -9.041460571E+01               0
GRID*             150092               0-1.250000000E+008.8076789217E+01+
*       -9.340074177E+01               0
GRID*             150093               0-1.250000000E+008.8114932998E+01+
*       -9.638605130E+01               0
GRID*             150094               0-1.250000000E+008.8158734069E+01+
*       -9.937052726E+01               0
GRID*             150095               0-1.250000000E+008.8208717211E+01+
*       -1.023552431E+02               0
GRID*             150096               0-1.250000000E+008.8266959095E+01+
*       -1.053461129E+02               0
GRID*             150097               0-1.250000000E+008.8336805832E+01+
*       -1.083732740E+02               0
GRID*             150098               0-1.250000000E+008.8418986727E+01+
*       -1.116165852E+02               0
GRID*             150099               0-1.250000000E+008.9253815545E+01+
*       -1.144161864E+02               0
GRID*             150100               0-1.250000000E+008.7738322200E+01+
*       -1.148476733E+02               0
GRID*             150101               0-1.250000000E+008.6201363977E+01+
*       -1.149813634E+02               0
GRID*             150102               0-1.250000000E+008.4579209224E+01+
*       -1.149673724E+02               0
GRID*             150103               0-1.250000000E+008.2732474740E+01+
*       -1.145330020E+02               0
GRID*             150104               0-1.250000000E+008.2827914939E+01+
*       -1.167105563E+02               0
GRID*             150105               0-1.250000000E+008.2988474781E+01+
*       -1.185596420E+02               0
GRID*             150106               0-1.250000000E+008.3201027214E+01+
*       -1.202287207E+02               0
GRID*             150107               0-1.250000000E+008.3429001271E+01+
*       -1.217428617E+02               0
GRID*             150108               0-1.250000000E+008.3269068565E+01+
*       -1.233700988E+02               0
GRID*             150109               0-1.250000000E+008.3114453431E+01+
*       -1.254913193E+02               0
GRID*             150110               0-1.250000000E+008.4783514827E+01+
*       -1.250730106E+02               0
GRID*             150111               0-1.250000000E+008.6331034797E+01+
*       -1.250366729E+02               0
GRID*             150112               0-1.250000000E+008.7827916154E+01+
*       -1.251653934E+02               0
GRID*             150113               0-1.250000000E+008.9308096616E+01+
*       -1.256069996E+02               0
GRID*             150114               0-1.250000000E+008.8538718424E+01+
*       -1.284493629E+02               0
GRID*             150115               0-1.250000000E+008.8461238045E+01+
*       -1.318017225E+02               0
GRID*             150116               0-1.250000000E+008.8391404104E+01+
*       -1.349120967E+02               0
GRID*             150117               0-1.250000000E+008.8332477797E+01+
*       -1.379772820E+02               0
GRID*             150118               0-1.250000000E+008.8282451848E+01+
*       -1.410304156E+02               0
GRID*             150119               0-1.250000000E+008.8239468558E+01+
*       -1.440791060E+02               0
GRID*             150120               0-1.250000000E+008.8202234824E+01+
*       -1.471256709E+02               0
GRID*             150121               0-1.250000000E+008.8169834607E+01+
*       -1.501710798E+02               0
GRID*             150122               0-1.250000000E+008.8141581265E+01+
*       -1.532159048E+02               0
GRID*             150123               0-1.250000000E+008.8116956182E+01+
*       -1.562605936E+02               0
GRID*             150124               0-1.250000000E+008.8095601376E+01+
*       -1.593055485E+02               0
GRID*             150125               0-1.250000000E+008.8077336779E+01+
*       -1.623511316E+02               0
GRID*             150126               0-1.250000000E+008.8062180451E+01+
*       -1.653976338E+02               0
GRID*             150127               0-1.250000000E+008.8050353557E+01+
*       -1.684452253E+02               0
GRID*             150128               0-1.250000000E+008.8042253297E+01+
*       -1.714939043E+02               0
GRID*             150129               0-1.250000000E+008.8038381938E+01+
*       -1.745434659E+02               0
GRID*             150130               0-1.250000000E+008.8039235991E+01+
*       -1.775935174E+02               0
GRID*             150131               0-1.250000000E+008.8045188445E+01+
*       -1.806435556E+02               0
GRID*             150132               0-1.250000000E+008.8056425111E+01+
*       -1.836930934E+02               0
GRID*             150133               0-1.250000000E+008.8072981610E+01+
*       -1.867417879E+02               0
GRID*             150134               0-1.250000000E+008.8094821295E+01+
*       -1.897895191E+02               0
GRID*             150135               0-1.250000000E+008.8121825492E+01+
*       -1.928364295E+02               0
GRID*             150136               0-1.250000000E+008.8153776907E+01+
*       -1.958829559E+02               0
GRID*             150137               0-1.250000000E+008.8190696228E+01+
*       -1.989299150E+02               0
GRID*             150138               0-1.250000000E+008.8233566963E+01+
*       -2.019792582E+02               0
GRID*             150139               0-1.250000000E+008.8284923980E+01+
*       -2.050380545E+02               0
GRID*             150140               0-1.250000000E+008.8348629203E+01+
*       -2.081388145E+02               0
GRID*             150141               0-1.250000000E+008.8425716397E+01+
*       -2.114744033E+02               0
GRID*             150142               0-1.250000000E+008.9258136059E+01+
*       -2.143526267E+02               0
GRID*             150143               0-1.250000000E+008.7738005296E+01+
*       -2.147764670E+02               0
GRID*             150144               0-1.250000000E+008.6196452413E+01+
*       -2.148967987E+02               0
GRID*             150145               0-1.250000000E+008.4566207224E+01+
*       -2.148498490E+02               0
GRID*             150146               0-1.250000000E+008.2720265257E+01+
*       -2.143451778E+02               0
GRID*             150147               0-1.250000000E+008.2820211422E+01+
*       -2.165943912E+02               0
GRID*             150148               0-1.250000000E+008.2986939086E+01+
*       -2.184769487E+02               0
GRID*             150149               0-1.250000000E+008.3201305800E+01+
*       -2.201601963E+02               0
GRID*             150150               0-1.250000000E+008.3421216425E+01+
*       -2.216811525E+02               0
GRID*             150151               0-1.250000000E+008.3252858789E+01+
*       -2.232916058E+02               0
GRID*             150152               0-1.250000000E+008.3099277445E+01+
*       -2.253501812E+02               0
GRID*             150153               0-1.250000000E+008.4778096946E+01+
*       -2.249759184E+02               0
GRID*             150154               0-1.250000000E+008.6325613113E+01+
*       -2.249620878E+02               0
GRID*             150155               0-1.250000000E+008.7822102118E+01+
*       -2.250992680E+02               0
GRID*             150156               0-1.250000000E+008.9300703350E+01+
*       -2.255458250E+02               0
GRID*             150157               0-1.250000000E+008.8526495451E+01+
*       -2.283184704E+02               0
GRID*             150158               0-1.250000000E+008.8442910036E+01+
*       -2.315862304E+02               0
GRID*             150159               0-1.250000000E+008.8369536402E+01+
*       -2.346265988E+02               0
GRID*             150160               0-1.250000000E+008.8307054397E+01+
*       -2.376268208E+02               0
GRID*             150161               0-1.250000000E+008.8253680830E+01+
*       -2.406175864E+02               0
GRID*             150162               0-1.250000000E+008.8207902926E+01+
*       -2.436052116E+02               0
GRID*             150163               0-1.250000000E+008.8168682308E+01+
*       -2.465911828E+02               0
GRID*             150164               0-1.250000000E+008.8135280184E+01+
*       -2.495758580E+02               0
GRID*             150165               0-1.250000000E+008.8107114543E+01+
*       -2.525592741E+02               0
GRID*             150166               0-1.250000000E+008.8083672609E+01+
*       -2.555413478E+02               0
GRID*             150167               0-1.250000000E+008.8064463588E+01+
*       -2.585219297E+02               0
GRID*             150168               0-1.250000000E+008.8049002883E+01+
*       -2.615008406E+02               0
GRID*             150169               0-1.250000000E+008.8036820390E+01+
*       -2.644779322E+02               0
GRID*             150170               0-1.250000000E+008.8027478022E+01+
*       -2.674531375E+02               0
GRID*             150171               0-1.250000000E+008.8020581137E+01+
*       -2.704264648E+02               0
GRID*             150172               0-1.250000000E+008.8015780690E+01+
*       -2.733979616E+02               0
GRID*             150173               0-1.250000000E+008.8012780105E+01+
*       -2.763677954E+02               0
GRID*             150174               0-1.250000000E+008.8011164900E+01+
*       -2.793347869E+02               0
GRID*             150175               0-1.250000000E+008.8010863848E+01+
*       -2.823000019E+02               0
GRID*             150176               0-1.250000000E+008.8011708646E+01+
*       -2.852630838E+02               0
GRID*             150177               0-1.250000000E+008.8013635648E+01+
*       -2.882243655E+02               0
GRID*             150178               0-1.250000000E+008.8016664315E+01+
*       -2.911847403E+02               0
GRID*             150179               0-1.250000000E+008.8021108597E+01+
*       -2.941462315E+02               0
GRID*             150180               0-1.250000000E+008.8028030997E+01+
*       -2.971130392E+02               0
GRID*             150181               0-1.250000000E+008.8039759303E+01+
*       -3.000935449E+02               0
GRID*             150182               0-1.250000000E+008.8060774904E+01+
*       -3.031045523E+02               0
GRID*             150183               0-1.250000000E+008.8105361715E+01+
*       -3.061766644E+02               0
GRID*             150184               0-1.250000000E+008.8214219712E+01+
*       -3.093493011E+02               0
GRID*             150185               0-1.250000000E+008.8559094268E+01+
*       -3.124692209E+02               0
GRID*             150186               0-1.250000000E+008.8582807599E+01+
*       -3.156749927E+02               0
GRID*             150187               0-1.250000000E+008.9195705890E+01+
*       -3.183691708E+02               0
GRID*             150188               0-1.250000000E+008.8872814171E+01+
*       -3.212038952E+02               0
GRID*             150189               0-1.250000000E+008.9058264096E+01+
*       -3.238443140E+02               0
GRID*             150190               0-1.250000000E+008.7804017734E+01+
*       -3.264511691E+02               0
GRID*             150191               0-1.250000000E+008.4718114213E+01+
*       -3.268548686E+02               0
GRID*             150192               0-1.250000000E+008.1965054348E+01+
*       -3.276457842E+02               0
GRID*             150193               0-1.250000000E+007.9256926037E+01+
*       -3.271294284E+02               0
GRID*             150194               0-1.250000000E+007.6453296017E+01+
*       -3.273613387E+02               0
GRID*             150195               0-1.250000000E+007.3155589296E+01+
*       -3.276828511E+02               0
GRID*             150196               0-1.250000000E+006.9999438030E+01+
*       -3.277681644E+02               0
GRID*             150197               0-1.250000000E+006.6896575296E+01+
*       -3.277771279E+02               0
GRID*             150198               0-1.250000000E+006.3819352816E+01+
*       -3.277610883E+02               0
GRID*             150199               0-1.250000000E+006.0756344589E+01+
*       -3.277400751E+02               0
GRID*             150200               0-1.250000000E+005.7702573748E+01+
*       -3.277215180E+02               0
GRID*             150201               0-1.250000000E+005.4655596275E+01+
*       -3.277080309E+02               0
GRID*             150202               0-1.250000000E+005.1614058333E+01+
*       -3.277005235E+02               0
GRID*             150203               0-1.250000000E+004.8577209542E+01+
*       -3.276992983E+02               0
GRID*             150204               0-1.250000000E+004.5544721331E+01+
*       -3.277043729E+02               0
GRID*             150205               0-1.250000000E+004.2516577859E+01+
*       -3.277154719E+02               0
GRID*             150206               0-1.250000000E+003.9492946149E+01+
*       -3.277317093E+02               0
GRID*             150207               0-1.250000000E+003.6473897822E+01+
*       -3.277506722E+02               0
GRID*             150208               0-1.250000000E+003.3458455628E+01+
*       -3.277660744E+02               0
GRID*             150209               0-1.250000000E+003.0440013815E+01+
*       -3.277616425E+02               0
GRID*             150210               0-1.250000000E+002.7380405665E+01+
*       -3.276931540E+02               0
GRID*             150211               0-1.250000000E+002.4036308373E+01+
*       -3.274092156E+02               0
GRID*             150212               0-1.250000000E+002.1067360884E+01+
*       -3.278557625E+02               0
GRID*             150213               0-1.250000000E+001.8100142531E+01+
*       -3.274808085E+02               0
GRID*             150214               0-1.250000000E+001.5128209877E+01+
*       -3.277685793E+02               0
GRID*             150215               0-1.250000000E+001.2259855679E+01+
*       -3.269722755E+02               0
GRID*             150216               0-1.250000000E+001.1684460766E+01+
*       -3.240287825E+02               0
GRID*             150217               0-1.250000000E+001.0843143070E+01+
*       -3.212693138E+02               0
GRID*             150218               0-1.250000000E+001.1100883680E+01+
*       -3.183331323E+02               0
GRID*             150219               0-1.250000000E+001.0873813935E+01+
*       -3.153658649E+02               0
GRID*             150220               0-1.250000000E+001.1821844836E+01+
*       -3.126573111E+02               0
GRID*             150221               0-1.250000000E+001.1904883870E+01+
*       -3.093423024E+02               0
GRID*             150222               0-1.250000000E+001.1973431930E+01+
*       -3.062561776E+02               0
GRID*             150223               0-1.250000000E+001.2023142429E+01+
*       -3.032239560E+02               0
GRID*             150224               0-1.250000000E+001.2051541990E+01+
*       -3.002108255E+02               0
GRID*             150225               0-1.250000000E+001.2064180146E+01+
*       -2.972116400E+02               0
GRID*             150226               0-1.250000000E+001.2067091022E+01+
*       -2.942236260E+02               0
GRID*             150227               0-1.250000000E+001.2064788636E+01+
*       -2.912438864E+02               0
GRID*             150228               0-1.250000000E+001.2060068870E+01+
*       -2.882697412E+02               0
GRID*             150229               0-1.250000000E+001.2054426199E+01+
*       -2.852990970E+02               0
GRID*             150230               0-1.250000000E+001.2048527017E+01+
*       -2.823305212E+02               0
GRID*             150231               0-1.250000000E+001.2042581620E+01+
*       -2.793631298E+02               0
GRID*             150232               0-1.250000000E+001.2036576841E+01+
*       -2.763964502E+02               0
GRID*             150233               0-1.250000000E+001.2031450942E+01+
*       -2.734285522E+02               0
GRID*             150234               0-1.250000000E+001.2026603495E+01+
*       -2.704600851E+02               0
GRID*             150235               0-1.250000000E+001.2021909151E+01+
*       -2.674910422E+02               0
GRID*             150236               0-1.250000000E+001.2017340946E+01+
*       -2.645213155E+02               0
GRID*             150237               0-1.250000000E+001.2012899016E+01+
*       -2.615507373E+02               0
GRID*             150238               0-1.250000000E+001.2008589079E+01+
*       -2.585790165E+02               0
GRID*             150239               0-1.250000000E+001.2004392917E+01+
*       -2.556056378E+02               0
GRID*             150240               0-1.250000000E+001.2000208750E+01+
*       -2.526297197E+02               0
GRID*             150241               0-1.250000000E+001.1995730911E+01+
*       -2.496498254E+02               0
GRID*             150242               0-1.250000000E+001.1990132975E+01+
*       -2.466636354E+02               0
GRID*             150243               0-1.250000000E+001.1981330737E+01+
*       -2.436673062E+02               0
GRID*             150244               0-1.250000000E+001.1964941051E+01+
*       -2.406548488E+02               0
GRID*             150245               0-1.250000000E+001.1932798041E+01+
*       -2.376188508E+02               0
GRID*             150246               0-1.250000000E+001.1869129826E+01+
*       -2.345557494E+02               0
GRID*             150247               0-1.250000000E+001.1743456659E+01+
*       -2.314868438E+02               0
GRID*             150248               0-1.250000000E+001.1519879546E+01+
*       -2.285335380E+02               0
GRID*             150249               0-1.250000000E+001.1474040438E+01+
*       -2.257196665E+02               0
GRID*             150250               0-1.250000000E+001.3544184190E+01+
*       -2.254814163E+02               0
GRID*             150251               0-1.250000000E+001.5431882284E+01+
*       -2.252236228E+02               0
GRID*             150252               0-1.250000000E+001.7291793986E+01+
*       -2.249641889E+02               0
GRID*             150253               0-1.250000000E+001.7058004644E+01+
*       -2.231186349E+02               0
GRID*             150254               0-1.250000000E+001.6845242746E+01+
*       -2.214458295E+02               0
GRID*             150255               0-1.250000000E+001.6666561919E+01+
*       -2.199303075E+02               0
GRID*             150256               0-1.250000000E+001.6910991088E+01+
*       -2.183623644E+02               0
GRID*             150257               0-1.250000000E+001.7279304977E+01+
*       -2.164445195E+02               0
GRID*             150258               0-1.250000000E+001.7794342192E+01+
*       -2.138695688E+02               0
GRID*             150259               0-1.250000000E+001.5553161571E+01+
*       -2.139673878E+02               0
GRID*             150260               0-1.250000000E+001.3495960148E+01+
*       -2.140007523E+02               0
GRID*             150261               0-1.250000000E+001.1399405923E+01+
*       -2.139947452E+02               0
GRID*             150262               0-1.250000000E+001.1333974555E+01+
*       -2.110034981E+02               0
GRID*             150263               0-1.250000000E+001.1375721711E+01+
*       -2.080067386E+02               0
GRID*             150264               0-1.250000000E+001.1436714806E+01+
*       -2.049992666E+02               0
GRID*             150265               0-1.250000000E+001.1497201553E+01+
*       -2.019845749E+02               0
GRID*             150266               0-1.250000000E+001.1553480204E+01+
*       -1.989669777E+02               0
GRID*             150267               0-1.250000000E+001.1606135288E+01+
*       -1.959486565E+02               0
GRID*             150268               0-1.250000000E+001.1656662909E+01+
*       -1.929295493E+02               0
GRID*             150269               0-1.250000000E+001.1706022515E+01+
*       -1.899080941E+02               0
GRID*             150270               0-1.250000000E+001.1753907688E+01+
*       -1.868822121E+02               0
GRID*             150271               0-1.250000000E+001.1798825558E+01+
*       -1.838503819E+02               0
GRID*             150272               0-1.250000000E+001.1838929410E+01+
*       -1.808124273E+02               0
GRID*             150273               0-1.250000000E+001.1873056836E+01+
*       -1.777694318E+02               0
GRID*             150274               0-1.250000000E+001.1900896034E+01+
*       -1.747230174E+02               0
GRID*             150275               0-1.250000000E+001.1922812430E+01+
*       -1.716747942E+02               0
GRID*             150276               0-1.250000000E+001.1939647551E+01+
*       -1.686260615E+02               0
GRID*             150277               0-1.250000000E+001.1952461320E+01+
*       -1.655776502E+02               0
GRID*             150278               0-1.250000000E+001.1962292134E+01+
*       -1.625298797E+02               0
GRID*             150279               0-1.250000000E+001.1969994315E+01+
*       -1.594825819E+02               0
GRID*             150280               0-1.250000000E+001.1976153838E+01+
*       -1.564351290E+02               0
GRID*             150281               0-1.250000000E+001.1981043714E+01+
*       -1.533864042E+02               0
GRID*             150282               0-1.250000000E+001.1984560612E+01+
*       -1.503346849E+02               0
GRID*             150283               0-1.250000000E+001.1985972479E+01+
*       -1.472773234E+02               0
GRID*             150284               0-1.250000000E+001.1983175143E+01+
*       -1.442099727E+02               0
GRID*             150285               0-1.250000000E+001.1971512076E+01+
*       -1.411256816E+02               0
GRID*             150286               0-1.250000000E+001.1942082830E+01+
*       -1.380153484E+02               0
GRID*             150287               0-1.250000000E+001.1877652525E+01+
*       -1.348731682E+02               0
GRID*             150288               0-1.250000000E+001.1745222305E+01+
*       -1.317201358E+02               0
GRID*             150289               0-1.250000000E+001.1508733005E+01+
*       -1.286858568E+02               0
GRID*             150290               0-1.250000000E+001.1460379035E+01+
*       -1.257985087E+02               0
GRID*             150291               0-1.250000000E+001.3531632304E+01+
*       -1.255795678E+02               0
GRID*             150292               0-1.250000000E+001.5429983531E+01+
*       -1.253529280E+02               0
GRID*             150293               0-1.250000000E+001.7313018881E+01+
*       -1.251517843E+02               0
GRID*             150294               0-1.250000000E+001.7077145941E+01+
*       -1.232352842E+02               0
GRID*             150295               0-1.250000000E+001.6859335260E+01+
*       -1.215278073E+02               0
GRID*             150296               0-1.250000000E+001.6690404202E+01+
*       -1.199972245E+02               0
GRID*             150297               0-1.250000000E+001.6949911766E+01+
*       -1.184380707E+02               0
GRID*             150298               0-1.250000000E+001.7329888841E+01+
*       -1.165628151E+02               0
GRID*             150299               0-1.250000000E+001.7865277728E+01+
*       -1.141025774E+02               0
GRID*             150300               0-1.250000000E+001.5594884505E+01+
*       -1.141260577E+02               0
GRID*             150301               0-1.250000000E+001.3528523010E+01+
*       -1.141155804E+02               0
GRID*             150302               0-1.250000000E+001.1422462441E+01+
*       -1.140805381E+02               0
GRID*             150303               0-1.250000000E+001.1363439825E+01+
*       -1.111625722E+02               0
GRID*             150304               0-1.250000000E+001.1413073597E+01+
*       -1.082340502E+02               0
GRID*             150305               0-1.250000000E+001.1483889657E+01+
*       -1.052917809E+02               0
GRID*             150306               0-1.250000000E+001.1555378960E+01+
*       -1.023393785E+02               0
GRID*             150307               0-1.250000000E+001.1623058685E+01+
*       -9.938070382E+01               0
GRID*             150308               0-1.250000000E+001.1686490886E+01+
*       -9.641754050E+01               0
GRID*             150309               0-1.250000000E+001.1745733080E+01+
*       -9.344984094E+01               0
GRID*             150310               0-1.250000000E+001.1800092365E+01+
*       -9.047681497E+01               0
GRID*             150311               0-1.250000000E+001.1848136710E+01+
*       -8.749812894E+01               0
GRID*             150312               0-1.250000000E+001.1888477238E+01+
*       -8.451461931E+01               0
GRID*             150313               0-1.250000000E+001.1920644766E+01+
*       -8.152806155E+01               0
GRID*             150314               0-1.250000000E+001.1945127436E+01+
*       -7.854035665E+01               0
GRID*             150315               0-1.250000000E+001.1962969825E+01+
*       -7.555297084E+01               0
GRID*             150316               0-1.250000000E+001.1975368176E+01+
*       -7.256678031E+01               0
GRID*             150317               0-1.250000000E+001.1983417280E+01+
*       -6.958209562E+01               0
GRID*             150318               0-1.250000000E+001.1988132695E+01+
*       -6.660042227E+01               0
GRID*             150319               0-1.250000000E+001.1990429903E+01+
*       -6.362282754E+01               0
GRID*             150320               0-1.250000000E+001.1990717966E+01+
*       -6.064733165E+01               0
GRID*             150321               0-1.250000000E+001.1989407740E+01+
*       -5.767404747E+01               0
GRID*             150322               0-1.250000000E+001.1986728477E+01+
*       -5.470253546E+01               0
GRID*             150323               0-1.250000000E+001.1982781185E+01+
*       -5.173182485E+01               0
GRID*             150324               0-1.250000000E+001.1977369615E+01+
*       -4.875992001E+01               0
GRID*             150325               0-1.250000000E+001.1969591897E+01+
*       -4.578287044E+01               0
GRID*             150326               0-1.250000000E+001.1957406761E+01+
*       -4.279297482E+01               0
GRID*             150327               0-1.250000000E+001.1936907186E+01+
*       -3.977497022E+01               0
GRID*             150328               0-1.250000000E+001.1895191869E+01+
*       -3.670037797E+01               0
GRID*             150329               0-1.250000000E+001.1794579383E+01+
*       -3.353449697E+01               0
GRID*             150330               0-1.250000000E+001.1456477169E+01+
*       -3.046095203E+01               0
GRID*             150331               0-1.250000000E+001.1412144747E+01+
*       -2.750685242E+01               0
GRID*             150332               0-1.250000000E+001.1692109766E+01+
*       -2.477649877E+01               0
GRID*             150333               0-1.250000000E+001.1791294098E+01+
*       -2.178811126E+01               0
GRID*             150334               0-1.250000000E+001.1835986713E+01+
*       -1.877155845E+01               0
GRID*             150335               0-1.250000000E+001.1307751025E+01+
*       -1.604518724E+01               0
GRID*             150336               0-1.250000000E+001.2377171765E+01+
*       -1.337841033E+01               0
GRID*             150337               0-1.250000000E+001.5478412583E+01+
*       -1.262218878E+01               0
GRID*             150338               0-1.250000000E+001.8218444890E+01+
*       -1.249944493E+01               0
GRID*             150339               0-1.250000000E+002.0970863220E+01+
*       -1.266925450E+01               0
GRID*             150340               0-1.250000000E+002.3821754857E+01+
*       -1.265399922E+01               0
GRID*             150341               0-1.250000000E+002.6834861375E+01+
*       -1.260178686E+01               0
GRID*             150342               0-1.250000000E+002.9909214156E+01+
*       -1.259901155E+01               0
GRID*             150343               0-1.250000000E+003.3008762036E+01+
*       -1.260974522E+01               0
GRID*             150344               0-1.250000000E+003.6105133702E+01+
*       -1.262304328E+01               0
GRID*             150345               0-1.250000000E+003.9189833028E+01+
*       -1.263487525E+01               0
GRID*             150346               0-1.250000000E+004.2262685591E+01+
*       -1.264390276E+01               0
GRID*             150347               0-1.250000000E+004.5325891307E+01+
*       -1.264977859E+01               0
GRID*             150348               0-1.250000000E+004.8381859279E+01+
*       -1.265266293E+01               0
GRID*             150349               0-1.250000000E+005.1432734798E+01+
*       -1.265311476E+01               0
GRID*             150350               0-1.250000000E+005.4480507229E+01+
*       -1.265187640E+01               0
GRID*             150351               0-1.250000000E+005.7527304392E+01+
*       -1.264923002E+01               0
GRID*             150352               0-1.250000000E+006.0576449547E+01+
*       -1.264581926E+01               0
GRID*             150353               0-1.250000000E+006.3633990072E+01+
*       -1.264279294E+01               0
GRID*             150354               0-1.250000000E+006.6711764351E+01+
*       -1.264145066E+01               0
GRID*             150355               0-1.250000000E+006.9833136367E+01+
*       -1.264099896E+01               0
GRID*             150356               0-1.250000000E+007.3030504643E+01+
*       -1.262313630E+01               0
GRID*             150357               0-1.250000000E+007.6091938097E+01+
*       -1.238501002E+01               0
GRID*             150358               0-1.250000000E+007.8982853480E+01+
*       -1.234182097E+01               0
GRID*             150359               0-1.250000000E+008.1929304764E+01+
*       -1.250192359E+01               0
GRID*             150360               0-1.250000000E+008.4901447258E+01+
*       -1.253511480E+01               0
GRID*             150361               0-1.250000000E+008.7668614687E+01+
*       -3.235772769E+02               0
GRID*             150362               0-1.250000000E+008.0406226168E+01+
*       -3.259834985E+02               0
GRID*             150363               0-1.250000000E+008.1948345665E+01+
*       -3.259948893E+02               0
GRID*             150364               0-1.250000000E+008.3500087579E+01+
*       -3.258614719E+02               0
GRID*             150365               0-1.250000000E+001.9275025156E+01+
*       -3.259141516E+02               0
GRID*             150366               0-1.250000000E+002.1006653244E+01+
*       -3.260757423E+02               0
GRID*             150367               0-1.250000000E+002.2623652182E+01+
*       -3.260387289E+02               0
GRID*             150368               0-1.250000000E+002.4791622817E+01+
*       -3.252355088E+02               0
GRID*             150369               0-1.250000000E+002.7676044861E+01+
*       -3.255220273E+02               0
GRID*             150370               0-1.250000000E+003.0640205573E+01+
*       -3.255888354E+02               0
GRID*             150371               0-1.250000000E+003.3621080513E+01+
*       -3.255745393E+02               0
GRID*             150372               0-1.250000000E+003.6612769654E+01+
*       -3.255353551E+02               0
GRID*             150373               0-1.250000000E+003.9614381951E+01+
*       -3.254941381E+02               0
GRID*             150374               0-1.250000000E+004.2625289920E+01+
*       -3.254602157E+02               0
GRID*             150375               0-1.250000000E+004.5644916162E+01+
*       -3.254373167E+02               0
GRID*             150376               0-1.250000000E+004.8672910855E+01+
*       -3.254268653E+02               0
GRID*             150377               0-1.250000000E+005.1709334125E+01+
*       -3.254293473E+02               0
GRID*             150378               0-1.250000000E+005.4754815800E+01+
*       -3.254448161E+02               0
GRID*             150379               0-1.250000000E+005.7810729098E+01+
*       -3.254729242E+02               0
GRID*             150380               0-1.250000000E+006.0879511425E+01+
*       -3.255123748E+02               0
GRID*             150381               0-1.250000000E+006.3965617313E+01+
*       -3.255588707E+02               0
GRID*             150382               0-1.250000000E+006.7078599913E+01+
*       -3.255990344E+02               0
GRID*             150383               0-1.250000000E+007.0243416592E+01+
*       -3.255937151E+02               0
GRID*             150384               0-1.250000000E+007.3542056903E+01+
*       -3.254197086E+02               0
GRID*             150385               0-1.250000000E+002.7912989210E+01+
*       -3.234913496E+02               0
GRID*             150386               0-1.250000000E+002.8095723749E+01+
*       -3.215409578E+02               0
GRID*             150387               0-1.250000000E+002.5273784790E+01+
*       -3.215719856E+02               0
GRID*             150388               0-1.250000000E+002.5103255524E+01+
*       -3.233515934E+02               0
GRID*             150389               0-1.250000000E+003.0826193419E+01+
*       -3.234901096E+02               0
GRID*             150390               0-1.250000000E+003.0990120271E+01+
*       -3.214421654E+02               0
GRID*             150391               0-1.250000000E+003.3776306236E+01+
*       -3.234306714E+02               0
GRID*             150392               0-1.250000000E+003.3919089000E+01+
*       -3.213215688E+02               0
GRID*             150393               0-1.250000000E+003.6746383781E+01+
*       -3.233568837E+02               0
GRID*             150394               0-1.250000000E+003.6870852273E+01+
*       -3.212056722E+02               0
GRID*             150395               0-1.250000000E+003.9731802251E+01+
*       -3.232888395E+02               0
GRID*             150396               0-1.250000000E+003.9841656101E+01+
*       -3.211073982E+02               0
GRID*             150397               0-1.250000000E+004.2730770870E+01+
*       -3.232352451E+02               0
GRID*             150398               0-1.250000000E+004.2829620920E+01+
*       -3.210325836E+02               0
GRID*             150399               0-1.250000000E+004.5742256471E+01+
*       -3.231996919E+02               0
GRID*             150400               0-1.250000000E+004.5833416282E+01+
*       -3.209836621E+02               0
GRID*             150401               0-1.250000000E+004.8765701414E+01+
*       -3.231835877E+02               0
GRID*             150402               0-1.250000000E+004.8852211443E+01+
*       -3.209615955E+02               0
GRID*             150403               0-1.250000000E+005.1801124906E+01+
*       -3.231874756E+02               0
GRID*             150404               0-1.250000000E+005.1885840177E+01+
*       -3.209668547E+02               0
GRID*             150405               0-1.250000000E+005.4849284870E+01+
*       -3.232115616E+02               0
GRID*             150406               0-1.250000000E+005.4934961056E+01+
*       -3.209998668E+02               0
GRID*             150407               0-1.250000000E+005.7911871699E+01+
*       -3.232557601E+02               0
GRID*             150408               0-1.250000000E+005.8001220267E+01+
*       -3.210610877E+02               0
GRID*             150409               0-1.250000000E+006.0991883112E+01+
*       -3.233190680E+02               0
GRID*             150410               0-1.250000000E+006.1087569672E+01+
*       -3.211504852E+02               0
GRID*             150411               0-1.250000000E+006.4094756740E+01+
*       -3.233972053E+02               0
GRID*             150412               0-1.250000000E+006.4199364855E+01+
*       -3.212656524E+02               0
GRID*             150413               0-1.250000000E+006.7232045237E+01+
*       -3.234762197E+02               0
GRID*             150414               0-1.250000000E+006.7347912638E+01+
*       -3.213972847E+02               0
GRID*             150415               0-1.250000000E+007.0432120991E+01+
*       -3.235174750E+02               0
GRID*             150416               0-1.250000000E+007.0558883239E+01+
*       -3.215203134E+02               0
GRID*             150417               0-1.250000000E+007.3768965604E+01+
*       -3.234222832E+02               0
GRID*             150418               0-1.250000000E+007.3885822476E+01+
*       -3.215797835E+02               0
GRID*             150419               0-1.250000000E+002.8246002255E+01+
*       -3.196179879E+02               0
GRID*             150420               0-1.250000000E+002.5391455363E+01+
*       -3.198240117E+02               0
GRID*             150421               0-1.250000000E+003.1134566518E+01+
*       -3.194128544E+02               0
GRID*             150422               0-1.250000000E+003.4047218751E+01+
*       -3.192258470E+02               0
GRID*             150423               0-1.250000000E+003.6982728619E+01+
*       -3.190652590E+02               0
GRID*             150424               0-1.250000000E+003.9940274283E+01+
*       -3.189355537E+02               0
GRID*             150425               0-1.250000000E+004.2918256604E+01+
*       -3.188389615E+02               0
GRID*             150426               0-1.250000000E+004.5914945621E+01+
*       -3.187763643E+02               0
GRID*             150427               0-1.250000000E+004.8929060583E+01+
*       -3.187480727E+02               0
GRID*             150428               0-1.250000000E+005.1960059792E+01+
*       -3.187544037E+02               0
GRID*             150429               0-1.250000000E+005.5008265910E+01+
*       -3.187960285E+02               0
GRID*             150430               0-1.250000000E+005.8074940165E+01+
*       -3.188740948E+02               0
GRID*             150431               0-1.250000000E+006.1162496762E+01+
*       -3.189899959E+02               0
GRID*             150432               0-1.250000000E+006.4275558654E+01+
*       -3.191445106E+02               0
GRID*             150433               0-1.250000000E+006.7424370174E+01+
*       -3.193361085E+02               0
GRID*             150434               0-1.250000000E+007.0631810989E+01+
*       -3.195580363E+02               0
GRID*             150435               0-1.250000000E+007.3941349750E+01+
*       -3.197923275E+02               0
GRID*             150436               0-1.250000000E+002.8382806687E+01+
*       -3.176744914E+02               0
GRID*             150437               0-1.250000000E+002.5496448453E+01+
*       -3.180564543E+02               0
GRID*             150438               0-1.250000000E+003.1263649648E+01+
*       -3.173690046E+02               0
GRID*             150439               0-1.250000000E+003.4158906516E+01+
*       -3.171200517E+02               0
GRID*             150440               0-1.250000000E+003.7078540036E+01+
*       -3.169170890E+02               0
GRID*             150441               0-1.250000000E+004.0024006465E+01+
*       -3.167571109E+02               0
GRID*             150442               0-1.250000000E+004.2993264734E+01+
*       -3.166393382E+02               0
GRID*             150443               0-1.250000000E+004.5983712807E+01+
*       -3.165632795E+02               0
GRID*             150444               0-1.250000000E+004.8993342751E+01+
*       -3.165285921E+02               0
GRID*             150445               0-1.250000000E+005.2021043680E+01+
*       -3.165353894E+02               0
GRID*             150446               0-1.250000000E+005.5066605400E+01+
*       -3.165845352E+02               0
GRID*             150447               0-1.250000000E+005.8130655187E+01+
*       -3.166778477E+02               0
GRID*             150448               0-1.250000000E+006.1214775313E+01+
*       -3.168182592E+02               0
GRID*             150449               0-1.250000000E+006.4322557352E+01+
*       -3.170102038E+02               0
GRID*             150450               0-1.250000000E+006.7463031791E+01+
*       -3.172610149E+02               0
GRID*             150451               0-1.250000000E+007.0657859811E+01+
*       -3.175841018E+02               0
GRID*             150452               0-1.250000000E+007.3951658075E+01+
*       -3.180000550E+02               0
GRID*             150453               0-1.250000000E+002.8520870757E+01+
*       -3.156607922E+02               0
GRID*             150454               0-1.250000000E+002.5621600753E+01+
*       -3.162031058E+02               0
GRID*             150455               0-1.250000000E+003.1378432276E+01+
*       -3.152801324E+02               0
GRID*             150456               0-1.250000000E+003.4250657591E+01+
*       -3.149827382E+02               0
GRID*             150457               0-1.250000000E+003.7154187242E+01+
*       -3.147436501E+02               0
GRID*             150458               0-1.250000000E+004.0089241044E+01+
*       -3.145564834E+02               0
GRID*             150459               0-1.250000000E+004.3051630734E+01+
*       -3.144191749E+02               0
GRID*             150460               0-1.250000000E+004.6037189291E+01+
*       -3.143304049E+02               0
GRID*             150461               0-1.250000000E+004.9042916115E+01+
*       -3.142892815E+02               0
GRID*             150462               0-1.250000000E+005.2067007226E+01+
*       -3.142956628E+02               0
GRID*             150463               0-1.250000000E+005.5108617886E+01+
*       -3.143504768E+02               0
GRID*             150464               0-1.250000000E+005.8167631220E+01+
*       -3.144560194E+02               0
GRID*             150465               0-1.250000000E+006.1244682255E+01+
*       -3.146164774E+02               0
GRID*             150466               0-1.250000000E+006.4342128697E+01+
*       -3.148393960E+02               0
GRID*             150467               0-1.250000000E+006.7467269150E+01+
*       -3.151397819E+02               0
GRID*             150468               0-1.250000000E+007.0640198030E+01+
*       -3.155501641E+02               0
GRID*             150469               0-1.250000000E+007.3914272689E+01+
*       -3.161414988E+02               0
GRID*             150470               0-1.250000000E+002.5825491324E+01+
*       -3.141302095E+02               0
GRID*             150471               0-1.250000000E+002.8669493726E+01+
*       -3.135390899E+02               0
GRID*             150472               0-1.250000000E+003.1476105578E+01+
*       -3.131344196E+02               0
GRID*             150473               0-1.250000000E+003.4319452147E+01+
*       -3.128058639E+02               0
GRID*             150474               0-1.250000000E+003.7208586138E+01+
*       -3.125367577E+02               0
GRID*             150475               0-1.250000000E+004.0136462811E+01+
*       -3.123253579E+02               0
GRID*             150476               0-1.250000000E+004.3094757691E+01+
*       -3.121704158E+02               0
GRID*             150477               0-1.250000000E+004.6077311023E+01+
*       -3.120701203E+02               0
GRID*             150478               0-1.250000000E+004.9080180429E+01+
*       -3.120229692E+02               0
GRID*             150479               0-1.250000000E+005.2101010726E+01+
*       -3.120284477E+02               0
GRID*             150480               0-1.250000000E+005.5138460247E+01+
*       -3.120874007E+02               0
GRID*             150481               0-1.250000000E+005.8191779347E+01+
*       -3.122023394E+02               0
GRID*             150482               0-1.250000000E+006.1260601214E+01+
*       -3.123780457E+02               0
GRID*             150483               0-1.250000000E+006.4345423287E+01+
*       -3.126233419E+02               0
GRID*             150484               0-1.250000000E+006.7449868037E+01+
*       -3.129561996E+02               0
GRID*             150485               0-1.250000000E+007.0587019016E+01+
*       -3.134176990E+02               0
GRID*             150486               0-1.250000000E+007.3805146373E+01+
*       -3.141178143E+02               0
GRID*             150487               0-1.250000000E+001.6919748119E+01+
*       -3.259031766E+02               0
GRID*             150488               0-1.250000000E+001.5186860438E+01+
*       -3.260377912E+02               0
GRID*             150489               0-1.250000000E+001.3586019756E+01+
*       -3.259714343E+02               0
GRID*             150490               0-1.250000000E+001.2391443032E+01+
*       -3.172988219E+02               0
GRID*             150491               0-1.250000000E+001.2338214195E+01+
*       -3.155167982E+02               0
GRID*             150492               0-1.250000000E+001.2484394333E+01+
*       -3.229267343E+02               0
GRID*             150493               0-1.250000000E+001.2316214862E+01+
*       -3.213736984E+02               0
GRID*             150494               0-1.250000000E+001.2376601396E+01+
*       -3.196035185E+02               0
GRID*             150495               0-1.250000000E+007.2600247797E+01+
*       -2.249150227E+02               0
GRID*             150496               0-1.250000000E+006.9794412150E+01+
*       -2.247535402E+02               0
GRID*             150497               0-1.250000000E+006.9487731471E+01+
*       -2.275295417E+02               0
GRID*             150498               0-1.250000000E+007.2336993590E+01+
*       -2.277234731E+02               0
GRID*             150499               0-1.250000000E+006.7037325731E+01+
*       -2.244749350E+02               0
GRID*             150500               0-1.250000000E+006.6637622323E+01+
*       -2.272562046E+02               0
GRID*             150501               0-1.250000000E+006.4255149998E+01+
*       -2.240020026E+02               0
GRID*             150502               0-1.250000000E+006.3743821350E+01+
*       -2.268870316E+02               0
GRID*             150503               0-1.250000000E+006.1246068728E+01+
*       -2.232692887E+02               0
GRID*             150504               0-1.250000000E+006.0737223587E+01+
*       -2.264602110E+02               0
GRID*             150505               0-1.250000000E+005.7933760859E+01+
*       -2.229659775E+02               0
GRID*             150506               0-1.250000000E+005.7617211963E+01+
*       -2.261632710E+02               0
GRID*             150507               0-1.250000000E+005.4695548421E+01+
*       -2.228258139E+02               0
GRID*             150508               0-1.250000000E+005.4492506707E+01+
*       -2.259698994E+02               0
GRID*             150509               0-1.250000000E+008.0923218285E+01+
*       -2.254063172E+02               0
GRID*             150510               0-1.250000000E+007.8368877769E+01+
*       -2.250988881E+02               0
GRID*             150511               0-1.250000000E+007.8030199489E+01+
*       -2.279818773E+02               0
GRID*             150512               0-1.250000000E+008.0780293945E+01+
*       -2.280919220E+02               0
GRID*             150513               0-1.250000000E+007.5470923962E+01+
*       -2.250098563E+02               0
GRID*             150514               0-1.250000000E+007.5193492695E+01+
*       -2.278647196E+02               0
GRID*             150515               0-1.250000000E+008.7610816546E+01+
*       -2.268373568E+02               0
GRID*             150516               0-1.250000000E+008.6196113754E+01+
*       -2.267497755E+02               0
GRID*             150517               0-1.250000000E+008.6055179915E+01+
*       -2.286259316E+02               0
GRID*             150518               0-1.250000000E+008.3575843684E+01+
*       -2.279834225E+02               0
GRID*             150519               0-1.250000000E+008.4746683007E+01+
*       -2.266553628E+02               0
GRID*             150520               0-1.250000000E+005.1547865171E+01+
*       -2.227518990E+02               0
GRID*             150521               0-1.250000000E+005.1401741383E+01+
*       -2.258416039E+02               0
GRID*             150522               0-1.250000000E+004.8466857234E+01+
*       -2.227095312E+02               0
GRID*             150523               0-1.250000000E+004.8349183476E+01+
*       -2.257537602E+02               0
GRID*             150524               0-1.250000000E+004.5432346315E+01+
*       -2.226844488E+02               0
GRID*             150525               0-1.250000000E+004.5328440469E+01+
*       -2.256919837E+02               0
GRID*             150526               0-1.250000000E+004.2430033492E+01+
*       -2.226692411E+02               0
GRID*             150527               0-1.250000000E+004.2331059668E+01+
*       -2.256469671E+02               0
GRID*             150528               0-1.250000000E+003.9449265599E+01+
*       -2.226588679E+02               0
GRID*             150529               0-1.250000000E+003.9349042257E+01+
*       -2.256115524E+02               0
GRID*             150530               0-1.250000000E+003.6481328716E+01+
*       -2.226491934E+02               0
GRID*             150531               0-1.250000000E+003.6375560864E+01+
*       -2.255793549E+02               0
GRID*             150532               0-1.250000000E+003.3518517815E+01+
*       -2.226366925E+02               0
GRID*             150533               0-1.250000000E+003.3405598150E+01+
*       -2.255440882E+02               0
GRID*             150534               0-1.250000000E+003.0553844360E+01+
*       -2.226190531E+02               0
GRID*             150535               0-1.250000000E+003.0437709872E+01+
*       -2.254991639E+02               0
GRID*             150536               0-1.250000000E+002.7582256811E+01+
*       -2.225978658E+02               0
GRID*             150537               0-1.250000000E+002.7479124129E+01+
*       -2.254376899E+02               0
GRID*             150538               0-1.250000000E+002.4599305226E+01+
*       -2.225899926E+02               0
GRID*             150539               0-1.250000000E+002.4559344084E+01+
*       -2.253540503E+02               0
GRID*             150540               0-1.250000000E+002.1656305633E+01+
*       -2.226620982E+02               0
GRID*             150541               0-1.250000000E+002.1769480685E+01+
*       -2.252488707E+02               0
GRID*             150542               0-1.250000000E+001.9142723357E+01+
*       -2.230291534E+02               0
GRID*             150543               0-1.250000000E+001.9310796168E+01+
*       -2.251381534E+02               0
GRID*             150544               0-1.250000000E+002.1201170119E+01+
*       -3.062340273E+02               0
GRID*             150545               0-1.250000000E+002.1370827981E+01+
*       -3.029234378E+02               0
GRID*             150546               0-1.250000000E+001.8167493750E+01+
*       -3.030801325E+02               0
GRID*             150547               0-1.250000000E+001.7996066667E+01+
*       -3.062007959E+02               0
GRID*             150548               0-1.250000000E+002.0610983802E+01+
*       -3.098000594E+02               0
GRID*             150549               0-1.250000000E+001.7673448492E+01+
*       -3.092253762E+02               0
GRID*             150550               0-1.250000000E+002.1203574280E+01+
*       -3.128225382E+02               0
GRID*             150551               0-1.250000000E+001.9442537843E+01+
*       -3.133907202E+02               0
GRID*             150552               0-1.250000000E+001.7763983847E+01+
*       -3.136452817E+02               0
GRID*             150553               0-1.250000000E+001.9198972705E+01+
*       -3.115303859E+02               0
GRID*             150554               0-1.250000000E+001.7304418598E+01+
*       -3.116758877E+02               0
GRID*             150555               0-1.250000000E+001.5069162258E+01+
*       -3.031692846E+02               0
GRID*             150556               0-1.250000000E+001.4962876224E+01+
*       -3.062314480E+02               0
GRID*             150557               0-1.250000000E+001.2575075129E+01+
*       -3.139949074E+02               0
GRID*             150558               0-1.250000000E+001.6149428199E+01+
*       -3.139861830E+02               0
GRID*             150559               0-1.250000000E+001.5089661512E+01+
*       -3.145631470E+02               0
GRID*             150560               0-1.250000000E+001.4815752270E+01+
*       -3.092961058E+02               0
GRID*             150561               0-1.250000000E+001.4740919942E+01+
*       -3.124153995E+02               0
GRID*             150562               0-1.250000000E+002.4690392890E+01+
*       -3.025395469E+02               0
GRID*             150563               0-1.250000000E+002.4834659761E+01+
*       -3.059360164E+02               0
GRID*             150564               0-1.250000000E+002.8178146392E+01+
*       -3.045626867E+02               0
GRID*             150565               0-1.250000000E+002.7914243424E+01+
*       -3.018415195E+02               0
GRID*             150566               0-1.250000000E+003.1174258268E+01+
*       -3.039097313E+02               0
GRID*             150567               0-1.250000000E+003.0987982117E+01+
*       -3.013113225E+02               0
GRID*             150568               0-1.250000000E+003.4130974556E+01+
*       -3.034592509E+02               0
GRID*             150569               0-1.250000000E+003.4006066535E+01+
*       -3.009015983E+02               0
GRID*             150570               0-1.250000000E+003.7094248562E+01+
*       -3.031203320E+02               0
GRID*             150571               0-1.250000000E+003.7007679821E+01+
*       -3.005821615E+02               0
GRID*             150572               0-1.250000000E+004.0070314707E+01+
*       -3.028639379E+02               0
GRID*             150573               0-1.250000000E+004.0007538283E+01+
*       -3.003366164E+02               0
GRID*             150574               0-1.250000000E+004.3058732342E+01+
*       -3.026774815E+02               0
GRID*             150575               0-1.250000000E+004.3010980848E+01+
*       -3.001559971E+02               0
GRID*             150576               0-1.250000000E+004.6058146992E+01+
*       -3.025542331E+02               0
GRID*             150577               0-1.250000000E+004.6019792731E+01+
*       -3.000350457E+02               0
GRID*             150578               0-1.250000000E+004.9067236824E+01+
*       -3.024903130E+02               0
GRID*             150579               0-1.250000000E+004.9034314406E+01+
*       -2.999705581E+02               0
GRID*             150580               0-1.250000000E+005.2084736779E+01+
*       -3.024836377E+02               0
GRID*             150581               0-1.250000000E+005.2054173518E+01+
*       -2.999606473E+02               0
GRID*             150582               0-1.250000000E+005.5109293980E+01+
*       -3.025334478E+02               0
GRID*             150583               0-1.250000000E+005.5078511821E+01+
*       -3.000043589E+02               0
GRID*             150584               0-1.250000000E+005.8139285215E+01+
*       -3.026400114E+02               0
GRID*             150585               0-1.250000000E+005.8106020679E+01+
*       -3.001013885E+02               0
GRID*             150586               0-1.250000000E+006.1172617101E+01+
*       -3.028043362E+02               0
GRID*             150587               0-1.250000000E+006.1134877025E+01+
*       -3.002517526E+02               0
GRID*             150588               0-1.250000000E+006.4206685050E+01+
*       -3.030279547E+02               0
GRID*             150589               0-1.250000000E+006.4162704064E+01+
*       -3.004553332E+02               0
GRID*             150590               0-1.250000000E+006.7238722522E+01+
*       -3.033131569E+02               0
GRID*             150591               0-1.250000000E+006.7186805370E+01+
*       -3.007114944E+02               0
GRID*             150592               0-1.250000000E+007.0266338750E+01+
*       -3.036635006E+02               0
GRID*             150593               0-1.250000000E+007.0204592089E+01+
*       -3.010187950E+02               0
GRID*             150594               0-1.250000000E+007.3287557152E+01+
*       -3.040829271E+02               0
GRID*             150595               0-1.250000000E+007.3213764544E+01+
*       -3.013737245E+02               0
GRID*             150596               0-1.250000000E+007.6299235456E+01+
*       -3.045702367E+02               0
GRID*             150597               0-1.250000000E+007.6211809900E+01+
*       -3.017668517E+02               0
GRID*             150598               0-1.250000000E+007.9287882441E+01+
*       -3.050990674E+02               0
GRID*             150599               0-1.250000000E+007.9194264295E+01+
*       -3.021749589E+02               0
GRID*             150600               0-1.250000000E+008.2234292643E+01+
*       -3.055597675E+02               0
GRID*             150601               0-1.250000000E+008.2158163085E+01+
*       -3.025526032E+02               0
GRID*             150602               0-1.250000000E+008.5171046974E+01+
*       -3.060183946E+02               0
GRID*             150603               0-1.250000000E+008.5113665398E+01+
*       -3.028851061E+02               0
GRID*             150604               0-1.250000000E+008.5244613729E+01+
*       -3.095440417E+02               0
GRID*             150605               0-1.250000000E+008.6333273387E+01+
*       -3.127268099E+02               0
GRID*             150606               0-1.250000000E+008.4571675080E+01+
*       -3.131805890E+02               0
GRID*             150607               0-1.250000000E+008.2934733279E+01+
*       -3.134090151E+02               0
GRID*             150608               0-1.250000000E+008.1378913611E+01+
*       -3.137068649E+02               0
GRID*             150609               0-1.250000000E+008.0243004211E+01+
*       -3.143194783E+02               0
GRID*             150610               0-1.250000000E+007.8895848428E+01+
*       -3.136051087E+02               0
GRID*             150611               0-1.250000000E+007.6707577894E+01+
*       -3.128179796E+02               0
GRID*             150612               0-1.250000000E+007.3611730721E+01+
*       -3.117967279E+02               0
GRID*             150613               0-1.250000000E+007.0500905790E+01+
*       -3.111373938E+02               0
GRID*             150614               0-1.250000000E+006.7404227358E+01+
*       -3.106722845E+02               0
GRID*             150615               0-1.250000000E+006.4322358491E+01+
*       -3.103298913E+02               0
GRID*             150616               0-1.250000000E+006.1252597760E+01+
*       -3.100760723E+02               0
GRID*             150617               0-1.250000000E+005.8194347032E+01+
*       -3.098942150E+02               0
GRID*             150618               0-1.250000000E+005.5148330043E+01+
*       -3.097758109E+02               0
GRID*             150619               0-1.250000000E+005.2115669063E+01+
*       -3.097162757E+02               0
GRID*             150620               0-1.250000000E+004.9097681705E+01+
*       -3.097133413E+02               0
GRID*             150621               0-1.250000000E+004.6096145711E+01+
*       -3.097664931E+02               0
GRID*             150622               0-1.250000000E+004.3113839718E+01+
*       -3.098767089E+02               0
GRID*             150623               0-1.250000000E+004.0155436093E+01+
*       -3.100460824E+02               0
GRID*             150624               0-1.250000000E+003.7228941457E+01+
*       -3.102768709E+02               0
GRID*             150625               0-1.250000000E+003.4347715387E+01+
*       -3.105691901E+02               0
GRID*             150626               0-1.250000000E+003.1531595771E+01+
*       -3.109159352E+02               0
GRID*             150627               0-1.250000000E+002.8799310076E+01+
*       -3.112949539E+02               0
GRID*             150628               0-1.250000000E+002.6134634879E+01+
*       -3.116957074E+02               0
GRID*             150629               0-1.250000000E+002.3428004987E+01+
*       -3.122701286E+02               0
GRID*             150630               0-1.250000000E+002.3752391793E+01+
*       -3.092829043E+02               0
GRID*             150631               0-1.250000000E+008.2334827620E+01+
*       -3.086235383E+02               0
GRID*             150632               0-1.250000000E+008.4072052391E+01+
*       -3.112130769E+02               0
GRID*             150633               0-1.250000000E+008.2246537642E+01+
*       -3.111946331E+02               0
GRID*             150634               0-1.250000000E+007.9442191041E+01+
*       -3.081178823E+02               0
GRID*             150635               0-1.250000000E+007.9704967275E+01+
*       -3.113843610E+02               0
GRID*             150636               0-1.250000000E+002.8839038796E+01+
*       -3.090295176E+02               0
GRID*             150637               0-1.250000000E+002.6345175924E+01+
*       -3.093147507E+02               0
GRID*             150638               0-1.250000000E+002.6533846386E+01+
*       -3.072654981E+02               0
GRID*             150639               0-1.250000000E+002.8713712929E+01+
*       -3.068153808E+02               0
GRID*             150640               0-1.250000000E+003.1401446281E+01+
*       -3.063308725E+02               0
GRID*             150641               0-1.250000000E+003.1515887228E+01+
*       -3.086436236E+02               0
GRID*             150642               0-1.250000000E+003.4325603336E+01+
*       -3.082667153E+02               0
GRID*             150643               0-1.250000000E+003.7213729760E+01+
*       -3.079531692E+02               0
GRID*             150644               0-1.250000000E+003.7168041211E+01+
*       -3.055756089E+02               0
GRID*             150645               0-1.250000000E+003.4251537612E+01+
*       -3.059091875E+02               0
GRID*             150646               0-1.250000000E+004.0147752557E+01+
*       -3.077080494E+02               0
GRID*             150647               0-1.250000000E+004.0119498326E+01+
*       -3.053200541E+02               0
GRID*             150648               0-1.250000000E+004.3111569464E+01+
*       -3.075287240E+02               0
GRID*             150649               0-1.250000000E+004.3093726268E+01+
*       -3.051341865E+02               0
GRID*             150650               0-1.250000000E+004.6096919580E+01+
*       -3.074115205E+02               0
GRID*             150651               0-1.250000000E+004.6084904941E+01+
*       -3.050122498E+02               0
GRID*             150652               0-1.250000000E+004.9099254129E+01+
*       -3.073536313E+02               0
GRID*             150653               0-1.250000000E+004.9089758487E+01+
*       -3.049506062E+02               0
GRID*             150654               0-1.250000000E+005.2115811795E+01+
*       -3.073536322E+02               0
GRID*             150655               0-1.250000000E+005.2106113413E+01+
*       -3.049473671E+02               0
GRID*             150656               0-1.250000000E+005.5144641575E+01+
*       -3.074116076E+02               0
GRID*             150657               0-1.250000000E+005.5132203616E+01+
*       -3.050021492E+02               0
GRID*             150658               0-1.250000000E+005.8184039889E+01+
*       -3.075292268E+02               0
GRID*             150659               0-1.250000000E+005.8166238933E+01+
*       -3.051159097E+02               0
GRID*             150660               0-1.250000000E+006.1232258959E+01+
*       -3.077100502E+02               0
GRID*             150661               0-1.250000000E+006.1206115310E+01+
*       -3.052908818E+02               0
GRID*             150662               0-1.250000000E+006.4287633017E+01+
*       -3.079606319E+02               0
GRID*             150663               0-1.250000000E+006.4249429093E+01+
*       -3.055309230E+02               0
GRID*             150664               0-1.250000000E+006.7349295587E+01+
*       -3.082933692E+02               0
GRID*             150665               0-1.250000000E+006.7293985455E+01+
*       -3.058428424E+02               0
GRID*             150666               0-1.250000000E+007.0418384948E+01+
*       -3.087323170E+02               0
GRID*             150667               0-1.250000000E+007.0338574868E+01+
*       -3.062387295E+02               0
GRID*             150668               0-1.250000000E+007.3500215988E+01+
*       -3.093251260E+02               0
GRID*             150669               0-1.250000000E+007.3383332267E+01+
*       -3.067380027E+02               0
GRID*             150670               0-1.250000000E+007.6617019507E+01+
*       -3.101809736E+02               0
GRID*             150671               0-1.250000000E+007.6429176766E+01+
*       -3.073666209E+02               0
GRID*             150672               0-1.250000000E+001.5122831357E+01+
*       -3.001192115E+02               0
GRID*             150673               0-1.250000000E+001.5143070027E+01+
*       -2.970960796E+02               0
GRID*             150674               0-1.250000000E+001.5144705877E+01+
*       -2.940958727E+02               0
GRID*             150675               0-1.250000000E+001.5137302634E+01+
*       -2.911120531E+02               0
GRID*             150676               0-1.250000000E+001.5126150432E+01+
*       -2.881387936E+02               0
GRID*             150677               0-1.250000000E+001.5113845065E+01+
*       -2.851718145E+02               0
GRID*             150678               0-1.250000000E+001.5101457362E+01+
*       -2.822082943E+02               0
GRID*             150679               0-1.250000000E+001.5089278023E+01+
*       -2.792465147E+02               0
GRID*             150680               0-1.250000000E+001.5076224380E+01+
*       -2.762872450E+02               0
GRID*             150681               0-1.250000000E+001.8139392664E+01+
*       -2.791229919E+02               0
GRID*             150682               0-1.250000000E+001.8120491629E+01+
*       -2.761697827E+02               0
GRID*             150683               0-1.250000000E+002.1193592099E+01+
*       -2.789913551E+02               0
GRID*             150684               0-1.250000000E+002.1168598673E+01+
*       -2.760455678E+02               0
GRID*             150685               0-1.250000000E+002.4250510376E+01+
*       -2.788540568E+02               0
GRID*             150686               0-1.250000000E+002.4219690477E+01+
*       -2.759165861E+02               0
GRID*             150687               0-1.250000000E+002.7308512795E+01+
*       -2.787148082E+02               0
GRID*             150688               0-1.250000000E+002.7272515094E+01+
*       -2.757860990E+02               0
GRID*             150689               0-1.250000000E+003.0366243345E+01+
*       -2.785779228E+02               0
GRID*             150690               0-1.250000000E+003.0326002420E+01+
*       -2.756578476E+02               0
GRID*             150691               0-1.250000000E+003.3422928805E+01+
*       -2.784477692E+02               0
GRID*             150692               0-1.250000000E+003.3379589578E+01+
*       -2.755355317E+02               0
GRID*             150693               0-1.250000000E+003.6478397097E+01+
*       -2.783284516E+02               0
GRID*             150694               0-1.250000000E+003.6433275571E+01+
*       -2.754226029E+02               0
GRID*             150695               0-1.250000000E+003.9532908214E+01+
*       -2.782236907E+02               0
GRID*             150696               0-1.250000000E+003.9487470262E+01+
*       -2.753222919E+02               0
GRID*             150697               0-1.250000000E+004.2586895493E+01+
*       -2.781368207E+02               0
GRID*             150698               0-1.250000000E+004.2542726890E+01+
*       -2.752377247E+02               0
GRID*             150699               0-1.250000000E+004.5640693415E+01+
*       -2.780708003E+02               0
GRID*             150700               0-1.250000000E+004.5599430309E+01+
*       -2.751719811E+02               0
GRID*             150701               0-1.250000000E+004.8694307176E+01+
*       -2.780281579E+02               0
GRID*             150702               0-1.250000000E+004.8657499268E+01+
*       -2.751279971E+02               0
GRID*             150703               0-1.250000000E+005.1747275026E+01+
*       -2.780108392E+02               0
GRID*             150704               0-1.250000000E+005.1716182464E+01+
*       -2.751082659E+02               0
GRID*             150705               0-1.250000000E+005.4798669395E+01+
*       -2.780200021E+02               0
GRID*             150706               0-1.250000000E+005.4774053667E+01+
*       -2.751144124E+02               0
GRID*             150707               0-1.250000000E+005.7847245351E+01+
*       -2.780558625E+02               0
GRID*             150708               0-1.250000000E+005.7829256408E+01+
*       -2.751468651E+02               0
GRID*             150709               0-1.250000000E+006.0891677329E+01+
*       -2.781176880E+02               0
GRID*             150710               0-1.250000000E+006.0879894320E+01+
*       -2.752048508E+02               0
GRID*             150711               0-1.250000000E+006.3930787361E+01+
*       -2.782039107E+02               0
GRID*             150712               0-1.250000000E+006.3924371953E+01+
*       -2.752866322E+02               0
GRID*             150713               0-1.250000000E+006.6963692511E+01+
*       -2.783122276E+02               0
GRID*             150714               0-1.250000000E+006.6961576874E+01+
*       -2.753897639E+02               0
GRID*             150715               0-1.250000000E+006.9989844255E+01+
*       -2.784395152E+02               0
GRID*             150716               0-1.250000000E+006.9990900360E+01+
*       -2.755111518E+02               0
GRID*             150717               0-1.250000000E+007.3008986610E+01+
*       -2.785815597E+02               0
GRID*             150718               0-1.250000000E+007.3012149497E+01+
*       -2.756468503E+02               0
GRID*             150719               0-1.250000000E+007.6021112699E+01+
*       -2.787329813E+02               0
GRID*             150720               0-1.250000000E+007.6025440588E+01+
*       -2.757918707E+02               0
GRID*             150721               0-1.250000000E+007.9026495084E+01+
*       -2.788878550E+02               0
GRID*             150722               0-1.250000000E+007.9031164601E+01+
*       -2.759405175E+02               0
GRID*             150723               0-1.250000000E+008.2025789083E+01+
*       -2.790410207E+02               0
GRID*             150724               0-1.250000000E+008.2030050833E+01+
*       -2.760874670E+02               0
GRID*             150725               0-1.250000000E+008.5020118325E+01+
*       -2.791896211E+02               0
GRID*             150726               0-1.250000000E+008.5023263765E+01+
*       -2.762291913E+02               0
GRID*             150727               0-1.250000000E+008.5019721938E+01+
*       -2.821476233E+02               0
GRID*             150728               0-1.250000000E+008.5021595248E+01+
*       -2.851006913E+02               0
GRID*             150729               0-1.250000000E+008.5025696773E+01+
*       -2.880496173E+02               0
GRID*             150730               0-1.250000000E+008.5032193543E+01+
*       -2.909958095E+02               0
GRID*             150731               0-1.250000000E+008.5041842094E+01+
*       -2.939422685E+02               0
GRID*             150732               0-1.250000000E+008.5056591870E+01+
*       -2.968950744E+02               0
GRID*             150733               0-1.250000000E+008.5080165385E+01+
*       -2.998663973E+02               0
GRID*             150734               0-1.250000000E+008.2114340401E+01+
*       -2.995860943E+02               0
GRID*             150735               0-1.250000000E+007.9141128620E+01+
*       -2.992696859E+02               0
GRID*             150736               0-1.250000000E+007.6156450938E+01+
*       -2.989350109E+02               0
GRID*             150737               0-1.250000000E+007.3160275867E+01+
*       -2.986069833E+02               0
GRID*             150738               0-1.250000000E+007.0154230835E+01+
*       -2.983035950E+02               0
GRID*             150739               0-1.250000000E+006.7140058979E+01+
*       -2.980356298E+02               0
GRID*             150740               0-1.250000000E+006.4119672607E+01+
*       -2.978092106E+02               0
GRID*             150741               0-1.250000000E+006.1095162692E+01+
*       -2.976278442E+02               0
GRID*             150742               0-1.250000000E+005.8068617167E+01+
*       -2.974935512E+02               0
GRID*             150743               0-1.250000000E+005.5041876579E+01+
*       -2.974074757E+02               0
GRID*             150744               0-1.250000000E+005.2016370726E+01+
*       -2.973703456E+02               0
GRID*             150745               0-1.250000000E+004.8993052307E+01+
*       -2.973828500E+02               0
GRID*             150746               0-1.250000000E+004.5972335545E+01+
*       -2.974459049E+02               0
GRID*             150747               0-1.250000000E+004.2953953503E+01+
*       -2.975608365E+02               0
GRID*             150748               0-1.250000000E+003.9936624584E+01+
*       -2.977295311E+02               0
GRID*             150749               0-1.250000000E+003.6917306339E+01+
*       -2.979545902E+02               0
GRID*             150750               0-1.250000000E+003.3889668728E+01+
*       -2.982394158E+02               0
GRID*             150751               0-1.250000000E+003.0841387087E+01+
*       -2.985875761E+02               0
GRID*             150752               0-1.250000000E+002.7750961787E+01+
*       -2.989981938E+02               0
GRID*             150753               0-1.250000000E+002.4592097821E+01+
*       -2.994449149E+02               0
GRID*             150754               0-1.250000000E+002.1394401267E+01+
*       -2.997761689E+02               0
GRID*             150755               0-1.250000000E+001.8232215867E+01+
*       -2.999829568E+02               0
GRID*             150756               0-1.250000000E+001.8246254934E+01+
*       -2.969418025E+02               0
GRID*             150757               0-1.250000000E+001.8237625223E+01+
*       -2.939379267E+02               0
GRID*             150758               0-1.250000000E+001.8219988507E+01+
*       -2.909574883E+02               0
GRID*             150759               0-1.250000000E+001.8199622735E+01+
*       -2.879907224E+02               0
GRID*             150760               0-1.250000000E+001.8179174413E+01+
*       -2.850313256E+02               0
GRID*             150761               0-1.250000000E+001.8159508775E+01+
*       -2.820754621E+02               0
GRID*             150762               0-1.250000000E+002.1220264251E+01+
*       -2.819350648E+02               0
GRID*             150763               0-1.250000000E+002.4283496592E+01+
*       -2.817871640E+02               0
GRID*             150764               0-1.250000000E+002.7347007794E+01+
*       -2.816360719E+02               0
GRID*             150765               0-1.250000000E+003.0409002853E+01+
*       -2.814870365E+02               0
GRID*             150766               0-1.250000000E+003.3468481742E+01+
*       -2.813454430E+02               0
GRID*             150767               0-1.250000000E+003.6525208974E+01+
*       -2.812162836E+02               0
GRID*             150768               0-1.250000000E+003.9579478375E+01+
*       -2.811038882E+02               0
GRID*             150769               0-1.250000000E+004.2631806849E+01+
*       -2.810118712E+02               0
GRID*             150770               0-1.250000000E+004.5682653067E+01+
*       -2.809431654E+02               0
GRID*             150771               0-1.250000000E+004.8732209115E+01+
*       -2.809000448E+02               0
GRID*             150772               0-1.250000000E+005.1780289615E+01+
*       -2.808840933E+02               0
GRID*             150773               0-1.250000000E+005.4826330599E+01+
*       -2.808961352E+02               0
GRID*             150774               0-1.250000000E+005.7869488942E+01+
*       -2.809361768E+02               0
GRID*             150775               0-1.250000000E+006.0908803554E+01+
*       -2.810034059E+02               0
GRID*             150776               0-1.250000000E+006.3943362282E+01+
*       -2.810962331E+02               0
GRID*             150777               0-1.250000000E+006.6972423563E+01+
*       -2.812122792E+02               0
GRID*             150778               0-1.250000000E+006.9995466122E+01+
*       -2.813481954E+02               0
GRID*             150779               0-1.250000000E+007.3012187442E+01+
*       -2.814994003E+02               0
GRID*             150780               0-1.250000000E+007.6022514171E+01+
*       -2.816601489E+02               0
GRID*             150781               0-1.250000000E+007.9026671737E+01+
*       -2.818243965E+02               0
GRID*             150782               0-1.250000000E+008.2025307752E+01+
*       -2.819870606E+02               0
GRID*             150783               0-1.250000000E+008.2028482119E+01+
*       -2.849286733E+02               0
GRID*             150784               0-1.250000000E+008.2035063734E+01+
*       -2.878631004E+02               0
GRID*             150785               0-1.250000000E+008.2045424222E+01+
*       -2.907916158E+02               0
GRID*             150786               0-1.250000000E+008.2060713095E+01+
*       -2.937168555E+02               0
GRID*             150787               0-1.250000000E+008.2083473596E+01+
*       -2.966437187E+02               0
GRID*             150788               0-1.250000000E+007.9103297774E+01+
*       -2.963720560E+02               0
GRID*             150789               0-1.250000000E+007.6114844911E+01+
*       -2.960885782E+02               0
GRID*             150790               0-1.250000000E+007.3117516122E+01+
*       -2.958091849E+02               0
GRID*             150791               0-1.250000000E+007.0111829601E+01+
*       -2.955476461E+02               0
GRID*             150792               0-1.250000000E+006.7098843266E+01+
*       -2.953138823E+02               0
GRID*             150793               0-1.250000000E+006.4079943264E+01+
*       -2.951145506E+02               0
GRID*             150794               0-1.250000000E+006.1056699154E+01+
*       -2.949539911E+02               0
GRID*             150795               0-1.250000000E+005.8030688251E+01+
*       -2.948349822E+02               0
GRID*             150796               0-1.250000000E+005.5003314764E+01+
*       -2.947592830E+02               0
GRID*             150797               0-1.250000000E+005.1975664916E+01+
*       -2.947280368E+02               0
GRID*             150798               0-1.250000000E+004.8948397330E+01+
*       -2.947420675E+02               0
GRID*             150799               0-1.250000000E+004.5921630344E+01+
*       -2.948020638E+02               0
GRID*             150800               0-1.250000000E+004.2894778571E+01+
*       -2.949086550E+02               0
GRID*             150801               0-1.250000000E+003.9866272779E+01+
*       -2.950623705E+02               0
GRID*             150802               0-1.250000000E+003.6833076322E+01+
*       -2.952634213E+02               0
GRID*             150803               0-1.250000000E+003.3789980360E+01+
*       -2.955110606E+02               0
GRID*             150804               0-1.250000000E+003.0728977992E+01+
*       -2.958018647E+02               0
GRID*             150805               0-1.250000000E+002.7640032599E+01+
*       -2.961253296E+02               0
GRID*             150806               0-1.250000000E+002.4517116892E+01+
*       -2.964541359E+02               0
GRID*             150807               0-1.250000000E+002.1375949887E+01+
*       -2.967306094E+02               0
GRID*             150808               0-1.250000000E+002.1344628930E+01+
*       -2.937406181E+02               0
GRID*             150809               0-1.250000000E+002.1311060949E+01+
*       -2.907760250E+02               0
GRID*             150810               0-1.250000000E+002.1278880159E+01+
*       -2.878240387E+02               0
GRID*             150811               0-1.250000000E+002.1249100346E+01+
*       -2.848776179E+02               0
GRID*             150812               0-1.250000000E+002.4319656324E+01+
*       -2.847161121E+02               0
GRID*             150813               0-1.250000000E+002.7389400508E+01+
*       -2.845491124E+02               0
GRID*             150814               0-1.250000000E+003.0455851606E+01+
*       -2.843834413E+02               0
GRID*             150815               0-1.250000000E+003.3517821152E+01+
*       -2.842260228E+02               0
GRID*             150816               0-1.250000000E+003.6575192331E+01+
*       -2.840830801E+02               0
GRID*             150817               0-1.250000000E+003.9628530140E+01+
*       -2.839596931E+02               0
GRID*             150818               0-1.250000000E+004.2678652628E+01+
*       -2.838597880E+02               0
GRID*             150819               0-1.250000000E+004.5726299066E+01+
*       -2.837862849E+02               0
GRID*             150820               0-1.250000000E+004.8771924167E+01+
*       -2.837412443E+02               0
GRID*             150821               0-1.250000000E+005.1815606046E+01+
*       -2.837259527E+02               0
GRID*             150822               0-1.250000000E+005.4857050831E+01+
*       -2.837409507E+02               0
GRID*             150823               0-1.250000000E+005.7895673268E+01+
*       -2.837860313E+02               0
GRID*             150824               0-1.250000000E+006.0930723349E+01+
*       -2.838602366E+02               0
GRID*             150825               0-1.250000000E+006.3961422275E+01+
*       -2.839618385E+02               0
GRID*             150826               0-1.250000000E+006.6987072601E+01+
*       -2.840882393E+02               0
GRID*             150827               0-1.250000000E+007.0007124706E+01+
*       -2.842357383E+02               0
GRID*             150828               0-1.250000000E+007.3021216222E+01+
*       -2.843992991E+02               0
GRID*             150829               0-1.250000000E+007.6029225905E+01+
*       -2.845727017E+02               0
GRID*             150830               0-1.250000000E+007.9031350371E+01+
*       -2.847499130E+02               0
GRID*             150831               0-1.250000000E+007.9040601009E+01+
*       -2.876678481E+02               0
GRID*             150832               0-1.250000000E+007.9054873816E+01+
*       -2.905753692E+02               0
GRID*             150833               0-1.250000000E+007.9075536823E+01+
*       -2.934739928E+02               0
GRID*             150834               0-1.250000000E+007.6083165776E+01+
*       -2.932280811E+02               0
GRID*             150835               0-1.250000000E+007.3083479111E+01+
*       -2.929857560E+02               0
GRID*             150836               0-1.250000000E+007.0076593104E+01+
*       -2.927578552E+02               0
GRID*             150837               0-1.250000000E+006.7063126746E+01+
*       -2.925528941E+02               0
GRID*             150838               0-1.250000000E+006.4044036031E+01+
*       -2.923771921E+02               0
GRID*             150839               0-1.250000000E+006.1020465020E+01+
*       -2.922352322E+02               0
GRID*             150840               0-1.250000000E+005.7993597355E+01+
*       -2.921300787E+02               0
GRID*             150841               0-1.250000000E+005.4964509914E+01+
*       -2.920637615E+02               0
GRID*             150842               0-1.250000000E+005.1934038721E+01+
*       -2.920375806E+02               0
GRID*             150843               0-1.250000000E+004.8902656397E+01+
*       -2.920523174E+02               0
GRID*             150844               0-1.250000000E+004.5870349410E+01+
*       -2.921083465E+02               0
GRID*             150845               0-1.250000000E+004.2836478625E+01+
*       -2.922056393E+02               0
GRID*             150846               0-1.250000000E+003.9799601547E+01+
*       -2.923436329E+02               0
GRID*             150847               0-1.250000000E+003.6757254620E+01+
*       -2.925208878E+02               0
GRID*             150848               0-1.250000000E+003.3705797443E+01+
*       -2.927343575E+02               0
GRID*             150849               0-1.250000000E+003.0640649849E+01+
*       -2.929779781E+02               0
GRID*             150850               0-1.250000000E+002.7557623807E+01+
*       -2.932403467E+02               0
GRID*             150851               0-1.250000000E+002.4456322667E+01+
*       -2.935022212E+02               0
GRID*             150852               0-1.250000000E+002.4404580525E+01+
*       -2.905693065E+02               0
GRID*             150853               0-1.250000000E+002.4360004285E+01+
*       -2.876415413E+02               0
GRID*             150854               0-1.250000000E+002.7437311169E+01+
*       -2.874530580E+02               0
GRID*             150855               0-1.250000000E+003.0508575456E+01+
*       -2.872648686E+02               0
GRID*             150856               0-1.250000000E+003.3572600078E+01+
*       -2.870862145E+02               0
GRID*             150857               0-1.250000000E+003.6629720548E+01+
*       -2.869250007E+02               0
GRID*             150858               0-1.250000000E+003.9681130157E+01+
*       -2.867871258E+02               0
GRID*             150859               0-1.250000000E+004.2728218766E+01+
*       -2.866767304E+02               0
GRID*             150860               0-1.250000000E+004.5772164656E+01+
*       -2.865966086E+02               0
GRID*             150861               0-1.250000000E+004.8813744000E+01+
*       -2.865485389E+02               0
GRID*             150862               0-1.250000000E+005.1853278070E+01+
*       -2.865334893E+02               0
GRID*             150863               0-1.250000000E+005.4890663849E+01+
*       -2.865517178E+02               0
GRID*             150864               0-1.250000000E+005.7925458541E+01+
*       -2.866028003E+02               0
GRID*             150865               0-1.250000000E+006.0956995186E+01+
*       -2.866856067E+02               0
GRID*             150866               0-1.250000000E+006.3984506625E+01+
*       -2.867982212E+02               0
GRID*             150867               0-1.250000000E+006.7007237843E+01+
*       -2.869377746E+02               0
GRID*             150868               0-1.250000000E+007.0024537543E+01+
*       -2.871001849E+02               0
GRID*             150869               0-1.250000000E+007.3035939203E+01+
*       -2.872799122E+02               0
GRID*             150870               0-1.250000000E+007.6041258804E+01+
*       -2.874698294E+02               0
GRID*             150871               0-1.250000000E+007.6059113906E+01+
*       -2.903539119E+02               0
GRID*             150872               0-1.250000000E+007.3056717024E+01+
*       -2.901399296E+02               0
GRID*             150873               0-1.250000000E+007.0047805032E+01+
*       -2.899389816E+02               0
GRID*             150874               0-1.250000000E+006.7032771118E+01+
*       -2.897577813E+02               0
GRID*             150875               0-1.250000000E+006.4012279851E+01+
*       -2.896020557E+02               0
GRID*             150876               0-1.250000000E+006.0987176148E+01+
*       -2.894761334E+02               0
GRID*             150877               0-1.250000000E+005.7958374968E+01+
*       -2.893830846E+02               0
GRID*             150878               0-1.250000000E+005.4926743662E+01+
*       -2.893249745E+02               0
GRID*             150879               0-1.250000000E+005.1892979990E+01+
*       -2.893030813E+02               0
GRID*             150880               0-1.250000000E+004.8857489749E+01+
*       -2.893180366E+02               0
GRID*             150881               0-1.250000000E+004.5820269389E+01+
*       -2.893698864E+02               0
GRID*             150882               0-1.250000000E+004.2780799251E+01+
*       -2.894580654E+02               0
GRID*             150883               0-1.250000000E+003.9737954737E+01+
*       -2.895812576E+02               0
GRID*             150884               0-1.250000000E+003.6689966528E+01+
*       -2.897370890E+02               0
GRID*             150885               0-1.250000000E+003.3634528481E+01+
*       -2.899215640E+02               0
GRID*             150886               0-1.250000000E+003.0569254484E+01+
*       -2.901281747E+02               0
GRID*             150887               0-1.250000000E+002.7492763362E+01+
*       -2.903467229E+02               0
GRID*             150888               0-1.250000000E+001.5066217116E+01+
*       -2.733232894E+02               0
GRID*             150889               0-1.250000000E+001.5056286633E+01+
*       -2.703588478E+02               0
GRID*             150890               0-1.250000000E+001.5046602688E+01+
*       -2.673932656E+02               0
GRID*             150891               0-1.250000000E+001.5037174044E+01+
*       -2.644262809E+02               0
GRID*             150892               0-1.250000000E+001.5028021683E+01+
*       -2.614576129E+02               0
GRID*             150893               0-1.250000000E+001.5019193822E+01+
*       -2.584867570E+02               0
GRID*             150894               0-1.250000000E+001.5010722647E+01+
*       -2.555127861E+02               0
GRID*             150895               0-1.250000000E+001.5002524165E+01+
*       -2.525340933E+02               0
GRID*             150896               0-1.250000000E+001.4994189868E+01+
*       -2.495480206E+02               0
GRID*             150897               0-1.250000000E+001.4984475709E+01+
*       -2.465501415E+02               0
GRID*             150898               0-1.250000000E+001.4970292740E+01+
*       -2.435328966E+02               0
GRID*             150899               0-1.250000000E+001.4945245220E+01+
*       -2.404836882E+02               0
GRID*             150900               0-1.250000000E+001.4896300432E+01+
*       -2.373828563E+02               0
GRID*             150901               0-1.250000000E+001.4791707721E+01+
*       -2.342043868E+02               0
GRID*             150902               0-1.250000000E+001.4540562730E+01+
*       -2.309500557E+02               0
GRID*             150903               0-1.250000000E+001.3871163898E+01+
*       -2.280565164E+02               0
GRID*             150904               0-1.250000000E+001.5952413517E+01+
*       -2.274030516E+02               0
GRID*             150905               0-1.250000000E+001.7421914934E+01+
*       -2.264931191E+02               0
GRID*             150906               0-1.250000000E+001.9083104646E+01+
*       -2.273525715E+02               0
GRID*             150907               0-1.250000000E+002.1597578400E+01+
*       -2.278692457E+02               0
GRID*             150908               0-1.250000000E+002.4429565987E+01+
*       -2.281465101E+02               0
GRID*             150909               0-1.250000000E+002.7363814331E+01+
*       -2.283018708E+02               0
GRID*             150910               0-1.250000000E+003.0328758946E+01+
*       -2.283970519E+02               0
GRID*             150911               0-1.250000000E+003.3300513264E+01+
*       -2.284619260E+02               0
GRID*             150912               0-1.250000000E+003.6272179387E+01+
*       -2.285128848E+02               0
GRID*             150913               0-1.250000000E+003.9243872018E+01+
*       -2.285608310E+02               0
GRID*             150914               0-1.250000000E+004.2218980795E+01+
*       -2.286144999E+02               0
GRID*             150915               0-1.250000000E+004.5202619716E+01+
*       -2.286818876E+02               0
GRID*             150916               0-1.250000000E+004.8200692224E+01+
*       -2.287708981E+02               0
GRID*             150917               0-1.250000000E+005.1218511692E+01+
*       -2.288898307E+02               0
GRID*             150918               0-1.250000000E+005.4257708797E+01+
*       -2.290479949E+02               0
GRID*             150919               0-1.250000000E+005.7310477493E+01+
*       -2.292560490E+02               0
GRID*             150920               0-1.250000000E+006.0352335596E+01+
*       -2.295225456E+02               0
GRID*             150921               0-1.250000000E+006.3344315183E+01+
*       -2.298373069E+02               0
GRID*             150922               0-1.250000000E+006.6279248385E+01+
*       -2.301366421E+02               0
GRID*             150923               0-1.250000000E+006.9177996465E+01+
*       -2.303887480E+02               0
GRID*             150924               0-1.250000000E+007.2058033665E+01+
*       -2.305913352E+02               0
GRID*             150925               0-1.250000000E+007.4920798289E+01+
*       -2.307562983E+02               0
GRID*             150926               0-1.250000000E+007.7750832473E+01+
*       -2.309004236E+02               0
GRID*             150927               0-1.250000000E+008.0525319091E+01+
*       -2.310368576E+02               0
GRID*             150928               0-1.250000000E+008.3250005789E+01+
*       -2.311659455E+02               0
GRID*             150929               0-1.250000000E+008.5866864815E+01+
*       -2.314366605E+02               0
GRID*             150930               0-1.250000000E+008.5719847108E+01+
*       -2.344118059E+02               0
GRID*             150931               0-1.250000000E+008.5597950289E+01+
*       -2.374100883E+02               0
GRID*             150932               0-1.250000000E+008.5494441398E+01+
*       -2.404095296E+02               0
GRID*             150933               0-1.250000000E+008.5405558096E+01+
*       -2.434076774E+02               0
GRID*             150934               0-1.250000000E+008.5329166427E+01+
*       -2.464043463E+02               0
GRID*             150935               0-1.250000000E+008.5263882266E+01+
*       -2.493994148E+02               0
GRID*             150936               0-1.250000000E+008.5208660143E+01+
*       -2.523926321E+02               0
GRID*             150937               0-1.250000000E+008.5162585326E+01+
*       -2.553836363E+02               0
GRID*             150938               0-1.250000000E+008.5124767856E+01+
*       -2.583719839E+02               0
GRID*             150939               0-1.250000000E+008.5094308003E+01+
*       -2.613572127E+02               0
GRID*             150940               0-1.250000000E+008.5070312650E+01+
*       -2.643389443E+02               0
GRID*             150941               0-1.250000000E+008.5051931951E+01+
*       -2.673169534E+02               0
GRID*             150942               0-1.250000000E+008.5038386587E+01+
*       -2.702911291E+02               0
GRID*             150943               0-1.250000000E+008.5028967450E+01+
*       -2.732612760E+02               0
GRID*             150944               0-1.250000000E+008.2038011040E+01+
*       -2.731215052E+02               0
GRID*             150945               0-1.250000000E+007.9040810593E+01+
*       -2.729777269E+02               0
GRID*             150946               0-1.250000000E+007.6035993505E+01+
*       -2.728333889E+02               0
GRID*             150947               0-1.250000000E+007.3022558924E+01+
*       -2.726931514E+02               0
GRID*             150948               0-1.250000000E+006.9999824557E+01+
*       -2.725618783E+02               0
GRID*             150949               0-1.250000000E+006.6967440725E+01+
*       -2.724440435E+02               0
GRID*             150950               0-1.250000000E+006.3925487598E+01+
*       -2.723435696E+02               0
GRID*             150951               0-1.250000000E+006.0874633762E+01+
*       -2.722638962E+02               0
GRID*             150952               0-1.250000000E+005.7816293154E+01+
*       -2.722079919E+02               0
GRID*             150953               0-1.250000000E+005.4752673547E+01+
*       -2.721781239E+02               0
GRID*             150954               0-1.250000000E+005.1686567805E+01+
*       -2.721753632E+02               0
GRID*             150955               0-1.250000000E+004.8620805623E+01+
*       -2.721990684E+02               0
GRID*             150956               0-1.250000000E+004.5557550209E+01+
*       -2.722468408E+02               0
GRID*             150957               0-1.250000000E+004.2497862374E+01+
*       -2.723152381E+02               0
GRID*             150958               0-1.250000000E+003.9441755076E+01+
*       -2.724006094E+02               0
GRID*             150959               0-1.250000000E+003.6388567140E+01+
*       -2.724995779E+02               0
GRID*             150960               0-1.250000000E+003.3337420023E+01+
*       -2.726091135E+02               0
GRID*             150961               0-1.250000000E+003.0287625945E+01+
*       -2.727263322E+02               0
GRID*             150962               0-1.250000000E+002.7238978107E+01+
*       -2.728482265E+02               0
GRID*             150963               0-1.250000000E+002.4191848651E+01+
*       -2.729715639E+02               0
GRID*             150964               0-1.250000000E+002.1147031839E+01+
*       -2.730931273E+02               0
GRID*             150965               0-1.250000000E+001.8105359997E+01+
*       -2.732102732E+02               0
GRID*             150966               0-1.250000000E+001.8089763546E+01+
*       -2.702507965E+02               0
GRID*             150967               0-1.250000000E+001.8074682844E+01+
*       -2.672891662E+02               0
GRID*             150968               0-1.250000000E+001.8060013360E+01+
*       -2.643253226E+02               0
GRID*             150969               0-1.250000000E+001.8045783322E+01+
*       -2.613590644E+02               0
GRID*             150970               0-1.250000000E+001.8032136607E+01+
*       -2.583898545E+02               0
GRID*             150971               0-1.250000000E+001.8019272718E+01+
*       -2.554165888E+02               0
GRID*             150972               0-1.250000000E+001.8007337556E+01+
*       -2.524372837E+02               0
GRID*             150973               0-1.250000000E+001.7996215197E+01+
*       -2.494486063E+02               0
GRID*             150974               0-1.250000000E+001.7985104018E+01+
*       -2.464449715E+02               0
GRID*             150975               0-1.250000000E+001.7971910437E+01+
*       -2.434168142E+02               0
GRID*             150976               0-1.250000000E+001.7952741128E+01+
*       -2.403472127E+02               0
GRID*             150977               0-1.250000000E+001.7920668496E+01+
*       -2.372024247E+02               0
GRID*             150978               0-1.250000000E+001.7859012420E+01+
*       -2.338934002E+02               0
GRID*             150979               0-1.250000000E+001.7702770675E+01+
*       -2.300547312E+02               0
GRID*             150980               0-1.250000000E+002.1135802328E+01+
*       -2.307598820E+02               0
GRID*             150981               0-1.250000000E+002.4220384095E+01+
*       -2.310630256E+02               0
GRID*             150982               0-1.250000000E+002.7231052334E+01+
*       -2.312256723E+02               0
GRID*             150983               0-1.250000000E+003.0220828486E+01+
*       -2.313248802E+02               0
GRID*             150984               0-1.250000000E+003.3200202238E+01+
*       -2.313934370E+02               0
GRID*             150985               0-1.250000000E+003.6171640453E+01+
*       -2.314491076E+02               0
GRID*             150986               0-1.250000000E+003.9137102332E+01+
*       -2.315039144E+02               0
GRID*             150987               0-1.250000000E+004.2099542292E+01+
*       -2.315677054E+02               0
GRID*             150988               0-1.250000000E+004.5063145151E+01+
*       -2.316494516E+02               0
GRID*             150989               0-1.250000000E+004.8033256819E+01+
*       -2.317574115E+02               0
GRID*             150990               0-1.250000000E+005.1015262827E+01+
*       -2.318983150E+02               0
GRID*             150991               0-1.250000000E+005.4011752149E+01+
*       -2.320761274E+02               0
GRID*             150992               0-1.250000000E+005.7018377298E+01+
*       -2.322912904E+02               0
GRID*             150993               0-1.250000000E+006.0021321382E+01+
*       -2.325400192E+02               0
GRID*             150994               0-1.250000000E+006.3002310426E+01+
*       -2.328089889E+02               0
GRID*             150995               0-1.250000000E+006.5953385938E+01+
*       -2.330706855E+02               0
GRID*             150996               0-1.250000000E+006.8877736924E+01+
*       -2.333062558E+02               0
GRID*             150997               0-1.250000000E+007.1779122262E+01+
*       -2.335110535E+02               0
GRID*             150998               0-1.250000000E+007.4654722162E+01+
*       -2.336909371E+02               0
GRID*             150999               0-1.250000000E+007.7494582806E+01+
*       -2.338573133E+02               0
GRID*             151000               0-1.250000000E+008.0287302399E+01+
*       -2.340228368E+02               0
GRID*             151001               0-1.250000000E+008.3028797707E+01+
*       -2.342011176E+02               0
GRID*             151002               0-1.250000000E+008.2857361348E+01+
*       -2.372068692E+02               0
GRID*             151003               0-1.250000000E+008.2710689895E+01+
*       -2.402106630E+02               0
GRID*             151004               0-1.250000000E+008.2583664514E+01+
*       -2.432145830E+02               0
GRID*             151005               0-1.250000000E+008.2473711859E+01+
*       -2.462183446E+02               0
GRID*             151006               0-1.250000000E+008.2379212947E+01+
*       -2.492212762E+02               0
GRID*             151007               0-1.250000000E+008.2298943712E+01+
*       -2.522226030E+02               0
GRID*             151008               0-1.250000000E+008.2231796744E+01+
*       -2.552214642E+02               0
GRID*             151009               0-1.250000000E+008.2176630352E+01+
*       -2.582169354E+02               0
GRID*             151010               0-1.250000000E+008.2132223712E+01+
*       -2.612081217E+02               0
GRID*             151011               0-1.250000000E+008.2097313707E+01+
*       -2.641942923E+02               0
GRID*             151012               0-1.250000000E+008.2070666008E+01+
*       -2.671749659E+02               0
GRID*             151013               0-1.250000000E+008.2051133735E+01+
*       -2.701498521E+02               0
GRID*             151014               0-1.250000000E+007.9057202768E+01+
*       -2.700073580E+02               0
GRID*             151015               0-1.250000000E+007.6054563113E+01+
*       -2.698646923E+02               0
GRID*             151016               0-1.250000000E+007.3041881366E+01+
*       -2.697260645E+02               0
GRID*             151017               0-1.250000000E+007.0018137654E+01+
*       -2.695958626E+02               0
GRID*             151018               0-1.250000000E+006.6982671701E+01+
*       -2.694783029E+02               0
GRID*             151019               0-1.250000000E+006.3935333658E+01+
*       -2.693774115E+02               0
GRID*             151020               0-1.250000000E+006.0876742242E+01+
*       -2.692971208E+02               0
GRID*             151021               0-1.250000000E+005.7808613169E+01+
*       -2.692412552E+02               0
GRID*             151022               0-1.250000000E+005.4733987993E+01+
*       -2.692131217E+02               0
GRID*             151023               0-1.250000000E+005.1657033750E+01+
*       -2.692145398E+02               0
GRID*             151024               0-1.250000000E+004.8582184281E+01+
*       -2.692446322E+02               0
GRID*             151025               0-1.250000000E+004.5512746401E+01+
*       -2.692995334E+02               0
GRID*             151026               0-1.250000000E+004.2450058000E+01+
*       -2.693740953E+02               0
GRID*             151027               0-1.250000000E+003.9393748994E+01+
*       -2.694635024E+02               0
GRID*             151028               0-1.250000000E+003.6342520882E+01+
*       -2.695639285E+02               0
GRID*             151029               0-1.250000000E+003.3294892669E+01+
*       -2.696724377E+02               0
GRID*             151030               0-1.250000000E+003.0249722590E+01+
*       -2.697865438E+02               0
GRID*             151031               0-1.250000000E+002.7206482099E+01+
*       -2.699037743E+02               0
GRID*             151032               0-1.250000000E+002.4165269569E+01+
*       -2.700215041E+02               0
GRID*             151033               0-1.250000000E+002.1126574462E+01+
*       -2.701371736E+02               0
GRID*             151034               0-1.250000000E+002.1105836156E+01+
*       -2.671797712E+02               0
GRID*             151035               0-1.250000000E+002.1085555853E+01+
*       -2.642194104E+02               0
GRID*             151036               0-1.250000000E+002.1065806963E+01+
*       -2.612561259E+02               0
GRID*             151037               0-1.250000000E+002.1046897385E+01+
*       -2.582895763E+02               0
GRID*             151038               0-1.250000000E+002.1029327368E+01+
*       -2.553187926E+02               0
GRID*             151039               0-1.250000000E+002.1013703059E+01+
*       -2.523418675E+02               0
GRID*             151040               0-1.250000000E+002.1000591882E+01+
*       -2.493555370E+02               0
GRID*             151041               0-1.250000000E+002.0990327376E+01+
*       -2.463545387E+02               0
GRID*             151042               0-1.250000000E+002.0983045033E+01+
*       -2.433307315E+02               0
GRID*             151043               0-1.250000000E+002.0979677548E+01+
*       -2.402721543E+02               0
GRID*             151044               0-1.250000000E+002.0985065085E+01+
*       -2.371623659E+02               0
GRID*             151045               0-1.250000000E+002.1017382767E+01+
*       -2.339841188E+02               0
GRID*             151046               0-1.250000000E+002.4098181163E+01+
*       -2.341115673E+02               0
GRID*             151047               0-1.250000000E+002.7127873823E+01+
*       -2.342107100E+02               0
GRID*             151048               0-1.250000000E+003.0128924111E+01+
*       -2.342824452E+02               0
GRID*             151049               0-1.250000000E+003.3111428036E+01+
*       -2.343372795E+02               0
GRID*             151050               0-1.250000000E+003.6079414264E+01+
*       -2.343857020E+02               0
GRID*             151051               0-1.250000000E+003.9034949410E+01+
*       -2.344374853E+02               0
GRID*             151052               0-1.250000000E+004.1980096029E+01+
*       -2.345022952E+02               0
GRID*             151053               0-1.250000000E+004.4918371440E+01+
*       -2.345901168E+02               0
GRID*             151054               0-1.250000000E+004.7855702015E+01+
*       -2.347104191E+02               0
GRID*             151055               0-1.250000000E+005.0800003816E+01+
*       -2.348695234E+02               0
GRID*             151056               0-1.250000000E+005.3758641670E+01+
*       -2.350668910E+02               0
GRID*             151057               0-1.250000000E+005.6733125336E+01+
*       -2.352936881E+02               0
GRID*             151058               0-1.250000000E+005.9714915168E+01+
*       -2.355392736E+02               0
GRID*             151059               0-1.250000000E+006.2691037842E+01+
*       -2.357914090E+02               0
GRID*             151060               0-1.250000000E+006.5651940502E+01+
*       -2.360357673E+02               0
GRID*             151061               0-1.250000000E+006.8593234894E+01+
*       -2.362622678E+02               0
GRID*             151062               0-1.250000000E+007.1511985228E+01+
*       -2.364682345E+02               0
GRID*             151063               0-1.250000000E+007.4403273697E+01+
*       -2.366576702E+02               0
GRID*             151064               0-1.250000000E+007.7260041112E+01+
*       -2.368387294E+02               0
GRID*             151065               0-1.250000000E+008.0076176316E+01+
*       -2.370208587E+02               0
GRID*             151066               0-1.250000000E+007.9895591650E+01+
*       -2.400208331E+02               0
GRID*             151067               0-1.250000000E+007.9736403989E+01+
*       -2.430257248E+02               0
GRID*             151068               0-1.250000000E+007.9597106480E+01+
*       -2.460333340E+02               0
GRID*             151069               0-1.250000000E+007.9476493397E+01+
*       -2.490419638E+02               0
GRID*             151070               0-1.250000000E+007.9373562684E+01+
*       -2.520500677E+02               0
GRID*             151071               0-1.250000000E+007.9287291954E+01+
*       -2.550560730E+02               0
GRID*             151072               0-1.250000000E+007.9216461701E+01+
*       -2.580583751E+02               0
GRID*             151073               0-1.250000000E+007.9159614588E+01+
*       -2.610554698E+02               0
GRID*             151074               0-1.250000000E+007.9115141958E+01+
*       -2.640461272E+02               0
GRID*             151075               0-1.250000000E+007.9081417603E+01+
*       -2.670294678E+02               0
GRID*             151076               0-1.250000000E+007.6082504783E+01+
*       -2.668859108E+02               0
GRID*             151077               0-1.250000000E+007.3071791448E+01+
*       -2.667459896E+02               0
GRID*             151078               0-1.250000000E+007.0047828523E+01+
*       -2.666136964E+02               0
GRID*             151079               0-1.250000000E+006.7009501791E+01+
*       -2.664930551E+02               0
GRID*             151080               0-1.250000000E+006.3956217111E+01+
*       -2.663882498E+02               0
GRID*             151081               0-1.250000000E+006.0888303665E+01+
*       -2.663039147E+02               0
GRID*             151082               0-1.250000000E+005.7807630264E+01+
*       -2.662452722E+02               0
GRID*             151083               0-1.250000000E+005.4718192253E+01+
*       -2.662175983E+02               0
GRID*             151084               0-1.250000000E+005.1626261115E+01+
*       -2.662244429E+02               0
GRID*             151085               0-1.250000000E+004.8539170495E+01+
*       -2.662647891E+02               0
GRID*             151086               0-1.250000000E+004.5462195792E+01+
*       -2.663316806E+02               0
GRID*             151087               0-1.250000000E+004.2396755667E+01+
*       -2.664168553E+02               0
GRID*             151088               0-1.250000000E+003.9341422319E+01+
*       -2.665137904E+02               0
GRID*             151089               0-1.250000000E+003.6293633555E+01+
*       -2.666182393E+02               0
GRID*             151090               0-1.250000000E+003.3250908964E+01+
*       -2.667275906E+02               0
GRID*             151091               0-1.250000000E+003.0211454526E+01+
*       -2.668400021E+02               0
GRID*             151092               0-1.250000000E+002.7174339176E+01+
*       -2.669537510E+02               0
GRID*             151093               0-1.250000000E+002.4139379203E+01+
*       -2.670669815E+02               0
GRID*             151094               0-1.250000000E+002.4113143183E+01+
*       -2.641102021E+02               0
GRID*             151095               0-1.250000000E+002.4087328844E+01+
*       -2.611502958E+02               0
GRID*             151096               0-1.250000000E+002.4062468292E+01+
*       -2.581873580E+02               0
GRID*             151097               0-1.250000000E+002.4039475917E+01+
*       -2.552208823E+02               0
GRID*             151098               0-1.250000000E+002.4019606629E+01+
*       -2.522494456E+02               0
GRID*             151099               0-1.250000000E+002.4004352819E+01+
*       -2.492703917E+02               0
GRID*             151100               0-1.250000000E+002.3995346358E+01+
*       -2.462795975E+02               0
GRID*             151101               0-1.250000000E+002.3994589419E+01+
*       -2.432715987E+02               0
GRID*             151102               0-1.250000000E+002.4005615361E+01+
*       -2.402406869E+02               0
GRID*             151103               0-1.250000000E+002.4036096310E+01+
*       -2.371841994E+02               0
GRID*             151104               0-1.250000000E+002.7059494207E+01+
*       -2.372209931E+02               0
GRID*             151105               0-1.250000000E+003.0059702978E+01+
*       -2.372555966E+02               0
GRID*             151106               0-1.250000000E+003.3039926546E+01+
*       -2.372866086E+02               0
GRID*             151107               0-1.250000000E+003.6001526451E+01+
*       -2.373182048E+02               0
GRID*             151108               0-1.250000000E+003.8944535770E+01+
*       -2.373573388E+02               0
GRID*             151109               0-1.250000000E+004.1869063413E+01+
*       -2.374134435E+02               0
GRID*             151110               0-1.250000000E+004.4777319854E+01+
*       -2.374984534E+02               0
GRID*             151111               0-1.250000000E+004.7675576630E+01+
*       -2.376252729E+02               0
GRID*             151112               0-1.250000000E+005.0575802513E+01+
*       -2.378031803E+02               0
GRID*             151113               0-1.250000000E+005.3494992713E+01+
*       -2.380288334E+02               0
GRID*             151114               0-1.250000000E+005.6445031027E+01+
*       -2.382781124E+02               0
GRID*             151115               0-1.250000000E+005.9417373371E+01+
*       -2.385332980E+02               0
GRID*             151116               0-1.250000000E+006.2396382661E+01+
*       -2.387836800E+02               0
GRID*             151117               0-1.250000000E+006.5368802028E+01+
*       -2.390220556E+02               0
GRID*             151118               0-1.250000000E+006.8325916091E+01+
*       -2.392445625E+02               0
GRID*             151119               0-1.250000000E+007.1261668306E+01+
*       -2.394513356E+02               0
GRID*             151120               0-1.250000000E+007.4170603380E+01+
*       -2.396461922E+02               0
GRID*             151121               0-1.250000000E+007.7047685336E+01+
*       -2.398352287E+02               0
GRID*             151122               0-1.250000000E+007.6861394252E+01+
*       -2.428385388E+02               0
GRID*             151123               0-1.250000000E+007.6696498138E+01+
*       -2.458481265E+02               0
GRID*             151124               0-1.250000000E+007.6552571026E+01+
*       -2.488613173E+02               0
GRID*             151125               0-1.250000000E+007.6429211264E+01+
*       -2.518757387E+02               0
GRID*             151126               0-1.250000000E+007.6325791536E+01+
*       -2.548889550E+02               0
GRID*             151127               0-1.250000000E+007.6241188917E+01+
*       -2.578984792E+02               0
GRID*             151128               0-1.250000000E+007.6173746788E+01+
*       -2.609020010E+02               0
GRID*             151129               0-1.250000000E+007.6121464752E+01+
*       -2.638976232E+02               0
GRID*             151130               0-1.250000000E+007.3114373817E+01+
*       -2.637537252E+02               0
GRID*             151131               0-1.250000000E+007.0091473545E+01+
*       -2.636163027E+02               0
GRID*             151132               0-1.250000000E+006.7051016441E+01+
*       -2.634890631E+02               0
GRID*             151133               0-1.250000000E+006.3991659909E+01+
*       -2.633762761E+02               0
GRID*             151134               0-1.250000000E+006.0912970471E+01+
*       -2.632834233E+02               0
GRID*             151135               0-1.250000000E+005.7816330844E+01+
*       -2.632177908E+02               0
GRID*             151136               0-1.250000000E+005.4706367084E+01+
*       -2.631881625E+02               0
GRID*             151137               0-1.250000000E+005.1592514170E+01+
*       -2.632021229E+02               0
GRID*             151138               0-1.250000000E+004.8487994763E+01+
*       -2.632595133E+02               0
GRID*             151139               0-1.250000000E+004.5401835999E+01+
*       -2.633459256E+02               0
GRID*             151140               0-1.250000000E+004.2334691082E+01+
*       -2.634474066E+02               0
GRID*             151141               0-1.250000000E+003.9282563051E+01+
*       -2.635554180E+02               0
GRID*             151142               0-1.250000000E+003.6240558230E+01+
*       -2.636658758E+02               0
GRID*             151143               0-1.250000000E+003.3204685587E+01+
*       -2.637771442E+02               0
GRID*             151144               0-1.250000000E+003.0172340554E+01+
*       -2.638885074E+02               0
GRID*             151145               0-1.250000000E+002.7142203664E+01+
*       -2.639992984E+02               0
GRID*             151146               0-1.250000000E+002.7109629105E+01+
*       -2.610427530E+02               0
GRID*             151147               0-1.250000000E+002.7077775401E+01+
*       -2.580839841E+02               0
GRID*             151148               0-1.250000000E+002.7048048793E+01+
*       -2.551232655E+02               0
GRID*             151149               0-1.250000000E+002.7022512706E+01+
*       -2.521599602E+02               0
GRID*             151150               0-1.250000000E+002.7003766177E+01+
*       -2.491921996E+02               0
GRID*             151151               0-1.250000000E+002.6994704675E+01+
*       -2.462169077E+02               0
GRID*             151152               0-1.250000000E+002.6998427612E+01+
*       -2.432305312E+02               0
GRID*             151153               0-1.250000000E+002.7018820443E+01+
*       -2.402308676E+02               0
GRID*             151154               0-1.250000000E+003.0013582736E+01+
*       -2.402306035E+02               0
GRID*             151155               0-1.250000000E+003.2989204607E+01+
*       -2.402341180E+02               0
GRID*             151156               0-1.250000000E+003.5943703615E+01+
*       -2.402422617E+02               0
GRID*             151157               0-1.250000000E+003.8874127348E+01+
*       -2.402600202E+02               0
GRID*             151158               0-1.250000000E+004.1777440506E+01+
*       -2.402969606E+02               0
GRID*             151159               0-1.250000000E+004.4652300277E+01+
*       -2.403679719E+02               0
GRID*             151160               0-1.250000000E+004.7502201985E+01+
*       -2.404929517E+02               0
GRID*             151161               0-1.250000000E+005.0342451559E+01+
*       -2.406925089E+02               0
GRID*             151162               0-1.250000000E+005.3209267770E+01+
*       -2.409694347E+02               0
GRID*             151163               0-1.250000000E+005.6141318319E+01+
*       -2.412584529E+02               0
GRID*             151164               0-1.250000000E+005.9117690331E+01+
*       -2.415337452E+02               0
GRID*             151165               0-1.250000000E+006.2110618959E+01+
*       -2.417896554E+02               0
GRID*             151166               0-1.250000000E+006.5100639795E+01+
*       -2.420265898E+02               0
GRID*             151167               0-1.250000000E+006.8076248975E+01+
*       -2.422465386E+02               0
GRID*             151168               0-1.250000000E+007.1030524914E+01+
*       -2.424526109E+02               0
GRID*             151169               0-1.250000000E+007.3958703004E+01+
*       -2.426490684E+02               0
GRID*             151170               0-1.250000000E+007.3770835722E+01+
*       -2.456604013E+02               0
GRID*             151171               0-1.250000000E+007.3605507361E+01+
*       -2.486783159E+02               0
GRID*             151172               0-1.250000000E+007.3463320744E+01+
*       -2.516997619E+02               0
GRID*             151173               0-1.250000000E+007.3344433538E+01+
*       -2.547213315E+02               0
GRID*             151174               0-1.250000000E+007.3247995257E+01+
*       -2.577394082E+02               0
GRID*             151175               0-1.250000000E+007.3172091682E+01+
*       -2.607506241E+02               0
GRID*             151176               0-1.250000000E+007.0152287621E+01+
*       -2.606052513E+02               0
GRID*             151177               0-1.250000000E+006.7111410395E+01+
*       -2.604678653E+02               0
GRID*             151178               0-1.250000000E+006.4047018906E+01+
*       -2.603424924E+02               0
GRID*             151179               0-1.250000000E+006.0957022986E+01+
*       -2.602352221E+02               0
GRID*             151180               0-1.250000000E+005.7840704568E+01+
*       -2.601557277E+02               0
GRID*             151181               0-1.250000000E+005.4701561616E+01+
*       -2.601184640E+02               0
GRID*             151182               0-1.250000000E+005.1553073255E+01+
*       -2.601406971E+02               0
GRID*             151183               0-1.250000000E+004.8422076176E+01+
*       -2.602289341E+02               0
GRID*             151184               0-1.250000000E+004.5325432170E+01+
*       -2.603473116E+02               0
GRID*             151185               0-1.250000000E+004.2259700993E+01+
*       -2.604721168E+02               0
GRID*             151186               0-1.250000000E+003.9214966586E+01+
*       -2.605940842E+02               0
GRID*             151187               0-1.250000000E+003.6182382684E+01+
*       -2.607112180E+02               0
GRID*             151188               0-1.250000000E+003.3155991901E+01+
*       -2.608241570E+02               0
GRID*             151189               0-1.250000000E+003.0132425356E+01+
*       -2.609340088E+02               0
GRID*             151190               0-1.250000000E+003.0092096663E+01+
*       -2.579792458E+02               0
GRID*             151191               0-1.250000000E+003.0053546328E+01+
*       -2.550250347E+02               0
GRID*             151192               0-1.250000000E+003.0019830494E+01+
*       -2.520718025E+02               0
GRID*             151193               0-1.250000000E+002.9994994725E+01+
*       -2.491184051E+02               0
GRID*             151194               0-1.250000000E+002.9983436681E+01+
*       -2.461621391E+02               0
GRID*             151195               0-1.250000000E+002.9988969059E+01+
*       -2.431998212E+02               0
GRID*             151196               0-1.250000000E+003.2961239452E+01+
*       -2.431756878E+02               0
GRID*             151197               0-1.250000000E+003.5911330435E+01+
*       -2.431564142E+02               0
GRID*             151198               0-1.250000000E+003.8833431243E+01+
*       -2.431453445E+02               0
GRID*             151199               0-1.250000000E+004.1720096228E+01+
*       -2.431513002E+02               0
GRID*             151200               0-1.250000000E+004.4562148746E+01+
*       -2.431912195E+02               0
GRID*             151201               0-1.250000000E+004.7351388565E+01+
*       -2.432949957E+02               0
GRID*             151202               0-1.250000000E+005.0096352373E+01+
*       -2.435122227E+02               0
GRID*             151203               0-1.250000000E+005.2869519297E+01+
*       -2.439025928E+02               0
GRID*             151204               0-1.250000000E+005.5801516390E+01+
*       -2.442562850E+02               0
GRID*             151205               0-1.250000000E+005.8807178878E+01+
*       -2.445563342E+02               0
GRID*             151206               0-1.250000000E+006.1831016280E+01+
*       -2.448166262E+02               0
GRID*             151207               0-1.250000000E+006.4847535373E+01+
*       -2.450500349E+02               0
GRID*             151208               0-1.250000000E+006.7845684063E+01+
*       -2.452649606E+02               0
GRID*             151209               0-1.250000000E+007.0820310485E+01+
*       -2.454671783E+02               0
GRID*             151210               0-1.250000000E+007.0634129150E+01+
*       -2.484911883E+02               0
GRID*             151211               0-1.250000000E+007.0473614723E+01+
*       -2.515216620E+02               0
GRID*             151212               0-1.250000000E+007.0340365905E+01+
*       -2.545540365E+02               0
GRID*             151213               0-1.250000000E+007.0234007865E+01+
*       -2.575831409E+02               0
GRID*             151214               0-1.250000000E+006.7195965390E+01+
*       -2.574324439E+02               0
GRID*             151215               0-1.250000000E+006.4129763523E+01+
*       -2.572897216E+02               0
GRID*             151216               0-1.250000000E+006.1030489314E+01+
*       -2.571604682E+02               0
GRID*             151217               0-1.250000000E+005.7892251046E+01+
*       -2.570554433E+02               0
GRID*             151218               0-1.250000000E+005.4711567522E+01+
*       -2.569959988E+02               0
GRID*             151219               0-1.250000000E+005.1502423656E+01+
*       -2.570213002E+02               0
GRID*             151220               0-1.250000000E+004.8328088244E+01+
*       -2.571748850E+02               0
GRID*             151221               0-1.250000000E+004.5222976624E+01+
*       -2.573463879E+02               0
GRID*             151222               0-1.250000000E+004.2166818135E+01+
*       -2.575015609E+02               0
GRID*             151223               0-1.250000000E+003.9137042706E+01+
*       -2.576377846E+02               0
GRID*             151224               0-1.250000000E+003.6119185362E+01+
*       -2.577596287E+02               0
GRID*             151225               0-1.250000000E+003.3105527137E+01+
*       -2.578719434E+02               0
GRID*             151226               0-1.250000000E+003.3055070528E+01+
*       -2.549240303E+02               0
GRID*             151227               0-1.250000000E+003.3009183989E+01+
*       -2.519821630E+02               0
GRID*             151228               0-1.250000000E+003.2974107994E+01+
*       -2.490458240E+02               0
GRID*             151229               0-1.250000000E+003.2956771649E+01+
*       -2.461116371E+02               0
GRID*             151230               0-1.250000000E+003.5908703726E+01+
*       -2.460637058E+02               0
GRID*             151231               0-1.250000000E+003.8832226805E+01+
*       -2.460184735E+02               0
GRID*             151232               0-1.250000000E+004.1715496887E+01+
*       -2.459806166E+02               0
GRID*             151233               0-1.250000000E+004.4536999531E+01+
*       -2.459626310E+02               0
GRID*             151234               0-1.250000000E+004.7258192225E+01+
*       -2.459970706E+02               0
GRID*             151235               0-1.250000000E+004.9834433286E+01+
*       -2.461761298E+02               0
GRID*             151236               0-1.250000000E+005.2374948357E+01+
*       -2.468807830E+02               0
GRID*             151237               0-1.250000000E+005.5394501885E+01+
*       -2.473148815E+02               0
GRID*             151238               0-1.250000000E+005.8484579679E+01+
*       -2.476230229E+02               0
GRID*             151239               0-1.250000000E+006.1562703296E+01+
*       -2.478729901E+02               0
GRID*             151240               0-1.250000000E+006.4614313747E+01+
*       -2.480935777E+02               0
GRID*             151241               0-1.250000000E+006.7637663214E+01+
*       -2.482975297E+02               0
GRID*             151242               0-1.250000000E+006.7457558764E+01+
*       -2.513404675E+02               0
GRID*             151243               0-1.250000000E+006.7310213148E+01+
*       -2.543877542E+02               0
GRID*             151244               0-1.250000000E+006.4248743478E+01+
*       -2.542238295E+02               0
GRID*             151245               0-1.250000000E+006.1147757653E+01+
*       -2.540644036E+02               0
GRID*             151246               0-1.250000000E+005.7992643624E+01+
*       -2.539159951E+02               0
GRID*             151247               0-1.250000000E+005.4758347541E+01+
*       -2.537987946E+02               0
GRID*             151248               0-1.250000000E+005.1426687281E+01+
*       -2.537836991E+02               0
GRID*             151249               0-1.250000000E+004.8175764235E+01+
*       -2.541111016E+02               0
GRID*             151250               0-1.250000000E+004.5079100158E+01+
*       -2.543667542E+02               0
GRID*             151251               0-1.250000000E+004.2051769862E+01+
*       -2.545526976E+02               0
GRID*             151252               0-1.250000000E+003.9049384335E+01+
*       -2.546967321E+02               0
GRID*             151253               0-1.250000000E+003.6053004680E+01+
*       -2.548168226E+02               0
GRID*             151254               0-1.250000000E+003.5988727110E+01+
*       -2.518871686E+02               0
GRID*             151255               0-1.250000000E+003.5936648759E+01+
*       -2.489712793E+02               0
GRID*             151256               0-1.250000000E+003.8876019662E+01+
*       -2.488912512E+02               0
GRID*             151257               0-1.250000000E+004.1781341497E+01+
*       -2.488011317E+02               0
GRID*             151258               0-1.250000000E+004.4624221442E+01+
*       -2.486940560E+02               0
GRID*             151259               0-1.250000000E+004.7315837804E+01+
*       -2.485621709E+02               0
GRID*             151260               0-1.250000000E+004.9574825490E+01+
*       -2.484099166E+02               0
GRID*             151261               0-1.250000000E+005.1280429219E+01+
*       -2.501872932E+02               0
GRID*             151262               0-1.250000000E+005.4913436959E+01+
*       -2.505142832E+02               0
GRID*             151263               0-1.250000000E+005.8179491067E+01+
*       -2.507532520E+02               0
GRID*             151264               0-1.250000000E+006.1325151821E+01+
*       -2.509612210E+02               0
GRID*             151265               0-1.250000000E+006.4411427625E+01+
*       -2.511548036E+02               0
GRID*             151266               0-1.250000000E+004.7893385424E+01+
*       -2.511157042E+02               0
GRID*             151267               0-1.250000000E+004.4876816371E+01+
*       -2.514591104E+02               0
GRID*             151268               0-1.250000000E+004.1916759273E+01+
*       -2.516487095E+02               0
GRID*             151269               0-1.250000000E+003.8958027699E+01+
*       -2.517811206E+02               0
GRID*             151270               0-1.250000000E+008.7567820077E+01+
*       -3.223688189E+02               0
GRID*             151271               0-1.250000000E+008.7649525064E+01+
*       -3.169348717E+02               0
GRID*             151272               0-1.250000000E+008.7727549504E+01+
*       -3.185207613E+02               0
GRID*             151273               0-1.250000000E+008.7601723679E+01+
*       -3.202579070E+02               0
GRID*             151274               0-1.250000000E+005.4749401563E+01+
*       -2.163970944E+02               0
GRID*             151275               0-1.250000000E+005.1616564089E+01+
*       -2.165020154E+02               0
GRID*             151276               0-1.250000000E+005.1628857811E+01+
*       -2.196292767E+02               0
GRID*             151277               0-1.250000000E+005.4814201553E+01+
*       -2.196139619E+02               0
GRID*             151278               0-1.250000000E+005.8192811497E+01+
*       -2.196005332E+02               0
GRID*             151279               0-1.250000000E+005.7971711475E+01+
*       -2.162305510E+02               0
GRID*             151280               0-1.250000000E+006.2143806025E+01+
*       -2.195875111E+02               0
GRID*             151281               0-1.250000000E+006.1260380999E+01+
*       -2.159047618E+02               0
GRID*             151282               0-1.250000000E+006.4967508018E+01+
*       -2.177945112E+02               0
GRID*             151283               0-1.250000000E+006.4241479010E+01+
*       -2.151638266E+02               0
GRID*             151284               0-1.250000000E+006.7430738587E+01+
*       -2.172662289E+02               0
GRID*             151285               0-1.250000000E+006.6989081003E+01+
*       -2.146855335E+02               0
GRID*             151286               0-1.250000000E+006.9978139842E+01+
*       -2.170271906E+02               0
GRID*             151287               0-1.250000000E+006.9692240349E+01+
*       -2.143977435E+02               0
GRID*             151288               0-1.250000000E+007.2629440282E+01+
*       -2.168858945E+02               0
GRID*             151289               0-1.250000000E+007.2407026733E+01+
*       -2.142203450E+02               0
GRID*             151290               0-1.250000000E+007.5335055136E+01+
*       -2.167695606E+02               0
GRID*             151291               0-1.250000000E+007.5125280597E+01+
*       -2.141083249E+02               0
GRID*             151292               0-1.250000000E+007.8015761372E+01+
*       -2.166432439E+02               0
GRID*             151293               0-1.250000000E+007.7805412060E+01+
*       -2.140504546E+02               0
GRID*             151294               0-1.250000000E+008.0524961629E+01+
*       -2.165081837E+02               0
GRID*             151295               0-1.250000000E+008.0373718789E+01+
*       -2.140832768E+02               0
GRID*             151296               0-1.250000000E+008.0839821370E+01+
*       -2.186737859E+02               0
GRID*             151297               0-1.250000000E+008.1361801544E+01+
*       -2.205361765E+02               0
GRID*             151298               0-1.250000000E+008.2134759437E+01+
*       -2.217894453E+02               0
GRID*             151299               0-1.250000000E+008.1381442535E+01+
*       -2.231886179E+02               0
GRID*             151300               0-1.250000000E+007.9057764026E+01+
*       -2.220331988E+02               0
GRID*             151301               0-1.250000000E+007.5693105763E+01+
*       -2.221688701E+02               0
GRID*             151302               0-1.250000000E+007.2776457748E+01+
*       -2.221760360E+02               0
GRID*             151303               0-1.250000000E+007.0043231286E+01+
*       -2.220937688E+02               0
GRID*             151304               0-1.250000000E+006.7459625928E+01+
*       -2.218822275E+02               0
GRID*             151305               0-1.250000000E+006.4979066307E+01+
*       -2.213677457E+02               0
GRID*             151306               0-1.250000000E+007.8358731186E+01+
*       -2.191974013E+02               0
GRID*             151307               0-1.250000000E+006.5989239798E+01+
*       -2.195764556E+02               0
GRID*             151308               0-1.250000000E+006.7787757854E+01+
*       -2.195687602E+02               0
GRID*             151309               0-1.250000000E+007.0148760374E+01+
*       -2.195512014E+02               0
GRID*             151310               0-1.250000000E+007.2775104353E+01+
*       -2.195088104E+02               0
GRID*             151311               0-1.250000000E+007.5538455198E+01+
*       -2.194129405E+02               0
GRID*             151312               0-1.250000000E+003.0696782662E+01+
*       -2.197412344E+02               0
GRID*             151313               0-1.250000000E+002.7730742542E+01+
*       -2.197428530E+02               0
GRID*             151314               0-1.250000000E+002.4661118008E+01+
*       -2.197503094E+02               0
GRID*             151315               0-1.250000000E+002.1165393387E+01+
*       -2.198065209E+02               0
GRID*             151316               0-1.250000000E+001.8716159832E+01+
*       -2.211804815E+02               0
GRID*             151317               0-1.250000000E+001.7982727336E+01+
*       -2.199059042E+02               0
GRID*             151318               0-1.250000000E+003.0871790022E+01+
*       -2.168634021E+02               0
GRID*             151319               0-1.250000000E+002.7968044433E+01+
*       -2.168812170E+02               0
GRID*             151320               0-1.250000000E+002.5055927041E+01+
*       -2.168760442E+02               0
GRID*             151321               0-1.250000000E+002.2142700467E+01+
*       -2.168133285E+02               0
GRID*             151322               0-1.250000000E+001.8849580955E+01+
*       -2.185731736E+02               0
GRID*             151323               0-1.250000000E+001.9576443067E+01+
*       -2.164759275E+02               0
GRID*             151324               0-1.250000000E+003.3645136382E+01+
*       -2.197337860E+02               0
GRID*             151325               0-1.250000000E+003.3777088026E+01+
*       -2.168335703E+02               0
GRID*             151326               0-1.250000000E+003.6589056546E+01+
*       -2.197214295E+02               0
GRID*             151327               0-1.250000000E+003.6689422411E+01+
*       -2.167959692E+02               0
GRID*             151328               0-1.250000000E+003.9540873736E+01+
*       -2.197049519E+02               0
GRID*             151329               0-1.250000000E+003.9615597724E+01+
*       -2.167519174E+02               0
GRID*             151330               0-1.250000000E+004.2509696395E+01+
*       -2.196859228E+02               0
GRID*             151331               0-1.250000000E+004.2562732334E+01+
*       -2.167017524E+02               0
GRID*             151332               0-1.250000000E+004.5504860840E+01+
*       -2.196660425E+02               0
GRID*             151333               0-1.250000000E+004.5538549864E+01+
*       -2.166451301E+02               0
GRID*             151334               0-1.250000000E+004.8538341460E+01+
*       -2.196468065E+02               0
GRID*             151335               0-1.250000000E+004.8552308503E+01+
*       -2.165802708E+02               0
GRID*             151336               0-1.250000000E+007.2734343716E+01+
*       -1.255585428E+02               0
GRID*             151337               0-1.250000000E+006.9959227751E+01+
*       -1.255107909E+02               0
GRID*             151338               0-1.250000000E+006.9684614734E+01+
*       -1.283098745E+02               0
GRID*             151339               0-1.250000000E+007.2499668106E+01+
*       -1.283959334E+02               0
GRID*             151340               0-1.250000000E+006.7225658281E+01+
*       -1.253325184E+02               0
GRID*             151341               0-1.250000000E+006.6862085486E+01+
*       -1.281376491E+02               0
GRID*             151342               0-1.250000000E+006.4458191232E+01+
*       -1.249521557E+02               0
GRID*             151343               0-1.250000000E+006.3988772430E+01+
*       -1.278658695E+02               0
GRID*             151344               0-1.250000000E+006.1459802909E+01+
*       -1.243263015E+02               0
GRID*             151345               0-1.250000000E+006.0999056912E+01+
*       -1.275369095E+02               0
GRID*             151346               0-1.250000000E+005.8169270820E+01+
*       -1.241175758E+02               0
GRID*             151347               0-1.250000000E+005.7896149944E+01+
*       -1.273251502E+02               0
GRID*             151348               0-1.250000000E+005.4950287893E+01+
*       -1.240410734E+02               0
GRID*             151349               0-1.250000000E+005.4783050240E+01+
*       -1.271952253E+02               0
GRID*             151350               0-1.250000000E+008.0962224903E+01+
*       -1.256337210E+02               0
GRID*             151351               0-1.250000000E+007.8429094267E+01+
*       -1.254643961E+02               0
GRID*             151352               0-1.250000000E+007.8119185252E+01+
*       -1.284172376E+02               0
GRID*             151353               0-1.250000000E+008.0843572424E+01+
*       -1.284095267E+02               0
GRID*             151354               0-1.250000000E+007.5568187239E+01+
*       -1.255241668E+02               0
GRID*             151355               0-1.250000000E+007.5318068678E+01+
*       -1.284218194E+02               0
GRID*             151356               0-1.250000000E+008.7621763617E+01+
*       -1.269465114E+02               0
GRID*             151357               0-1.250000000E+008.6212776527E+01+
*       -1.268732921E+02               0
GRID*             151358               0-1.250000000E+008.6082640455E+01+
*       -1.287899191E+02               0
GRID*             151359               0-1.250000000E+008.3609161053E+01+
*       -1.282023556E+02               0
GRID*             151360               0-1.250000000E+008.4765964550E+01+
*       -1.268085246E+02               0
GRID*             151361               0-1.250000000E+005.1814482735E+01+
*       -1.240034702E+02               0
GRID*             151362               0-1.250000000E+005.1695301712E+01+
*       -1.271066395E+02               0
GRID*             151363               0-1.250000000E+004.8737932339E+01+
*       -1.239721950E+02               0
GRID*             151364               0-1.250000000E+004.8637310994E+01+
*       -1.270340100E+02               0
GRID*             151365               0-1.250000000E+004.5700994682E+01+
*       -1.239336817E+02               0
GRID*             151366               0-1.250000000E+004.5604152971E+01+
*       -1.269625898E+02               0
GRID*             151367               0-1.250000000E+004.2690183974E+01+
*       -1.238815009E+02               0
GRID*             151368               0-1.250000000E+004.2589175463E+01+
*       -1.268834161E+02               0
GRID*             151369               0-1.250000000E+003.9695688557E+01+
*       -1.238115377E+02               0
GRID*             151370               0-1.250000000E+003.9585977527E+01+
*       -1.267902173E+02               0
GRID*             151371               0-1.250000000E+003.6709588107E+01+
*       -1.237205785E+02               0
GRID*             151372               0-1.250000000E+003.6588921779E+01+
*       -1.266777718E+02               0
GRID*             151373               0-1.250000000E+003.3724917741E+01+
*       -1.236058523E+02               0
GRID*             151374               0-1.250000000E+003.3593763041E+01+
*       -1.265409408E+02               0
GRID*             151375               0-1.250000000E+003.0735470871E+01+
*       -1.234654441E+02               0
GRID*             151376               0-1.250000000E+003.0599490803E+01+
*       -1.263740953E+02               0
GRID*             151377               0-1.250000000E+002.7737294885E+01+
*       -1.233009682E+02               0
GRID*             151378               0-1.250000000E+002.7613520446E+01+
*       -1.261712713E+02               0
GRID*             151379               0-1.250000000E+002.4726971262E+01+
*       -1.231280248E+02               0
GRID*             151380               0-1.250000000E+002.4665040424E+01+
*       -1.259288978E+02               0
GRID*             151381               0-1.250000000E+002.1746364266E+01+
*       -1.230147216E+02               0
GRID*             151382               0-1.250000000E+002.1843604980E+01+
*       -1.256569186E+02               0
GRID*             151383               0-1.250000000E+001.9191825288E+01+
*       -1.232341703E+02               0
GRID*             151384               0-1.250000000E+001.9356719708E+01+
*       -1.254070033E+02               0
GRID*             151385               0-1.250000000E+008.5905940196E+01+
*       -1.316901521E+02               0
GRID*             151386               0-1.250000000E+008.5765257086E+01+
*       -1.347481982E+02               0
GRID*             151387               0-1.250000000E+008.5651110483E+01+
*       -1.378166284E+02               0
GRID*             151388               0-1.250000000E+008.5555089782E+01+
*       -1.408802851E+02               0
GRID*             151389               0-1.250000000E+008.5472568908E+01+
*       -1.439399984E+02               0
GRID*             151390               0-1.250000000E+008.5400843491E+01+
*       -1.469973447E+02               0
GRID*             151391               0-1.250000000E+008.5338114927E+01+
*       -1.500534118E+02               0
GRID*             151392               0-1.250000000E+008.5283069152E+01+
*       -1.531090197E+02               0
GRID*             151393               0-1.250000000E+008.5234733064E+01+
*       -1.561649079E+02               0
GRID*             151394               0-1.250000000E+008.5192458291E+01+
*       -1.592218013E+02               0
GRID*             151395               0-1.250000000E+008.5155960628E+01+
*       -1.622803898E+02               0
GRID*             151396               0-1.250000000E+008.5125371349E+01+
*       -1.653412509E+02               0
GRID*             151397               0-1.250000000E+008.5101261232E+01+
*       -1.684047298E+02               0
GRID*             151398               0-1.250000000E+008.5084594369E+01+
*       -1.714708062E+02               0
GRID*             151399               0-1.250000000E+008.5076571047E+01+
*       -1.745389917E+02               0
GRID*             151400               0-1.250000000E+008.5078347481E+01+
*       -1.776083337E+02               0
GRID*             151401               0-1.250000000E+008.5090709574E+01+
*       -1.806775784E+02               0
GRID*             151402               0-1.250000000E+008.5113891821E+01+
*       -1.837454829E+02               0
GRID*             151403               0-1.250000000E+008.5147698497E+01+
*       -1.868111324E+02               0
GRID*             151404               0-1.250000000E+008.5191744859E+01+
*       -1.898741024E+02               0
GRID*             151405               0-1.250000000E+008.5245567557E+01+
*       -1.929344576E+02               0
GRID*             151406               0-1.250000000E+008.5308756066E+01+
*       -1.959926238E+02               0
GRID*             151407               0-1.250000000E+008.5381551271E+01+
*       -1.990491767E+02               0
GRID*             151408               0-1.250000000E+008.5465962243E+01+
*       -2.021046982E+02               0
GRID*             151409               0-1.250000000E+008.5567263236E+01+
*       -2.051583251E+02               0
GRID*             151410               0-1.250000000E+008.5696647957E+01+
*       -2.081918303E+02               0
GRID*             151411               0-1.250000000E+008.5869406844E+01+
*       -2.110643028E+02               0
GRID*             151412               0-1.250000000E+008.3004848275E+01+
*       -2.083604256E+02               0
GRID*             151413               0-1.250000000E+008.3282515650E+01+
*       -2.116309024E+02               0
GRID*             151414               0-1.250000000E+008.0230842731E+01+
*       -2.083690227E+02               0
GRID*             151415               0-1.250000000E+008.0396211679E+01+
*       -2.113508167E+02               0
GRID*             151416               0-1.250000000E+007.7458178170E+01+
*       -2.083960779E+02               0
GRID*             151417               0-1.250000000E+007.7648224140E+01+
*       -2.112920913E+02               0
GRID*             151418               0-1.250000000E+007.4678363696E+01+
*       -2.084705718E+02               0
GRID*             151419               0-1.250000000E+007.4903807678E+01+
*       -2.113369497E+02               0
GRID*             151420               0-1.250000000E+007.1885004350E+01+
*       -2.085971593E+02               0
GRID*             151421               0-1.250000000E+007.2145541842E+01+
*       -2.114520636E+02               0
GRID*             151422               0-1.250000000E+006.9074602382E+01+
*       -2.087793921E+02               0
GRID*             151423               0-1.250000000E+006.9375817382E+01+
*       -2.116370284E+02               0
GRID*             151424               0-1.250000000E+006.6238566931E+01+
*       -2.090204383E+02               0
GRID*             151425               0-1.250000000E+006.6585905428E+01+
*       -2.119069843E+02               0
GRID*             151426               0-1.250000000E+006.3359186529E+01+
*       -2.093145192E+02               0
GRID*             151427               0-1.250000000E+006.3739264321E+01+
*       -2.122754095E+02               0
GRID*             151428               0-1.250000000E+006.0417598004E+01+
*       -2.096309260E+02               0
GRID*             151429               0-1.250000000E+006.0773652791E+01+
*       -2.127071541E+02               0
GRID*             151430               0-1.250000000E+005.7421489319E+01+
*       -2.099090829E+02               0
GRID*             151431               0-1.250000000E+005.7690273072E+01+
*       -2.130208313E+02               0
GRID*             151432               0-1.250000000E+005.4409788097E+01+
*       -2.101384950E+02               0
GRID*             151433               0-1.250000000E+005.4596358982E+01+
*       -2.132387864E+02               0
GRID*             151434               0-1.250000000E+005.1410611404E+01+
*       -2.103280621E+02               0
GRID*             151435               0-1.250000000E+005.1534918330E+01+
*       -2.133986682E+02               0
GRID*             151436               0-1.250000000E+004.8437804834E+01+
*       -2.104888960E+02               0
GRID*             151437               0-1.250000000E+004.8515001864E+01+
*       -2.135249266E+02               0
GRID*             151438               0-1.250000000E+004.5496611669E+01+
*       -2.106290844E+02               0
GRID*             151439               0-1.250000000E+004.5534652588E+01+
*       -2.136307571E+02               0
GRID*             151440               0-1.250000000E+004.2588012226E+01+
*       -2.107532063E+02               0
GRID*             151441               0-1.250000000E+004.2589254569E+01+
*       -2.137226949E+02               0
GRID*             151442               0-1.250000000E+003.9710874132E+01+
*       -2.108632445E+02               0
GRID*             151443               0-1.250000000E+003.9673782300E+01+
*       -2.138037172E+02               0
GRID*             151444               0-1.250000000E+003.6863075927E+01+
*       -2.109597139E+02               0
GRID*             151445               0-1.250000000E+003.6783342680E+01+
*       -2.138750800E+02               0
GRID*             151446               0-1.250000000E+003.4042813795E+01+
*       -2.110422493E+02               0
GRID*             151447               0-1.250000000E+003.3913832945E+01+
*       -2.139370118E+02               0
GRID*             151448               0-1.250000000E+003.1250962381E+01+
*       -2.111091657E+02               0
GRID*             151449               0-1.250000000E+003.1063714970E+01+
*       -2.139880402E+02               0
GRID*             151450               0-1.250000000E+002.8494078257E+01+
*       -2.111563468E+02               0
GRID*             151451               0-1.250000000E+002.8237187581E+01+
*       -2.140230626E+02               0
GRID*             151452               0-1.250000000E+002.5786374498E+01+
*       -2.111768881E+02               0
GRID*             151453               0-1.250000000E+002.5447618312E+01+
*       -2.140312518E+02               0
GRID*             151454               0-1.250000000E+002.3151020501E+01+
*       -2.111637440E+02               0
GRID*             151455               0-1.250000000E+002.2729772940E+01+
*       -2.139945268E+02               0
GRID*             151456               0-1.250000000E+002.0619411941E+01+
*       -2.111182883E+02               0
GRID*             151457               0-1.250000000E+002.0180864055E+01+
*       -2.138850096E+02               0
GRID*             151458               0-1.250000000E+001.8195555766E+01+
*       -2.110831889E+02               0
GRID*             151459               0-1.250000000E+001.5865066352E+01+
*       -2.110697231E+02               0
GRID*             151460               0-1.250000000E+001.3603632672E+01+
*       -2.110429058E+02               0
GRID*             151461               0-1.250000000E+001.3735580977E+01+
*       -2.080877122E+02               0
GRID*             151462               0-1.250000000E+001.3864818631E+01+
*       -2.051104454E+02               0
GRID*             151463               0-1.250000000E+001.3983725542E+01+
*       -2.021187034E+02               0
GRID*             151464               0-1.250000000E+001.4092755175E+01+
*       -1.991211482E+02               0
GRID*             151465               0-1.250000000E+001.4195316857E+01+
*       -1.961221298E+02               0
GRID*             151466               0-1.250000000E+001.4295233947E+01+
*       -1.931214617E+02               0
GRID*             151467               0-1.250000000E+001.4394727920E+01+
*       -1.901157025E+02               0
GRID*             151468               0-1.250000000E+001.4493110049E+01+
*       -1.870999713E+02               0
GRID*             151469               0-1.250000000E+001.4586595872E+01+
*       -1.840704642E+02               0
GRID*             151470               0-1.250000000E+001.4670232851E+01+
*       -1.810268122E+02               0
GRID*             151471               0-1.250000000E+001.4741117390E+01+
*       -1.779718556E+02               0
GRID*             151472               0-1.250000000E+001.4798506895E+01+
*       -1.749094917E+02               0
GRID*             151473               0-1.250000000E+001.4843206698E+01+
*       -1.718434177E+02               0
GRID*             151474               0-1.250000000E+001.4877144176E+01+
*       -1.687765629E+02               0
GRID*             151475               0-1.250000000E+001.4902735122E+01+
*       -1.657107565E+02               0
GRID*             151476               0-1.250000000E+001.4922305306E+01+
*       -1.626466789E+02               0
GRID*             151477               0-1.250000000E+001.4937738705E+01+
*       -1.595839851E+02               0
GRID*             151478               0-1.250000000E+001.4950333915E+01+
*       -1.565214342E+02               0
GRID*             151479               0-1.250000000E+001.4960766497E+01+
*       -1.534569006E+02               0
GRID*             151480               0-1.250000000E+001.4969024878E+01+
*       -1.503871797E+02               0
GRID*             151481               0-1.250000000E+001.4974038884E+01+
*       -1.473072983E+02               0
GRID*             151482               0-1.250000000E+001.4972676874E+01+
*       -1.442088929E+02               0
GRID*             151483               0-1.250000000E+001.4958109649E+01+
*       -1.410776949E+02               0
GRID*             151484               0-1.250000000E+001.4916214243E+01+
*       -1.378904732E+02               0
GRID*             151485               0-1.250000000E+001.4812751215E+01+
*       -1.346140981E+02               0
GRID*             151486               0-1.250000000E+001.4549764711E+01+
*       -1.312431229E+02               0
GRID*             151487               0-1.250000000E+001.3853339042E+01+
*       -1.282399216E+02               0
GRID*             151488               0-1.250000000E+001.5933289079E+01+
*       -1.276162627E+02               0
GRID*             151489               0-1.250000000E+001.7425729861E+01+
*       -1.267259984E+02               0
GRID*             151490               0-1.250000000E+001.9104006661E+01+
*       -1.276745128E+02               0
GRID*             151491               0-1.250000000E+002.1643906862E+01+
*       -1.283443811E+02               0
GRID*             151492               0-1.250000000E+002.4510704508E+01+
*       -1.287838626E+02               0
GRID*             151493               0-1.250000000E+002.7476702385E+01+
*       -1.290918106E+02               0
GRID*             151494               0-1.250000000E+003.0470994726E+01+
*       -1.293246892E+02               0
GRID*             151495               0-1.250000000E+003.3471476267E+01+
*       -1.295100266E+02               0
GRID*             151496               0-1.250000000E+003.6472264625E+01+
*       -1.296623530E+02               0
GRID*             151497               0-1.250000000E+003.9473675564E+01+
*       -1.297906469E+02               0
GRID*             151498               0-1.250000000E+004.2478478395E+01+
*       -1.299016134E+02               0
GRID*             151499               0-1.250000000E+004.5490238634E+01+
*       -1.300013520E+02               0
GRID*             151500               0-1.250000000E+004.8512333650E+01+
*       -1.300964944E+02               0
GRID*             151501               0-1.250000000E+005.1546852785E+01+
*       -1.301952646E+02               0
GRID*             151502               0-1.250000000E+005.4592478949E+01+
*       -1.303085261E+02               0
GRID*             151503               0-1.250000000E+005.7640209180E+01+
*       -1.304499573E+02               0
GRID*             151504               0-1.250000000E+006.0667274588E+01+
*       -1.306322985E+02               0
GRID*             151505               0-1.250000000E+006.3638165391E+01+
*       -1.308517809E+02               0
GRID*             151506               0-1.250000000E+006.6546105109E+01+
*       -1.310523072E+02               0
GRID*             151507               0-1.250000000E+006.9411310898E+01+
*       -1.312036168E+02               0
GRID*             151508               0-1.250000000E+007.2252155009E+01+
*       -1.313034409E+02               0
GRID*             151509               0-1.250000000E+007.5072943669E+01+
*       -1.313644959E+02               0
GRID*             151510               0-1.250000000E+007.7862929438E+01+
*       -1.314061601E+02               0
GRID*             151511               0-1.250000000E+008.0603317045E+01+
*       -1.314478469E+02               0
GRID*             151512               0-1.250000000E+008.3298865925E+01+
*       -1.314971574E+02               0
GRID*             151513               0-1.250000000E+008.3100813812E+01+
*       -1.346038591E+02               0
GRID*             151514               0-1.250000000E+008.2942558030E+01+
*       -1.376792137E+02               0
GRID*             151515               0-1.250000000E+008.2808476710E+01+
*       -1.407466362E+02               0
GRID*             151516               0-1.250000000E+008.2692295826E+01+
*       -1.438113224E+02               0
GRID*             151517               0-1.250000000E+008.2590535843E+01+
*       -1.468749092E+02               0
GRID*             151518               0-1.250000000E+008.2500825906E+01+
*       -1.499382558E+02               0
GRID*             151519               0-1.250000000E+008.2421388613E+01+
*       -1.530021209E+02               0
GRID*             151520               0-1.250000000E+008.2350897168E+01+
*       -1.560673519E+02               0
GRID*             151521               0-1.250000000E+008.2288486851E+01+
*       -1.591349091E+02               0
GRID*             151522               0-1.250000000E+008.2233841570E+01+
*       -1.622057997E+02               0
GRID*             151523               0-1.250000000E+008.2187306319E+01+
*       -1.652809346E+02               0
GRID*             151524               0-1.250000000E+008.2149971424E+01+
*       -1.683609106E+02               0
GRID*             151525               0-1.250000000E+008.2123649890E+01+
*       -1.714457284E+02               0
GRID*             151526               0-1.250000000E+008.2110625918E+01+
*       -1.745345407E+02               0
GRID*             151527               0-1.250000000E+008.2113086938E+01+
*       -1.776255620E+02               0
GRID*             151528               0-1.250000000E+008.2132373774E+01+
*       -1.807163220E+02               0
GRID*             151529               0-1.250000000E+008.2168506914E+01+
*       -1.838043142E+02               0
GRID*             151530               0-1.250000000E+008.2220549802E+01+
*       -1.868876693E+02               0
GRID*             151531               0-1.250000000E+008.2287255542E+01+
*       -1.899654139E+02               0
GRID*             151532               0-1.250000000E+008.2367469049E+01+
*       -1.930373054E+02               0
GRID*             151533               0-1.250000000E+008.2460393874E+01+
*       -1.961034184E+02               0
GRID*             151534               0-1.250000000E+008.2566126479E+01+
*       -1.991637783E+02               0
GRID*             151535               0-1.250000000E+008.2686557630E+01+
*       -2.022188472E+02               0
GRID*             151536               0-1.250000000E+008.2827114786E+01+
*       -2.052731765E+02               0
GRID*             151537               0-1.250000000E+008.0052863934E+01+
*       -2.053514422E+02               0
GRID*             151538               0-1.250000000E+007.7261479719E+01+
*       -2.054300368E+02               0
GRID*             151539               0-1.250000000E+007.4455809063E+01+
*       -2.055331056E+02               0
GRID*             151540               0-1.250000000E+007.1634769293E+01+
*       -2.056719095E+02               0
GRID*             151541               0-1.250000000E+006.8796065269E+01+
*       -2.058514451E+02               0
GRID*             151542               0-1.250000000E+006.5935041444E+01+
*       -2.060716734E+02               0
GRID*             151543               0-1.250000000E+006.3044806813E+01+
*       -2.063247623E+02               0
GRID*             151544               0-1.250000000E+006.0120989225E+01+
*       -2.065917118E+02               0
GRID*             151545               0-1.250000000E+005.7170335523E+01+
*       -2.068467703E+02               0
GRID*             151546               0-1.250000000E+005.4210772798E+01+
*       -2.070784822E+02               0
GRID*             151547               0-1.250000000E+005.1259578609E+01+
*       -2.072861112E+02               0
GRID*             151548               0-1.250000000E+004.8329053458E+01+
*       -2.074730621E+02               0
GRID*             151549               0-1.250000000E+004.5426857831E+01+
*       -2.076427225E+02               0
GRID*             151550               0-1.250000000E+004.2557251446E+01+
*       -2.077966460E+02               0
GRID*             151551               0-1.250000000E+003.9721959627E+01+
*       -2.079343634E+02               0
GRID*             151552               0-1.250000000E+003.6920845984E+01+
*       -2.080541623E+02               0
GRID*             151553               0-1.250000000E+003.4153013972E+01+
*       -2.081538344E+02               0
GRID*             151554               0-1.250000000E+003.1418904728E+01+
*       -2.082308469E+02               0
GRID*             151555               0-1.250000000E+002.8722637098E+01+
*       -2.082821043E+02               0
GRID*             151556               0-1.250000000E+002.6072830829E+01+
*       -2.083040588E+02               0
GRID*             151557               0-1.250000000E+002.3481049879E+01+
*       -2.082944590E+02               0
GRID*             151558               0-1.250000000E+002.0957586702E+01+
*       -2.082566189E+02               0
GRID*             151559               0-1.250000000E+001.8501779750E+01+
*       -2.082043844E+02               0
GRID*             151560               0-1.250000000E+001.6101686894E+01+
*       -2.081454520E+02               0
GRID*             151561               0-1.250000000E+001.6296118450E+01+
*       -2.052026605E+02               0
GRID*             151562               0-1.250000000E+001.6466316048E+01+
*       -2.022385052E+02               0
GRID*             151563               0-1.250000000E+001.6620728218E+01+
*       -1.992668193E+02               0
GRID*             151564               0-1.250000000E+001.6767372781E+01+
*       -1.962941268E+02               0
GRID*             151565               0-1.250000000E+001.6913414705E+01+
*       -1.933199439E+02               0
GRID*             151566               0-1.250000000E+001.7063350912E+01+
*       -1.903381238E+02               0
GRID*             151567               0-1.250000000E+001.7216538165E+01+
*       -1.873389701E+02               0
GRID*             151568               0-1.250000000E+001.7365154289E+01+
*       -1.843143169E+02               0
GRID*             151569               0-1.250000000E+001.7497783897E+01+
*       -1.812636465E+02               0
GRID*             151570               0-1.250000000E+001.7608946028E+01+
*       -1.781934607E+02               0
GRID*             151571               0-1.250000000E+001.7697613043E+01+
*       -1.751113084E+02               0
GRID*             151572               0-1.250000000E+001.7765286542E+01+
*       -1.720238178E+02               0
GRID*             151573               0-1.250000000E+001.7815560970E+01+
*       -1.689360987E+02               0
GRID*             151574               0-1.250000000E+001.7852837928E+01+
*       -1.658511720E+02               0
GRID*             151575               0-1.250000000E+001.7881189623E+01+
*       -1.627700283E+02               0
GRID*             151576               0-1.250000000E+001.7903792270E+01+
*       -1.596920356E+02               0
GRID*             151577               0-1.250000000E+001.7922803586E+01+
*       -1.566153247E+02               0
GRID*             151578               0-1.250000000E+001.7939441756E+01+
*       -1.535369618E+02               0
GRID*             151579               0-1.250000000E+001.7954056163E+01+
*       -1.504527862E+02               0
GRID*             151580               0-1.250000000E+001.7965941526E+01+
*       -1.473565776E+02               0
GRID*             151581               0-1.250000000E+001.7972799249E+01+
*       -1.442380626E+02               0
GRID*             151582               0-1.250000000E+001.7970120283E+01+
*       -1.410789410E+02               0
GRID*             151583               0-1.250000000E+001.7949718417E+01+
*       -1.378423471E+02               0
GRID*             151584               0-1.250000000E+001.7891844637E+01+
*       -1.344306958E+02               0
GRID*             151585               0-1.250000000E+001.7717695091E+01+
*       -1.304366966E+02               0
GRID*             151586               0-1.250000000E+002.1171011292E+01+
*       -1.313257469E+02               0
GRID*             151587               0-1.250000000E+002.4285936904E+01+
*       -1.317856865E+02               0
GRID*             151588               0-1.250000000E+002.7325855568E+01+
*       -1.320936808E+02               0
GRID*             151589               0-1.250000000E+003.0344314268E+01+
*       -1.323268506E+02               0
GRID*             151590               0-1.250000000E+003.3353709699E+01+
*       -1.325152925E+02               0
GRID*             151591               0-1.250000000E+003.6357992515E+01+
*       -1.326737074E+02               0
GRID*             151592               0-1.250000000E+003.9359821601E+01+
*       -1.328109238E+02               0
GRID*             151593               0-1.250000000E+004.2361798235E+01+
*       -1.329334428E+02               0
GRID*             151594               0-1.250000000E+004.5366295670E+01+
*       -1.330470124E+02               0
GRID*             151595               0-1.250000000E+004.8374905762E+01+
*       -1.331574588E+02               0
GRID*             151596               0-1.250000000E+005.1387609564E+01+
*       -1.332711407E+02               0
GRID*             151597               0-1.250000000E+005.4401521929E+01+
*       -1.333949476E+02               0
GRID*             151598               0-1.250000000E+005.7409249624E+01+
*       -1.335352712E+02               0
GRID*             151599               0-1.250000000E+006.0398027561E+01+
*       -1.336948283E+02               0
GRID*             151600               0-1.250000000E+006.3353161722E+01+
*       -1.338664823E+02               0
GRID*             151601               0-1.250000000E+006.6269654553E+01+
*       -1.340281960E+02               0
GRID*             151602               0-1.250000000E+006.9152651383E+01+
*       -1.341638730E+02               0
GRID*             151603               0-1.250000000E+007.2008046247E+01+
*       -1.342701511E+02               0
GRID*             151604               0-1.250000000E+007.4836124360E+01+
*       -1.343540961E+02               0
GRID*             151605               0-1.250000000E+007.7630869905E+01+
*       -1.344289833E+02               0
GRID*             151606               0-1.250000000E+008.0384134857E+01+
*       -1.345103785E+02               0
GRID*             151607               0-1.250000000E+008.0199074112E+01+
*       -1.375682487E+02               0
GRID*             151608               0-1.250000000E+008.0036847823E+01+
*       -1.406293073E+02               0
GRID*             151609               0-1.250000000E+007.9893939277E+01+
*       -1.436927729E+02               0
GRID*             151610               0-1.250000000E+007.9767362977E+01+
*       -1.467581466E+02               0
GRID*             151611               0-1.250000000E+007.9654628445E+01+
*       -1.498253472E+02               0
GRID*             151612               0-1.250000000E+007.9553683881E+01+
*       -1.528947481E+02               0
GRID*             151613               0-1.250000000E+007.9462929693E+01+
*       -1.559671450E+02               0
GRID*             151614               0-1.250000000E+007.9381312189E+01+
*       -1.590436822E+02               0
GRID*             151615               0-1.250000000E+007.9308489683E+01+
*       -1.621257313E+02               0
GRID*             151616               0-1.250000000E+007.9245054545E+01+
*       -1.652146855E+02               0
GRID*             151617               0-1.250000000E+007.9192769797E+01+
*       -1.683116067E+02               0
GRID*             151618               0-1.250000000E+007.9154679680E+01+
*       -1.714167284E+02               0
GRID*             151619               0-1.250000000E+007.9134804318E+01+
*       -1.745288866E+02               0
GRID*             151620               0-1.250000000E+007.9137159836E+01+
*       -1.776451259E+02               0
GRID*             151621               0-1.250000000E+007.9164058751E+01+
*       -1.807609243E+02               0
GRID*             151622               0-1.250000000E+007.9214788299E+01+
*       -1.838715971E+02               0
GRID*             151623               0-1.250000000E+007.9286749160E+01+
*       -1.869738023E+02               0
GRID*             151624               0-1.250000000E+007.9377051135E+01+
*       -1.900658816E+02               0
GRID*             151625               0-1.250000000E+007.9483374795E+01+
*       -1.931472692E+02               0
GRID*             151626               0-1.250000000E+007.9604223821E+01+
*       -1.962175422E+02               0
GRID*             151627               0-1.250000000E+007.9739008446E+01+
*       -1.992755613E+02               0
GRID*             151628               0-1.250000000E+007.9887917174E+01+
*       -2.023191654E+02               0
GRID*             151629               0-1.250000000E+007.7073078939E+01+
*       -2.024242984E+02               0
GRID*             151630               0-1.250000000E+007.4243360301E+01+
*       -2.025464789E+02               0
GRID*             151631               0-1.250000000E+007.1398754658E+01+
*       -2.026949011E+02               0
GRID*             151632               0-1.250000000E+006.8538594524E+01+
*       -2.028739880E+02               0
GRID*             151633               0-1.250000000E+006.5661596993E+01+
*       -2.030833084E+02               0
GRID*             151634               0-1.250000000E+006.2766470579E+01+
*       -2.033168119E+02               0
GRID*             151635               0-1.250000000E+005.9854018324E+01+
*       -2.035628833E+02               0
GRID*             151636               0-1.250000000E+005.6929834060E+01+
*       -2.038078473E+02               0
GRID*             151637               0-1.250000000E+005.4004140344E+01+
*       -2.040429709E+02               0
GRID*             151638               0-1.250000000E+005.1088301801E+01+
*       -2.042651648E+02               0
GRID*             151639               0-1.250000000E+004.8192649995E+01+
*       -2.044745980E+02               0
GRID*             151640               0-1.250000000E+004.5325779292E+01+
*       -2.046717877E+02               0
GRID*             151641               0-1.250000000E+004.2494184236E+01+
*       -2.048553808E+02               0
GRID*             151642               0-1.250000000E+003.9701786805E+01+
*       -2.050215193E+02               0
GRID*             151643               0-1.250000000E+003.6949600466E+01+
*       -2.051649564E+02               0
GRID*             151644               0-1.250000000E+003.4236201500E+01+
*       -2.052803211E+02               0
GRID*             151645               0-1.250000000E+003.1559332891E+01+
*       -2.053631847E+02               0
GRID*             151646               0-1.250000000E+002.8918064479E+01+
*       -2.054109877E+02               0
GRID*             151647               0-1.250000000E+002.6314044168E+01+
*       -2.054234089E+02               0
GRID*             151648               0-1.250000000E+002.3750551462E+01+
*       -2.054019982E+02               0
GRID*             151649               0-1.250000000E+002.1229504785E+01+
*       -2.053510681E+02               0
GRID*             151650               0-1.250000000E+001.8747865081E+01+
*       -2.052781947E+02               0
GRID*             151651               0-1.250000000E+001.8954987980E+01+
*       -2.023431319E+02               0
GRID*             151652               0-1.250000000E+001.9142692020E+01+
*       -1.994020493E+02               0
GRID*             151653               0-1.250000000E+001.9323504786E+01+
*       -1.964634497E+02               0
GRID*             151654               0-1.250000000E+001.9509082126E+01+
*       -1.935265720E+02               0
GRID*             151655               0-1.250000000E+001.9708727876E+01+
*       -1.905811921E+02               0
GRID*             151656               0-1.250000000E+001.9923712516E+01+
*       -1.876088443E+02               0
GRID*             151657               0-1.250000000E+002.0139259530E+01+
*       -1.845919772E+02               0
GRID*             151658               0-1.250000000E+002.0328754757E+01+
*       -1.815298846E+02               0
GRID*             151659               0-1.250000000E+002.0484170478E+01+
*       -1.784377531E+02               0
GRID*             151660               0-1.250000000E+002.0605479671E+01+
*       -1.753291249E+02               0
GRID*             151661               0-1.250000000E+002.0695082811E+01+
*       -1.722145787E+02               0
GRID*             151662               0-1.250000000E+002.0759311828E+01+
*       -1.691021832E+02               0
GRID*             151663               0-1.250000000E+002.0805679990E+01+
*       -1.659962288E+02               0
GRID*             151664               0-1.250000000E+002.0840693787E+01+
*       -1.628976743E+02               0
GRID*             151665               0-1.250000000E+002.0869099934E+01+
*       -1.598052336E+02               0
GRID*             151666               0-1.250000000E+002.0893979498E+01+
*       -1.567162524E+02               0
GRID*             151667               0-1.250000000E+002.0917116416E+01+
*       -1.536271542E+02               0
GRID*             151668               0-1.250000000E+002.0939345758E+01+
*       -1.505334441E+02               0
GRID*             151669               0-1.250000000E+002.0960749907E+01+
*       -1.474291476E+02               0
GRID*             151670               0-1.250000000E+002.0980885939E+01+
*       -1.443056477E+02               0
GRID*             151671               0-1.250000000E+002.0999781530E+01+
*       -1.411502065E+02               0
GRID*             151672               0-1.250000000E+002.1020899529E+01+
*       -1.379446142E+02               0
GRID*             151673               0-1.250000000E+002.1059987358E+01+
*       -1.346674367E+02               0
GRID*             151674               0-1.250000000E+002.4156510365E+01+
*       -1.349351759E+02               0
GRID*             151675               0-1.250000000E+002.7206951440E+01+
*       -1.351728177E+02               0
GRID*             151676               0-1.250000000E+003.0232777539E+01+
*       -1.353769699E+02               0
GRID*             151677               0-1.250000000E+003.3244855377E+01+
*       -1.355536427E+02               0
GRID*             151678               0-1.250000000E+003.6248628610E+01+
*       -1.357090266E+02               0
GRID*             151679               0-1.250000000E+003.9247385433E+01+
*       -1.358484303E+02               0
GRID*             151680               0-1.250000000E+004.2243494039E+01+
*       -1.359765849E+02               0
GRID*             151681               0-1.250000000E+004.5238620066E+01+
*       -1.360980067E+02               0
GRID*             151682               0-1.250000000E+004.8233491097E+01+
*       -1.362172002E+02               0
GRID*             151683               0-1.250000000E+005.1227435997E+01+
*       -1.363386370E+02               0
GRID*             151684               0-1.250000000E+005.4217811791E+01+
*       -1.364663842E+02               0
GRID*             151685               0-1.250000000E+005.7199556667E+01+
*       -1.366031524E+02               0
GRID*             151686               0-1.250000000E+006.0165515897E+01+
*       -1.367485940E+02               0
GRID*             151687               0-1.250000000E+006.3108508308E+01+
*       -1.368973617E+02               0
GRID*             151688               0-1.250000000E+006.6024920493E+01+
*       -1.370393580E+02               0
GRID*             151689               0-1.250000000E+006.8914875436E+01+
*       -1.371666022E+02               0
GRID*             151690               0-1.250000000E+007.1778997080E+01+
*       -1.372773640E+02               0
GRID*             151691               0-1.250000000E+007.4615800982E+01+
*       -1.373762906E+02               0
GRID*             151692               0-1.250000000E+007.7421611441E+01+
*       -1.374723508E+02               0
GRID*             151693               0-1.250000000E+007.7238744105E+01+
*       -1.405226290E+02               0
GRID*             151694               0-1.250000000E+007.7075376665E+01+
*       -1.435810748E+02               0
GRID*             151695               0-1.250000000E+007.6929064656E+01+
*       -1.466450292E+02               0
GRID*             151696               0-1.250000000E+007.6797326928E+01+
*       -1.497132941E+02               0
GRID*             151697               0-1.250000000E+007.6677901995E+01+
*       -1.527857309E+02               0
GRID*             151698               0-1.250000000E+007.6568914760E+01+
*       -1.558630147E+02               0
GRID*             151699               0-1.250000000E+007.6469053909E+01+
*       -1.589464800E+02               0
GRID*             151700               0-1.250000000E+007.6377828966E+01+
*       -1.620379803E+02               0
GRID*             151701               0-1.250000000E+007.6295960087E+01+
*       -1.651396553E+02               0
GRID*             151702               0-1.250000000E+007.6225900344E+01+
*       -1.682534864E+02               0
GRID*             151703               0-1.250000000E+007.6172296280E+01+
*       -1.713805243E+02               0
GRID*             151704               0-1.250000000E+007.6141966108E+01+
*       -1.745197691E+02               0
GRID*             151705               0-1.250000000E+007.6142454276E+01+
*       -1.776667216E+02               0
GRID*             151706               0-1.250000000E+007.6178240176E+01+
*       -1.808131298E+02               0
GRID*             151707               0-1.250000000E+007.6246614533E+01+
*       -1.839503685E+02               0
GRID*             151708               0-1.250000000E+007.6341523405E+01+
*       -1.870730513E+02               0
GRID*             151709               0-1.250000000E+007.6457290945E+01+
*       -1.901791394E+02               0
GRID*             151710               0-1.250000000E+007.6589985265E+01+
*       -1.932682846E+02               0
GRID*             151711               0-1.250000000E+007.6737345018E+01+
*       -1.963400200E+02               0
GRID*             151712               0-1.250000000E+007.6898235010E+01+
*       -1.993923493E+02               0
GRID*             151713               0-1.250000000E+007.4044165474E+01+
*       -1.995251553E+02               0
GRID*             151714               0-1.250000000E+007.1177197462E+01+
*       -1.996800071E+02               0
GRID*             151715               0-1.250000000E+006.8297874809E+01+
*       -1.998604752E+02               0
GRID*             151716               0-1.250000000E+006.5407302268E+01+
*       -2.000664338E+02               0
GRID*             151717               0-1.250000000E+006.2507280472E+01+
*       -2.002936007E+02               0
GRID*             151718               0-1.250000000E+005.9600755756E+01+
*       -2.005340723E+02               0
GRID*             151719               0-1.250000000E+005.6692421712E+01+
*       -2.007787303E+02               0
GRID*             151720               0-1.250000000E+005.3788854704E+01+
*       -2.010208822E+02               0
GRID*             151721               0-1.250000000E+005.0898033319E+01+
*       -2.012576783E+02               0
GRID*             151722               0-1.250000000E+004.8028997163E+01+
*       -2.014890087E+02               0
GRID*             151723               0-1.250000000E+004.5191413075E+01+
*       -2.017146639E+02               0
GRID*             151724               0-1.250000000E+004.2394373829E+01+
*       -2.019310616E+02               0
GRID*             151725               0-1.250000000E+003.9644120342E+01+
*       -2.021299855E+02               0
GRID*             151726               0-1.250000000E+003.6942369436E+01+
*       -2.023012781E+02               0
GRID*             151727               0-1.250000000E+003.4286082391E+01+
*       -2.024347206E+02               0
GRID*             151728               0-1.250000000E+003.1668518453E+01+
*       -2.025220272E+02               0
GRID*             151729               0-1.250000000E+002.9081573488E+01+
*       -2.025600944E+02               0
GRID*             151730               0-1.250000000E+002.6519174897E+01+
*       -2.025530431E+02               0
GRID*             151731               0-1.250000000E+002.3978570033E+01+
*       -2.025078480E+02               0
GRID*             151732               0-1.250000000E+002.1458205904E+01+
*       -2.024320268E+02               0
GRID*             151733               0-1.250000000E+002.1662748195E+01+
*       -1.995245247E+02               0
GRID*             151734               0-1.250000000E+002.1863083474E+01+
*       -1.966282544E+02               0
GRID*             151735               0-1.250000000E+002.2077104387E+01+
*       -1.937427768E+02               0
GRID*             151736               0-1.250000000E+002.2323543467E+01+
*       -1.908528379E+02               0
GRID*             151737               0-1.250000000E+002.2611735451E+01+
*       -1.879248191E+02               0
GRID*             151738               0-1.250000000E+002.2917816941E+01+
*       -1.849190759E+02               0
GRID*             151739               0-1.250000000E+002.3173965813E+01+
*       -1.818333347E+02               0
GRID*             151740               0-1.250000000E+002.3376619221E+01+
*       -1.787065860E+02               0
GRID*             151741               0-1.250000000E+002.3531390653E+01+
*       -1.755609032E+02               0
GRID*             151742               0-1.250000000E+002.3639864928E+01+
*       -1.724109717E+02               0
GRID*             151743               0-1.250000000E+002.3713194600E+01+
*       -1.692691151E+02               0
GRID*             151744               0-1.250000000E+002.3764037629E+01+
*       -1.661405577E+02               0
GRID*             151745               0-1.250000000E+002.3802235522E+01+
*       -1.630251994E+02               0
GRID*             151746               0-1.250000000E+002.3834233527E+01+
*       -1.599202434E+02               0
GRID*             151747               0-1.250000000E+002.3863865223E+01+
*       -1.568218287E+02               0
GRID*             151748               0-1.250000000E+002.3893264994E+01+
*       -1.537257314E+02               0
GRID*             151749               0-1.250000000E+002.3923582517E+01+
*       -1.506274995E+02               0
GRID*             151750               0-1.250000000E+002.3955519129E+01+
*       -1.475222278E+02               0
GRID*             151751               0-1.250000000E+002.3989982425E+01+
*       -1.444042925E+02               0
GRID*             151752               0-1.250000000E+002.4029463212E+01+
*       -1.412678302E+02               0
GRID*             151753               0-1.250000000E+002.4080797384E+01+
*       -1.381094400E+02               0
GRID*             151754               0-1.250000000E+002.7118574469E+01+
*       -1.382863485E+02               0
GRID*             151755               0-1.250000000E+003.0139069117E+01+
*       -1.384570287E+02               0
GRID*             151756               0-1.250000000E+003.3147095540E+01+
*       -1.386159718E+02               0
GRID*             151757               0-1.250000000E+003.6146206435E+01+
*       -1.387628898E+02               0
GRID*             151758               0-1.250000000E+003.9138917024E+01+
*       -1.388995644E+02               0
GRID*             151759               0-1.250000000E+004.2127028744E+01+
*       -1.390286670E+02               0
GRID*             151760               0-1.250000000E+004.5111699937E+01+
*       -1.391532693E+02               0
GRID*             151761               0-1.250000000E+004.8093309323E+01+
*       -1.392765453E+02               0
GRID*             151762               0-1.250000000E+005.1071216091E+01+
*       -1.394014538E+02               0
GRID*             151763               0-1.250000000E+005.4043528363E+01+
*       -1.395302850E+02               0
GRID*             151764               0-1.250000000E+005.7007051557E+01+
*       -1.396640093E+02               0
GRID*             151765               0-1.250000000E+005.9957676511E+01+
*       -1.398015192E+02               0
GRID*             151766               0-1.250000000E+006.2891383607E+01+
*       -1.399392293E+02               0
GRID*             151767               0-1.250000000E+006.5805431266E+01+
*       -1.400719803E+02               0
GRID*             151768               0-1.250000000E+006.8698364005E+01+
*       -1.401958845E+02               0
GRID*             151769               0-1.250000000E+007.1568901875E+01+
*       -1.403104887E+02               0
GRID*             151770               0-1.250000000E+007.4415090734E+01+
*       -1.404191194E+02               0
GRID*             151771               0-1.250000000E+007.4236389689E+01+
*       -1.434715632E+02               0
GRID*             151772               0-1.250000000E+007.4074888365E+01+
*       -1.465325649E+02               0
GRID*             151773               0-1.250000000E+007.3927972540E+01+
*       -1.496000508E+02               0
GRID*             151774               0-1.250000000E+007.3793099640E+01+
*       -1.526734443E+02               0
GRID*             151775               0-1.250000000E+007.3668020315E+01+
*       -1.557533172E+02               0
GRID*             151776               0-1.250000000E+007.3550986824E+01+
*       -1.588412277E+02               0
GRID*             151777               0-1.250000000E+007.3441067301E+01+
*       -1.619396394E+02               0
GRID*             151778               0-1.250000000E+007.3338709626E+01+
*       -1.650518031E+02               0
GRID*             151779               0-1.250000000E+007.3246653265E+01+
*       -1.681814135E+02               0
GRID*             151780               0-1.250000000E+007.3171241779E+01+
*       -1.713317275E+02               0
GRID*             151781               0-1.250000000E+007.3123551361E+01+
*       -1.745033703E+02               0
GRID*             151782               0-1.250000000E+007.3118306961E+01+
*       -1.776901825E+02               0
GRID*             151783               0-1.250000000E+007.3165975156E+01+
*       -1.808764577E+02               0
GRID*             151784               0-1.250000000E+007.3258034066E+01+
*       -1.840458953E+02               0
GRID*             151785               0-1.250000000E+007.3381250946E+01+
*       -1.871908333E+02               0
GRID*             151786               0-1.250000000E+007.3525663078E+01+
*       -1.903102698E+02               0
GRID*             151787               0-1.250000000E+007.3685637082E+01+
*       -1.934055272E+02               0
GRID*             151788               0-1.250000000E+007.3858602009E+01+
*       -1.964772108E+02               0
GRID*             151789               0-1.250000000E+007.0968512837E+01+
*       -1.966354097E+02               0
GRID*             151790               0-1.250000000E+006.8069183562E+01+
*       -1.968181614E+02               0
GRID*             151791               0-1.250000000E+006.5163703273E+01+
*       -1.970259792E+02               0
GRID*             151792               0-1.250000000E+006.2256206780E+01+
*       -1.972557297E+02               0
GRID*             151793               0-1.250000000E+005.9351013379E+01+
*       -1.975006703E+02               0
GRID*             151794               0-1.250000000E+005.6451934677E+01+
*       -1.977524763E+02               0
GRID*             151795               0-1.250000000E+005.3562708138E+01+
*       -1.980051119E+02               0
GRID*             151796               0-1.250000000E+005.0688367345E+01+
*       -1.982570542E+02               0
GRID*             151797               0-1.250000000E+004.7836811195E+01+
*       -1.985105564E+02               0
GRID*             151798               0-1.250000000E+004.5019770356E+01+
*       -1.987678582E+02               0
GRID*             151799               0-1.250000000E+004.2250987399E+01+
*       -1.990247903E+02               0
GRID*             151800               0-1.250000000E+003.9540296578E+01+
*       -1.992664866E+02               0
GRID*             151801               0-1.250000000E+003.6890364429E+01+
*       -1.994761799E+02               0
GRID*             151802               0-1.250000000E+003.4296372619E+01+
*       -1.996364514E+02               0
GRID*             151803               0-1.250000000E+003.1745679162E+01+
*       -1.997307660E+02               0
GRID*             151804               0-1.250000000E+002.9219249094E+01+
*       -1.997517886E+02               0
GRID*             151805               0-1.250000000E+002.6700600715E+01+
*       -1.997127169E+02               0
GRID*             151806               0-1.250000000E+002.4182196341E+01+
*       -1.996303346E+02               0
GRID*             151807               0-1.250000000E+002.4382598134E+01+
*       -1.967844508E+02               0
GRID*             151808               0-1.250000000E+002.4607081123E+01+
*       -1.939679709E+02               0
GRID*             151809               0-1.250000000E+002.4890662532E+01+
*       -1.911631993E+02               0
GRID*             151810               0-1.250000000E+002.5268337448E+01+
*       -1.883140454E+02               0
GRID*             151811               0-1.250000000E+002.5720994464E+01+
*       -1.853250876E+02               0
GRID*             151812               0-1.250000000E+002.6049540955E+01+
*       -1.821819751E+02               0
GRID*             151813               0-1.250000000E+002.6297116438E+01+
*       -1.789990688E+02               0
GRID*             151814               0-1.250000000E+002.6487265258E+01+
*       -1.758016538E+02               0
GRID*             151815               0-1.250000000E+002.6608010149E+01+
*       -1.726042821E+02               0
GRID*             151816               0-1.250000000E+002.6681489448E+01+
*       -1.694276171E+02               0
GRID*             151817               0-1.250000000E+002.6729483587E+01+
*       -1.662762686E+02               0
GRID*             151818               0-1.250000000E+002.6766002607E+01+
*       -1.631465600E+02               0
GRID*             151819               0-1.250000000E+002.6798754219E+01+
*       -1.600325697E+02               0
GRID*             151820               0-1.250000000E+002.6831689900E+01+
*       -1.569285447E+02               0
GRID*             151821               0-1.250000000E+002.6866765978E+01+
*       -1.538294728E+02               0
GRID*             151822               0-1.250000000E+002.6905016825E+01+
*       -1.507310523E+02               0
GRID*             151823               0-1.250000000E+002.6947265536E+01+
*       -1.476295461E+02               0
GRID*             151824               0-1.250000000E+002.6994826347E+01+
*       -1.445219104E+02               0
GRID*             151825               0-1.250000000E+002.7050547645E+01+
*       -1.414068091E+02               0
GRID*             151826               0-1.250000000E+003.0060323552E+01+
*       -1.415507670E+02               0
GRID*             151827               0-1.250000000E+003.3060170788E+01+
*       -1.416925871E+02               0
GRID*             151828               0-1.250000000E+003.6051645214E+01+
*       -1.418292386E+02               0
GRID*             151829               0-1.250000000E+003.9036154699E+01+
*       -1.419603977E+02               0
GRID*             151830               0-1.250000000E+004.2014831525E+01+
*       -1.420872432E+02               0
GRID*             151831               0-1.250000000E+004.4988454780E+01+
*       -1.422117074E+02               0
GRID*             151832               0-1.250000000E+004.7957327541E+01+
*       -1.423359403E+02               0
GRID*             151833               0-1.250000000E+005.0921124201E+01+
*       -1.424618512E+02               0
GRID*             151834               0-1.250000000E+005.3878772009E+01+
*       -1.425906678E+02               0
GRID*             151835               0-1.250000000E+005.6828454097E+01+
*       -1.427225194E+02               0
GRID*             151836               0-1.250000000E+005.9767827052E+01+
*       -1.428561580E+02               0
GRID*             151837               0-1.250000000E+006.2694449826E+01+
*       -1.429890717E+02               0
GRID*             151838               0-1.250000000E+006.5606191752E+01+
*       -1.431182887E+02               0
GRID*             151839               0-1.250000000E+006.8501241924E+01+
*       -1.432418113E+02               0
GRID*             151840               0-1.250000000E+007.1377807681E+01+
*       -1.433597461E+02               0
GRID*             151841               0-1.250000000E+007.1205151592E+01+
*       -1.464177879E+02               0
GRID*             151842               0-1.250000000E+007.1046700939E+01+
*       -1.494835657E+02               0
GRID*             151843               0-1.250000000E+007.0899479659E+01+
*       -1.525562656E+02               0
GRID*             151844               0-1.250000000E+007.0760717112E+01+
*       -1.556363909E+02               0
GRID*             151845               0-1.250000000E+007.0627983104E+01+
*       -1.587256951E+02               0
GRID*             151846               0-1.250000000E+007.0499438552E+01+
*       -1.618272705E+02               0
GRID*             151847               0-1.250000000E+007.0374418984E+01+
*       -1.649458141E+02               0
GRID*             151848               0-1.250000000E+007.0254727431E+01+
*       -1.680879195E+02               0
GRID*             151849               0-1.250000000E+007.0147341097E+01+
*       -1.712615354E+02               0
GRID*             151850               0-1.250000000E+007.0068639786E+01+
*       -1.744727814E+02               0
GRID*             151851               0-1.250000000E+007.0048079208E+01+
*       -1.777157422E+02               0
GRID*             151852               0-1.250000000E+007.0115930057E+01+
*       -1.809581958E+02               0
GRID*             151853               0-1.250000000E+007.0244153777E+01+
*       -1.841672999E+02               0
GRID*             151854               0-1.250000000E+007.0404732861E+01+
*       -1.873350686E+02               0
GRID*             151855               0-1.250000000E+007.0582356134E+01+
*       -1.904655511E+02               0
GRID*             151856               0-1.250000000E+007.0770788642E+01+
*       -1.935644348E+02               0
GRID*             151857               0-1.250000000E+006.7848175481E+01+
*       -1.937493233E+02               0
GRID*             151858               0-1.250000000E+006.4923696945E+01+
*       -1.939627497E+02               0
GRID*             151859               0-1.250000000E+006.2004468615E+01+
*       -1.942025547E+02               0
GRID*             151860               0-1.250000000E+005.9096937053E+01+
*       -1.944610309E+02               0
GRID*             151861               0-1.250000000E+005.6203878209E+01+
*       -1.947267367E+02               0
GRID*             151862               0-1.250000000E+005.3324962735E+01+
*       -1.949921131E+02               0
GRID*             151863               0-1.250000000E+005.0460367560E+01+
*       -1.952575198E+02               0
GRID*             151864               0-1.250000000E+004.7615288065E+01+
*       -1.955310231E+02               0
GRID*             151865               0-1.250000000E+004.4804840871E+01+
*       -1.958238942E+02               0
GRID*             151866               0-1.250000000E+004.2053201664E+01+
*       -1.961367584E+02               0
GRID*             151867               0-1.250000000E+003.9376750172E+01+
*       -1.964393944E+02               0
GRID*             151868               0-1.250000000E+003.6779832489E+01+
*       -1.967073444E+02               0
GRID*             151869               0-1.250000000E+003.4257833177E+01+
*       -1.969144013E+02               0
GRID*             151870               0-1.250000000E+003.1792421173E+01+
*       -1.970261136E+02               0
GRID*             151871               0-1.250000000E+002.9344066763E+01+
*       -1.970153444E+02               0
GRID*             151872               0-1.250000000E+002.6877014165E+01+
*       -1.969217328E+02               0
GRID*             151873               0-1.250000000E+002.7082247546E+01+
*       -1.941933020E+02               0
GRID*             151874               0-1.250000000E+002.7373223599E+01+
*       -1.915194089E+02               0
GRID*             151875               0-1.250000000E+002.7848105400E+01+
*       -1.888260157E+02               0
GRID*             151876               0-1.250000000E+002.8611780533E+01+
*       -1.858779568E+02               0
GRID*             151877               0-1.250000000E+002.8978720673E+01+
*       -1.825744241E+02               0
GRID*             151878               0-1.250000000E+002.9252183100E+01+
*       -1.793080280E+02               0
GRID*             151879               0-1.250000000E+002.9492033504E+01+
*       -1.760439018E+02               0
GRID*             151880               0-1.250000000E+002.9609795699E+01+
*       -1.727798866E+02               0
GRID*             151881               0-1.250000000E+002.9666809599E+01+
*       -1.695638313E+02               0
GRID*             151882               0-1.250000000E+002.9701145635E+01+
*       -1.663931538E+02               0
GRID*             151883               0-1.250000000E+002.9730136332E+01+
*       -1.632548696E+02               0
GRID*             151884               0-1.250000000E+002.9760783754E+01+
*       -1.601374934E+02               0
GRID*             151885               0-1.250000000E+002.9795765095E+01+
*       -1.570327577E+02               0
GRID*             151886               0-1.250000000E+002.9836013367E+01+
*       -1.539348692E+02               0
GRID*             151887               0-1.250000000E+002.9881891112E+01+
*       -1.508397582E+02               0
GRID*             151888               0-1.250000000E+002.9933826337E+01+
*       -1.477446800E+02               0
GRID*             151889               0-1.250000000E+002.9992827218E+01+
*       -1.446483000E+02               0
GRID*             151890               0-1.250000000E+003.2982832224E+01+
*       -1.447762626E+02               0
GRID*             151891               0-1.250000000E+003.5965107719E+01+
*       -1.449029852E+02               0
GRID*             151892               0-1.250000000E+003.8940135005E+01+
*       -1.450273939E+02               0
GRID*             151893               0-1.250000000E+004.1908470129E+01+
*       -1.451499715E+02               0
GRID*             151894               0-1.250000000E+004.4870647276E+01+
*       -1.452720500E+02               0
GRID*             151895               0-1.250000000E+004.7827066944E+01+
*       -1.453952058E+02               0
GRID*             151896               0-1.250000000E+005.0777860495E+01+
*       -1.455207464E+02               0
GRID*             151897               0-1.250000000E+005.3722763239E+01+
*       -1.456492960E+02               0
GRID*             151898               0-1.250000000E+005.6661045549E+01+
*       -1.457805184E+02               0
GRID*             151899               0-1.250000000E+005.9591543976E+01+
*       -1.459130676E+02               0
GRID*             151900               0-1.250000000E+006.2512784507E+01+
*       -1.460448747E+02               0
GRID*             151901               0-1.250000000E+006.5423116743E+01+
*       -1.461738174E+02               0
GRID*             151902               0-1.250000000E+006.8320778171E+01+
*       -1.462985741E+02               0
GRID*             151903               0-1.250000000E+006.8154436096E+01+
*       -1.493623942E+02               0
GRID*             151904               0-1.250000000E+006.7998213196E+01+
*       -1.524331000E+02               0
GRID*             151905               0-1.250000000E+006.7848711578E+01+
*       -1.555110877E+02               0
GRID*             151906               0-1.250000000E+006.7702612264E+01+
*       -1.585981217E+02               0
GRID*             151907               0-1.250000000E+006.7556624097E+01+
*       -1.616976400E+02               0
GRID*             151908               0-1.250000000E+006.7407732353E+01+
*       -1.648157356E+02               0
GRID*             151909               0-1.250000000E+006.7254246198E+01+
*       -1.679628837E+02               0
GRID*             151910               0-1.250000000E+006.7099779668E+01+
*       -1.711551352E+02               0
GRID*             151911               0-1.250000000E+006.6962568617E+01+
*       -1.744132829E+02               0
GRID*             151912               0-1.250000000E+006.6898256487E+01+
*       -1.777440399E+02               0
GRID*             151913               0-1.250000000E+006.7013099281E+01+
*       -1.810740102E+02               0
GRID*             151914               0-1.250000000E+006.7203550488E+01+
*       -1.843301346E+02               0
GRID*             151915               0-1.250000000E+006.7415292152E+01+
*       -1.875164781E+02               0
GRID*             151916               0-1.250000000E+006.7631173923E+01+
*       -1.906516794E+02               0
GRID*             151917               0-1.250000000E+006.4680158071E+01+
*       -1.908733753E+02               0
GRID*             151918               0-1.250000000E+006.1742468631E+01+
*       -1.911317264E+02               0
GRID*             151919               0-1.250000000E+005.8830206808E+01+
*       -1.914161887E+02               0
GRID*             151920               0-1.250000000E+005.5944875464E+01+
*       -1.917043456E+02               0
GRID*             151921               0-1.250000000E+005.3078223826E+01+
*       -1.919830185E+02               0
GRID*             151922               0-1.250000000E+005.0220279391E+01+
*       -1.922543793E+02               0
GRID*             151923               0-1.250000000E+004.7367362055E+01+
*       -1.925362293E+02               0
GRID*             151924               0-1.250000000E+004.4537350675E+01+
*       -1.928633001E+02               0
GRID*             151925               0-1.250000000E+004.1783244836E+01+
*       -1.932651434E+02               0
GRID*             151926               0-1.250000000E+003.9132062747E+01+
*       -1.936566843E+02               0
GRID*             151927               0-1.250000000E+003.6587322931E+01+
*       -1.940133894E+02               0
GRID*             151928               0-1.250000000E+003.4152188906E+01+
*       -1.943081122E+02               0
GRID*             151929               0-1.250000000E+003.1813471212E+01+
*       -1.944720951E+02               0
GRID*             151930               0-1.250000000E+002.9483818085E+01+
*       -1.943881721E+02               0
GRID*             151931               0-1.250000000E+002.9704091423E+01+
*       -1.919036766E+02               0
GRID*             151932               0-1.250000000E+003.0186666034E+01+
*       -1.895397000E+02               0
GRID*             151933               0-1.250000000E+003.1856452279E+01+
*       -1.868038381E+02               0
GRID*             151934               0-1.250000000E+003.1975054048E+01+
*       -1.829505925E+02               0
GRID*             151935               0-1.250000000E+003.2220189263E+01+
*       -1.796155496E+02               0
GRID*             151936               0-1.250000000E+003.2591595280E+01+
*       -1.762842356E+02               0
GRID*             151937               0-1.250000000E+003.2657386162E+01+
*       -1.729111647E+02               0
GRID*             151938               0-1.250000000E+003.2666822963E+01+
*       -1.696573582E+02               0
GRID*             151939               0-1.250000000E+003.2673694417E+01+
*       -1.664794301E+02               0
GRID*             151940               0-1.250000000E+003.2689952058E+01+
*       -1.633437811E+02               0
GRID*             151941               0-1.250000000E+003.2716833036E+01+
*       -1.602313303E+02               0
GRID*             151942               0-1.250000000E+003.2753562179E+01+
*       -1.571317777E+02               0
GRID*             151943               0-1.250000000E+003.2799091514E+01+
*       -1.540392114E+02               0
GRID*             151944               0-1.250000000E+003.2852629049E+01+
*       -1.509501566E+02               0
GRID*             151945               0-1.250000000E+003.2913864109E+01+
*       -1.478627930E+02               0
GRID*             151946               0-1.250000000E+003.5886518251E+01+
*       -1.479806514E+02               0
GRID*             151947               0-1.250000000E+003.8851517233E+01+
*       -1.480978087E+02               0
GRID*             151948               0-1.250000000E+004.1808976575E+01+
*       -1.482147669E+02               0
GRID*             151949               0-1.250000000E+004.4759318446E+01+
*       -1.483328434E+02               0
GRID*             151950               0-1.250000000E+004.7703190222E+01+
*       -1.484535346E+02               0
GRID*             151951               0-1.250000000E+005.0641307653E+01+
*       -1.485779602E+02               0
GRID*             151952               0-1.250000000E+005.3574260149E+01+
*       -1.487064483E+02               0
GRID*             151953               0-1.250000000E+005.6502320433E+01+
*       -1.488383282E+02               0
GRID*             151954               0-1.250000000E+005.9425297906E+01+
*       -1.489719932E+02               0
GRID*             151955               0-1.250000000E+006.2342463179E+01+
*       -1.491052797E+02               0
GRID*             151956               0-1.250000000E+006.5252551941E+01+
*       -1.492361252E+02               0
GRID*             151957               0-1.250000000E+006.1287162546E+01+
*       -1.675736271E+02               0
GRID*             151958               0-1.250000000E+006.1004628185E+01+
*       -1.707217154E+02               0
GRID*             151959               0-1.250000000E+006.4038551710E+01+
*       -1.709875471E+02               0
GRID*             151960               0-1.250000000E+006.4257125452E+01+
*       -1.677943069E+02               0
GRID*             151961               0-1.250000000E+005.8375042883E+01+
*       -1.673120317E+02               0
GRID*             151962               0-1.250000000E+005.8087612551E+01+
*       -1.703410886E+02               0
GRID*             151963               0-1.250000000E+005.5523051037E+01+
*       -1.670661092E+02               0
GRID*             151964               0-1.250000000E+005.5283173264E+01+
*       -1.700162777E+02               0
GRID*             151965               0-1.250000000E+005.2709584037E+01+
*       -1.668653441E+02               0
GRID*             151966               0-1.250000000E+005.2532870919E+01+
*       -1.697821895E+02               0
GRID*             151967               0-1.250000000E+004.9911570553E+01+
*       -1.667163358E+02               0
GRID*             151968               0-1.250000000E+004.9795997195E+01+
*       -1.696291723E+02               0
GRID*             151969               0-1.250000000E+004.7111295452E+01+
*       -1.666160702E+02               0
GRID*             151970               0-1.250000000E+004.7050821079E+01+
*       -1.695431682E+02               0
GRID*             151971               0-1.250000000E+004.4294880796E+01+
*       -1.665584494E+02               0
GRID*             151972               0-1.250000000E+004.4283144313E+01+
*       -1.695147730E+02               0
GRID*             151973               0-1.250000000E+004.1449666765E+01+
*       -1.665353476E+02               0
GRID*             151974               0-1.250000000E+004.1476946881E+01+
*       -1.695397004E+02               0
GRID*             151975               0-1.250000000E+003.8564269913E+01+
*       -1.665326920E+02               0
GRID*             151976               0-1.250000000E+003.8610094978E+01+
*       -1.696078729E+02               0
GRID*             151977               0-1.250000000E+003.5634309400E+01+
*       -1.665248120E+02               0
GRID*             151978               0-1.250000000E+003.5664376298E+01+
*       -1.696795746E+02               0
GRID*             151979               0-1.250000000E+003.5637576432E+01+
*       -1.634101417E+02               0
GRID*             151980               0-1.250000000E+003.5662104787E+01+
*       -1.603130724E+02               0
GRID*             151981               0-1.250000000E+003.5702083303E+01+
*       -1.572248973E+02               0
GRID*             151982               0-1.250000000E+003.5754052291E+01+
*       -1.541413611E+02               0
GRID*             151983               0-1.250000000E+003.5815940995E+01+
*       -1.510603487E+02               0
GRID*             151984               0-1.250000000E+003.8770935016E+01+
*       -1.511697582E+02               0
GRID*             151985               0-1.250000000E+004.1717213118E+01+
*       -1.512798146E+02               0
GRID*             151986               0-1.250000000E+004.4655190651E+01+
*       -1.513924070E+02               0
GRID*             151987               0-1.250000000E+004.7585921267E+01+
*       -1.515094681E+02               0
GRID*             151988               0-1.250000000E+005.0510881866E+01+
*       -1.516323313E+02               0
GRID*             151989               0-1.250000000E+005.3431674946E+01+
*       -1.517612703E+02               0
GRID*             151990               0-1.250000000E+005.6349685282E+01+
*       -1.518952981E+02               0
GRID*             151991               0-1.250000000E+005.9265737132E+01+
*       -1.520322811E+02               0
GRID*             151992               0-1.250000000E+006.2179826805E+01+
*       -1.521694008E+02               0
GRID*             151993               0-1.250000000E+006.5091083025E+01+
*       -1.523038577E+02               0
GRID*             151994               0-1.250000000E+006.4934542358E+01+
*       -1.553773985E+02               0
GRID*             151995               0-1.250000000E+006.4778733877E+01+
*       -1.584581916E+02               0
GRID*             151996               0-1.250000000E+006.4618599156E+01+
*       -1.615492025E+02               0
GRID*             151997               0-1.250000000E+006.4447687712E+01+
*       -1.646566817E+02               0
GRID*             151998               0-1.250000000E+006.1506423090E+01+
*       -1.644696402E+02               0
GRID*             151999               0-1.250000000E+005.8596868371E+01+
*       -1.642648778E+02               0
GRID*             152000               0-1.250000000E+005.5720708713E+01+
*       -1.640662783E+02               0
GRID*             152001               0-1.250000000E+005.2868898285E+01+
*       -1.638918775E+02               0
GRID*             152002               0-1.250000000E+005.0028643725E+01+
*       -1.637497454E+02               0
GRID*             152003               0-1.250000000E+004.7187705555E+01+
*       -1.636407340E+02               0
GRID*             152004               0-1.250000000E+004.4335446936E+01+
*       -1.635612223E+02               0
GRID*             152005               0-1.250000000E+004.1462888101E+01+
*       -1.635041419E+02               0
GRID*             152006               0-1.250000000E+003.8563644591E+01+
*       -1.634584790E+02               0
GRID*             152007               0-1.250000000E+003.8591723778E+01+
*       -1.603860751E+02               0
GRID*             152008               0-1.250000000E+003.8638616094E+01+
*       -1.573140689E+02               0
GRID*             152009               0-1.250000000E+003.8699326858E+01+
*       -1.542420699E+02               0
GRID*             152010               0-1.250000000E+004.1634240353E+01+
*       -1.543434113E+02               0
GRID*             152011               0-1.250000000E+004.4559025478E+01+
*       -1.544486409E+02               0
GRID*             152012               0-1.250000000E+004.7475344085E+01+
*       -1.545607074E+02               0
GRID*             152013               0-1.250000000E+005.0385700834E+01+
*       -1.546815957E+02               0
GRID*             152014               0-1.250000000E+005.3293023493E+01+
*       -1.548117703E+02               0
GRID*             152015               0-1.250000000E+005.6200134634E+01+
*       -1.549499096E+02               0
GRID*             152016               0-1.250000000E+005.9109147833E+01+
*       -1.550930028E+02               0
GRID*             152017               0-1.250000000E+006.2020854942E+01+
*       -1.552369435E+02               0
GRID*             152018               0-1.250000000E+006.1860499411E+01+
*       -1.583080716E+02               0
GRID*             152019               0-1.250000000E+006.1692417163E+01+
*       -1.613842039E+02               0
GRID*             152020               0-1.250000000E+005.8783269976E+01+
*       -1.612105874E+02               0
GRID*             152021               0-1.250000000E+005.5892469645E+01+
*       -1.610402088E+02               0
GRID*             152022               0-1.250000000E+005.3015806349E+01+
*       -1.608837123E+02               0
GRID*             152023               0-1.250000000E+005.0146082151E+01+
*       -1.607473392E+02               0
GRID*             152024               0-1.250000000E+004.7275392263E+01+
*       -1.606327957E+02               0
GRID*             152025               0-1.250000000E+004.4396372009E+01+
*       -1.605380854E+02               0
GRID*             152026               0-1.250000000E+004.1502890697E+01+
*       -1.604582185E+02               0
GRID*             152027               0-1.250000000E+004.1561723974E+01+
*       -1.574036542E+02               0
GRID*             152028               0-1.250000000E+004.4471966945E+01+
*       -1.574986413E+02               0
GRID*             152029               0-1.250000000E+004.7371630009E+01+
*       -1.576037089E+02               0
GRID*             152030               0-1.250000000E+005.0264626923E+01+
*       -1.577220073E+02               0
GRID*             152031               0-1.250000000E+005.3155721606E+01+
*       -1.578545094E+02               0
GRID*             152032               0-1.250000000E+005.6049791107E+01+
*       -1.579995825E+02               0
GRID*             152033               0-1.250000000E+005.8950906412E+01+
*       -1.581528646E+02               0
GRID*             152034               0-1.250000000E+004.4374508602E+01+
*       -1.833075810E+02               0
GRID*             152035               0-1.250000000E+004.3730985768E+01+
*       -1.864669390E+02               0
GRID*             152036               0-1.250000000E+004.6904939182E+01+
*       -1.864014229E+02               0
GRID*             152037               0-1.250000000E+004.7003039997E+01+
*       -1.834046557E+02               0
GRID*             152038               0-1.250000000E+004.4199251804E+01+
*       -1.898252951E+02               0
GRID*             152039               0-1.250000000E+004.7108938622E+01+
*       -1.895008311E+02               0
GRID*             152040               0-1.250000000E+004.1411285144E+01+
*       -1.904113624E+02               0
GRID*             152041               0-1.250000000E+003.8775947052E+01+
*       -1.909222503E+02               0
GRID*             152042               0-1.250000000E+004.0882047140E+01+
*       -1.876244143E+02               0
GRID*             152043               0-1.250000000E+003.8287781268E+01+
*       -1.882442617E+02               0
GRID*             152044               0-1.250000000E+004.2108537016E+01+
*       -1.829099766E+02               0
GRID*             152045               0-1.250000000E+004.2073349946E+01+
*       -1.849859003E+02               0
GRID*             152046               0-1.250000000E+003.7725449401E+01+
*       -1.856489249E+02               0
GRID*             152047               0-1.250000000E+004.0107965284E+01+
*       -1.853112881E+02               0
GRID*             152048               0-1.250000000E+003.9860307868E+01+
*       -1.829254795E+02               0
GRID*             152049               0-1.250000000E+003.7475263474E+01+
*       -1.829950810E+02               0
GRID*             152050               0-1.250000000E+003.4879939468E+01+
*       -1.829756577E+02               0
GRID*             152051               0-1.250000000E+003.5058003391E+01+
*       -1.860482656E+02               0
GRID*             152052               0-1.250000000E+003.5770599202E+01+
*       -1.888117222E+02               0
GRID*             152053               0-1.250000000E+003.6272182374E+01+
*       -1.913986631E+02               0
GRID*             152054               0-1.250000000E+003.3446342662E+01+
*       -1.895319473E+02               0
GRID*             152055               0-1.250000000E+003.1811515450E+01+
*       -1.904952976E+02               0
GRID*             152056               0-1.250000000E+003.3932714453E+01+
*       -1.918579093E+02               0
GRID*             152057               0-1.250000000E+003.1817082457E+01+
*       -1.922006548E+02               0
GRID*             152058               0-1.250000000E+003.5077035572E+01+
*       -1.799157036E+02               0
GRID*             152059               0-1.250000000E+003.5964599315E+01+
*       -1.765589753E+02               0
GRID*             152060               0-1.250000000E+003.5748463908E+01+
*       -1.729355322E+02               0
GRID*             152061               0-1.250000000E+003.8734008266E+01+
*       -1.726673253E+02               0
GRID*             152062               0-1.250000000E+004.1563698546E+01+
*       -1.724861044E+02               0
GRID*             152063               0-1.250000000E+004.4309111086E+01+
*       -1.724049032E+02               0
GRID*             152064               0-1.250000000E+004.7012138818E+01+
*       -1.724023237E+02               0
GRID*             152065               0-1.250000000E+004.4380832828E+01+
*       -1.752060087E+02               0
GRID*             152066               0-1.250000000E+004.7001906105E+01+
*       -1.751822531E+02               0
GRID*             152067               0-1.250000000E+004.4474307208E+01+
*       -1.779040628E+02               0
GRID*             152068               0-1.250000000E+004.7017593005E+01+
*       -1.778958674E+02               0
GRID*             152069               0-1.250000000E+004.4500180237E+01+
*       -1.805691170E+02               0
GRID*             152070               0-1.250000000E+004.7033334721E+01+
*       -1.806059932E+02               0
GRID*             152071               0-1.250000000E+004.2094466659E+01+
*       -1.804720092E+02               0
GRID*             152072               0-1.250000000E+003.9761604077E+01+
*       -1.804682174E+02               0
GRID*             152073               0-1.250000000E+003.7463043815E+01+
*       -1.804217184E+02               0
GRID*             152074               0-1.250000000E+004.1990586169E+01+
*       -1.779397356E+02               0
GRID*             152075               0-1.250000000E+003.9625619776E+01+
*       -1.780598315E+02               0
GRID*             152076               0-1.250000000E+003.7595660871E+01+
*       -1.782398647E+02               0
GRID*             152077               0-1.250000000E+004.1738724016E+01+
*       -1.753183094E+02               0
GRID*             152078               0-1.250000000E+003.9019965769E+01+
*       -1.756297721E+02               0
GRID*             152079               0-1.250000000E+004.9686657433E+01+
*       -1.724658971E+02               0
GRID*             152080               0-1.250000000E+005.2337755018E+01+
*       -1.726086446E+02               0
GRID*             152081               0-1.250000000E+005.4980263929E+01+
*       -1.728664235E+02               0
GRID*             152082               0-1.250000000E+005.7674249517E+01+
*       -1.733083239E+02               0
GRID*             152083               0-1.250000000E+006.0585812433E+01+
*       -1.740001326E+02               0
GRID*             152084               0-1.250000000E+006.3791042209E+01+
*       -1.742884024E+02               0
GRID*             152085               0-1.250000000E+006.3580092353E+01+
*       -1.777761345E+02               0
GRID*             152086               0-1.250000000E+006.3843236911E+01+
*       -1.812611744E+02               0
GRID*             152087               0-1.250000000E+006.4146053873E+01+
*       -1.845600380E+02               0
GRID*             152088               0-1.250000000E+006.4424437272E+01+
*       -1.877475833E+02               0
GRID*             152089               0-1.250000000E+006.1455132713E+01+
*       -1.880360929E+02               0
GRID*             152090               0-1.250000000E+005.8537366962E+01+
*       -1.883711588E+02               0
GRID*             152091               0-1.250000000E+005.5670599192E+01+
*       -1.886966923E+02               0
GRID*             152092               0-1.250000000E+005.2829826940E+01+
*       -1.889877361E+02               0
GRID*             152093               0-1.250000000E+004.9985953991E+01+
*       -1.892476696E+02               0
GRID*             152094               0-1.250000000E+004.9792047230E+01+
*       -1.862534480E+02               0
GRID*             152095               0-1.250000000E+004.9695154231E+01+
*       -1.833446322E+02               0
GRID*             152096               0-1.250000000E+004.9613896508E+01+
*       -1.805693927E+02               0
GRID*             152097               0-1.250000000E+004.9563921660E+01+
*       -1.778889172E+02               0
GRID*             152098               0-1.250000000E+004.9598903346E+01+
*       -1.752133118E+02               0
GRID*             152099               0-1.250000000E+005.2145542202E+01+
*       -1.753083317E+02               0
GRID*             152100               0-1.250000000E+005.4614288260E+01+
*       -1.755214261E+02               0
GRID*             152101               0-1.250000000E+005.7029698103E+01+
*       -1.760325703E+02               0
GRID*             152102               0-1.250000000E+005.9764225862E+01+
*       -1.778151080E+02               0
GRID*             152103               0-1.250000000E+006.0639300413E+01+
*       -1.816171385E+02               0
GRID*             152104               0-1.250000000E+006.1112111413E+01+
*       -1.848926013E+02               0
GRID*             152105               0-1.250000000E+005.8190720858E+01+
*       -1.853403471E+02               0
GRID*             152106               0-1.250000000E+005.5371704126E+01+
*       -1.857313717E+02               0
GRID*             152107               0-1.250000000E+005.2591334218E+01+
*       -1.860331451E+02               0
GRID*             152108               0-1.250000000E+005.2371293664E+01+
*       -1.831695343E+02               0
GRID*             152109               0-1.250000000E+005.2163846507E+01+
*       -1.804503400E+02               0
GRID*             152110               0-1.250000000E+005.2032348453E+01+
*       -1.778771281E+02               0
GRID*             152111               0-1.250000000E+005.5030507340E+01+
*       -1.828658865E+02               0
GRID*             152112               0-1.250000000E+005.4637990852E+01+
*       -1.802025873E+02               0
GRID*             152113               0-1.250000000E+005.7731591204E+01+
*       -1.823719029E+02               0
GRID*             152114               0-1.250000000E+005.6054094907E+01+
*       -1.778501055E+02               0
GRID*             152115               0-1.250000000E+005.7052414508E+01+
*       -1.796526983E+02               0
GRID*             152116               0-1.250000000E+005.4290769036E+01+
*       -1.778626217E+02               0
GRID*             152117               0-1.250000000E+008.7494409667E+01+
*       -2.129737581E+02               0
GRID*             152118               0-1.250000000E+008.6029698887E+01+
*       -2.130185176E+02               0
GRID*             152119               0-1.250000000E+008.4525284725E+01+
*       -2.130767552E+02               0
GRID*             152120               0-1.250000000E+005.4955096075E+01+
*       -1.176779668E+02               0
GRID*             152121               0-1.250000000E+005.1851102077E+01+
*       -1.178108780E+02               0
GRID*             152122               0-1.250000000E+005.1875895133E+01+
*       -1.208957719E+02               0
GRID*             152123               0-1.250000000E+005.5040957224E+01+
*       -1.208473794E+02               0
GRID*             152124               0-1.250000000E+005.8393159188E+01+
*       -1.207688549E+02               0
GRID*             152125               0-1.250000000E+005.8145399788E+01+
*       -1.174543304E+02               0
GRID*             152126               0-1.250000000E+006.2310565121E+01+
*       -1.206363355E+02               0
GRID*             152127               0-1.250000000E+006.1397748048E+01+
*       -1.170398284E+02               0
GRID*             152128               0-1.250000000E+006.5083433362E+01+
*       -1.187564225E+02               0
GRID*             152129               0-1.250000000E+006.4332942401E+01+
*       -1.162013714E+02               0
GRID*             152130               0-1.250000000E+006.7514192156E+01+
*       -1.181555664E+02               0
GRID*             152131               0-1.250000000E+006.7042857342E+01+
*       -1.156322522E+02               0
GRID*             152132               0-1.250000000E+007.0040578743E+01+
*       -1.178185123E+02               0
GRID*             152133               0-1.250000000E+006.9721153045E+01+
*       -1.152389578E+02               0
GRID*             152134               0-1.250000000E+007.2677500475E+01+
*       -1.175561713E+02               0
GRID*             152135               0-1.250000000E+007.2421116761E+01+
*       -1.149393678E+02               0
GRID*             152136               0-1.250000000E+007.5372390525E+01+
*       -1.172996571E+02               0
GRID*             152137               0-1.250000000E+007.5130899334E+01+
*       -1.146916919E+02               0
GRID*             152138               0-1.250000000E+007.8041286073E+01+
*       -1.170204579E+02               0
GRID*             152139               0-1.250000000E+007.7805522119E+01+
*       -1.144916074E+02               0
GRID*             152140               0-1.250000000E+008.0537709899E+01+
*       -1.167420329E+02               0
GRID*             152141               0-1.250000000E+008.0372533700E+01+
*       -1.143886881E+02               0
GRID*             152142               0-1.250000000E+008.0855594851E+01+
*       -1.188515026E+02               0
GRID*             152143               0-1.250000000E+008.1373085395E+01+
*       -1.206733135E+02               0
GRID*             152144               0-1.250000000E+008.2149333098E+01+
*       -1.218938472E+02               0
GRID*             152145               0-1.250000000E+008.1410527035E+01+
*       -1.233355412E+02               0
GRID*             152146               0-1.250000000E+007.9102566830E+01+
*       -1.223210383E+02               0
GRID*             152147               0-1.250000000E+007.5775446091E+01+
*       -1.226563613E+02               0
GRID*             152148               0-1.250000000E+007.2886106061E+01+
*       -1.228087214E+02               0
GRID*             152149               0-1.250000000E+007.0177670129E+01+
*       -1.228452336E+02               0
GRID*             152150               0-1.250000000E+006.7615177344E+01+
*       -1.227309942E+02               0
GRID*             152151               0-1.250000000E+006.5146880910E+01+
*       -1.222960195E+02               0
GRID*             152152               0-1.250000000E+007.8402721137E+01+
*       -1.195251613E+02               0
GRID*             152153               0-1.250000000E+006.6122365069E+01+
*       -1.204867937E+02               0
GRID*             152154               0-1.250000000E+006.7904990789E+01+
*       -1.204235678E+02               0
GRID*             152155               0-1.250000000E+007.0247576940E+01+
*       -1.203131378E+02               0
GRID*             152156               0-1.250000000E+007.2856710706E+01+
*       -1.201508144E+02               0
GRID*             152157               0-1.250000000E+007.5604715886E+01+
*       -1.199108971E+02               0
GRID*             152158               0-1.250000000E+003.0898824024E+01+
*       -1.205840191E+02               0
GRID*             152159               0-1.250000000E+002.7902120079E+01+
*       -1.204440273E+02               0
GRID*             152160               0-1.250000000E+002.4797091771E+01+
*       -1.202836575E+02               0
GRID*             152161               0-1.250000000E+002.1248030623E+01+
*       -1.201173682E+02               0
GRID*             152162               0-1.250000000E+001.8753671042E+01+
*       -1.213357922E+02               0
GRID*             152163               0-1.250000000E+001.8020066444E+01+
*       -1.200181918E+02               0
GRID*             152164               0-1.250000000E+003.1099739076E+01+
*       -1.177245109E+02               0
GRID*             152165               0-1.250000000E+002.8160358292E+01+
*       -1.176042327E+02               0
GRID*             152166               0-1.250000000E+002.5202727467E+01+
*       -1.174446368E+02               0
GRID*             152167               0-1.250000000E+002.2241053856E+01+
*       -1.172084510E+02               0
GRID*             152168               0-1.250000000E+001.8908482769E+01+
*       -1.187270328E+02               0
GRID*             152169               0-1.250000000E+001.9650161935E+01+
*       -1.167082045E+02               0
GRID*             152170               0-1.250000000E+003.3872334959E+01+
*       -1.206993972E+02               0
GRID*             152171               0-1.250000000E+003.4031410861E+01+
*       -1.178166251E+02               0
GRID*             152172               0-1.250000000E+003.6835890096E+01+
*       -1.207902568E+02               0
GRID*             152173               0-1.250000000E+003.6961552472E+01+
*       -1.178837270E+02               0
GRID*             152174               0-1.250000000E+003.9801298557E+01+
*       -1.208571371E+02               0
GRID*             152175               0-1.250000000E+003.9897065820E+01+
*       -1.179261333E+02               0
GRID*             152176               0-1.250000000E+004.2777207911E+01+
*       -1.209007880E+02               0
GRID*             152177               0-1.250000000E+004.2844919152E+01+
*       -1.179429566E+02               0
GRID*             152178               0-1.250000000E+004.5772585265E+01+
*       -1.209218228E+02               0
GRID*             152179               0-1.250000000E+004.5812786318E+01+
*       -1.179323233E+02               0
GRID*             152180               0-1.250000000E+004.8799245904E+01+
*       -1.209205440E+02               0
GRID*             152181               0-1.250000000E+004.8810315540E+01+
*       -1.178906809E+02               0
GRID*             152182               0-1.250000000E+002.0716871780E+01+
*       -1.549204860E+01               0
GRID*             152183               0-1.250000000E+001.8284327911E+01+
*       -1.478189762E+01               0
GRID*             152184               0-1.250000000E+001.9560890541E+01+
*       -1.662428018E+01               0
GRID*             152185               0-1.250000000E+001.8066212770E+01+
*       -1.653305676E+01               0
GRID*             152186               0-1.250000000E+001.6084050078E+01+
*       -1.478874998E+01               0
GRID*             152187               0-1.250000000E+001.6369993206E+01+
*       -1.656296794E+01               0
GRID*             152188               0-1.250000000E+001.4685385328E+01+
*       -1.679409453E+01               0
GRID*             152189               0-1.250000000E+001.3193572951E+01+
*       -1.731234196E+01               0
GRID*             152190               0-1.250000000E+002.3342781652E+01+
*       -1.535268611E+01               0
GRID*             152191               0-1.250000000E+008.1947559218E+01+
*       -1.509140174E+01               0
GRID*             152192               0-1.250000000E+007.9066527792E+01+
*       -1.455832187E+01               0
GRID*             152193               0-1.250000000E+008.0727028085E+01+
*       -1.667973381E+01               0
GRID*             152194               0-1.250000000E+007.8934682582E+01+
*       -1.645624223E+01               0
GRID*             152195               0-1.250000000E+007.7012033513E+01+
*       -1.643341811E+01               0
GRID*             152196               0-1.250000000E+007.6462123598E+01+
*       -1.460282203E+01               0
GRID*             152197               0-1.250000000E+007.5613581385E+01+
*       -2.147975540E+01               0
GRID*             152198               0-1.250000000E+007.5273846757E+01+
*       -1.987870906E+01               0
GRID*             152199               0-1.250000000E+007.6252311030E+01+
*       -2.267680047E+01               0
GRID*             152200               0-1.250000000E+007.5557210307E+01+
*       -2.390239313E+01               0
GRID*             152201               0-1.250000000E+007.5052297148E+01+
*       -2.561527455E+01               0
GRID*             152202               0-1.250000000E+007.4655201035E+01+
*       -2.761316598E+01               0
GRID*             152203               0-1.250000000E+007.2380224517E+01+
*       -2.529656190E+01               0
GRID*             152204               0-1.250000000E+007.1915976875E+01+
*       -2.768242068E+01               0
GRID*             152205               0-1.250000000E+006.9292945614E+01+
*       -2.532948465E+01               0
GRID*             152206               0-1.250000000E+006.9026147274E+01+
*       -2.778962380E+01               0
GRID*             152207               0-1.250000000E+006.6246526439E+01+
*       -2.541496164E+01               0
GRID*             152208               0-1.250000000E+006.6085968122E+01+
*       -2.791273363E+01               0
GRID*             152209               0-1.250000000E+006.3220110217E+01+
*       -2.550129325E+01               0
GRID*             152210               0-1.250000000E+006.3113747344E+01+
*       -2.803027687E+01               0
GRID*             152211               0-1.250000000E+006.0194156379E+01+
*       -2.557719108E+01               0
GRID*             152212               0-1.250000000E+006.0116400974E+01+
*       -2.813111024E+01               0
GRID*             152213               0-1.250000000E+005.7159634645E+01+
*       -2.563728200E+01               0
GRID*             152214               0-1.250000000E+005.7097801851E+01+
*       -2.821023730E+01               0
GRID*             152215               0-1.250000000E+005.4112319108E+01+
*       -2.567893014E+01               0
GRID*             152216               0-1.250000000E+005.4060160566E+01+
*       -2.826594403E+01               0
GRID*             152217               0-1.250000000E+005.1049715565E+01+
*       -2.570152222E+01               0
GRID*             152218               0-1.250000000E+005.1004393847E+01+
*       -2.829830871E+01               0
GRID*             152219               0-1.250000000E+004.7969641115E+01+
*       -2.570783595E+01               0
GRID*             152220               0-1.250000000E+004.7930294874E+01+
*       -2.830838192E+01               0
GRID*             152221               0-1.250000000E+004.4868072122E+01+
*       -2.569511333E+01               0
GRID*             152222               0-1.250000000E+004.4836220721E+01+
*       -2.829514159E+01               0
GRID*             152223               0-1.250000000E+004.1738062330E+01+
*       -2.566145387E+01               0
GRID*             152224               0-1.250000000E+004.1718760470E+01+
*       -2.825705396E+01               0
GRID*             152225               0-1.250000000E+003.8565598959E+01+
*       -2.560558691E+01               0
GRID*             152226               0-1.250000000E+003.8570939609E+01+
*       -2.819235247E+01               0
GRID*             152227               0-1.250000000E+003.5322078148E+01+
*       -2.552746313E+01               0
GRID*             152228               0-1.250000000E+003.5380066121E+01+
*       -2.809933163E+01               0
GRID*             152229               0-1.250000000E+003.1952622076E+01+
*       -2.543272898E+01               0
GRID*             152230               0-1.250000000E+003.2130341870E+01+
*       -2.797720117E+01               0
GRID*             152231               0-1.250000000E+002.8370949180E+01+
*       -2.536089940E+01               0
GRID*             152232               0-1.250000000E+002.8826906145E+01+
*       -2.783025836E+01               0
GRID*             152233               0-1.250000000E+002.5234189545E+01+
*       -2.567797746E+01               0
GRID*             152234               0-1.250000000E+002.5670680081E+01+
*       -2.770275960E+01               0
GRID*             152235               0-1.250000000E+002.4654059891E+01+
*       -2.395205956E+01               0
GRID*             152236               0-1.250000000E+002.3887321383E+01+
*       -2.266913106E+01               0
GRID*             152237               0-1.250000000E+002.4683349963E+01+
*       -2.141502642E+01               0
GRID*             152238               0-1.250000000E+002.5313464797E+01+
*       -1.969469354E+01               0
GRID*             152239               0-1.250000000E+002.5834140843E+01+
*       -1.762753436E+01               0
GRID*             152240               0-1.250000000E+002.6384968041E+01+
*       -1.516596663E+01               0
GRID*             152241               0-1.250000000E+002.9516919307E+01+
*       -1.516991585E+01               0
GRID*             152242               0-1.250000000E+003.2703280265E+01+
*       -1.519734038E+01               0
GRID*             152243               0-1.250000000E+003.5872064384E+01+
*       -1.522683700E+01               0
GRID*             152244               0-1.250000000E+003.9009487214E+01+
*       -1.525173698E+01               0
GRID*             152245               0-1.250000000E+004.2119271049E+01+
*       -1.527023317E+01               0
GRID*             152246               0-1.250000000E+004.5208220759E+01+
*       -1.528200535E+01               0
GRID*             152247               0-1.250000000E+004.8282204629E+01+
*       -1.528745320E+01               0
GRID*             152248               0-1.250000000E+005.1345838325E+01+
*       -1.528767965E+01               0
GRID*             152249               0-1.250000000E+005.4403170758E+01+
*       -1.528442876E+01               0
GRID*             152250               0-1.250000000E+005.7458020948E+01+
*       -1.527786266E+01               0
GRID*             152251               0-1.250000000E+006.0516084780E+01+
*       -1.526895870E+01               0
GRID*             152252               0-1.250000000E+006.3587283790E+01+
*       -1.526020057E+01               0
GRID*             152253               0-1.250000000E+006.6691691754E+01+
*       -1.525659762E+01               0
GRID*             152254               0-1.250000000E+006.9883909659E+01+
*       -1.527002716E+01               0
GRID*             152255               0-1.250000000E+007.3406687624E+01+
*       -1.536482978E+01               0
GRID*             152256               0-1.250000000E+007.5057956252E+01+
*       -1.659273456E+01               0
GRID*             152257               0-1.250000000E+006.9593327827E+01+
*       -2.282468949E+01               0
GRID*             152258               0-1.250000000E+006.6412612310E+01+
*       -2.290464575E+01               0
GRID*             152259               0-1.250000000E+006.9662023936E+01+
*       -2.031882829E+01               0
GRID*             152260               0-1.250000000E+006.6526022171E+01+
*       -2.037822774E+01               0
GRID*             152261               0-1.250000000E+006.9742319163E+01+
*       -1.782377927E+01               0
GRID*             152262               0-1.250000000E+006.6616367893E+01+
*       -1.783060444E+01               0
GRID*             152263               0-1.250000000E+007.2796917635E+01+
*       -1.787607734E+01               0
GRID*             152264               0-1.250000000E+007.5127926535E+01+
*       -1.818640437E+01               0
GRID*             152265               0-1.250000000E+007.2771280681E+01+
*       -2.022478785E+01               0
GRID*             152266               0-1.250000000E+007.3208604959E+01+
*       -2.273957694E+01               0
GRID*             152267               0-1.250000000E+006.3519101897E+01+
*       -1.784543009E+01               0
GRID*             152268               0-1.250000000E+006.3434053719E+01+
*       -2.041756748E+01               0
GRID*             152269               0-1.250000000E+006.3333756604E+01+
*       -2.296720225E+01               0
GRID*             152270               0-1.250000000E+006.0445988105E+01+
*       -1.786514047E+01               0
GRID*             152271               0-1.250000000E+006.0366844347E+01+
*       -2.045318786E+01               0
GRID*             152272               0-1.250000000E+006.0281109594E+01+
*       -2.302161211E+01               0
GRID*             152273               0-1.250000000E+005.7384484759E+01+
*       -1.788275539E+01               0
GRID*             152274               0-1.250000000E+005.7308510942E+01+
*       -2.048196640E+01               0
GRID*             152275               0-1.250000000E+005.7231993863E+01+
*       -2.306462576E+01               0
GRID*             152276               0-1.250000000E+005.4324814156E+01+
*       -1.789514880E+01               0
GRID*             152277               0-1.250000000E+005.4248688178E+01+
*       -2.050094366E+01               0
GRID*             152278               0-1.250000000E+005.4176583579E+01+
*       -2.309328767E+01               0
GRID*             152279               0-1.250000000E+002.9051698578E+01+
*       -1.769812784E+01               0
GRID*             152280               0-1.250000000E+002.8474112805E+01+
*       -2.017500547E+01               0
GRID*             152281               0-1.250000000E+003.2383201987E+01+
*       -1.775934665E+01               0
GRID*             152282               0-1.250000000E+003.5646050608E+01+
*       -1.781032801E+01               0
GRID*             152283               0-1.250000000E+003.8840524427E+01+
*       -1.784986204E+01               0
GRID*             152284               0-1.250000000E+004.1985660910E+01+
*       -1.787819707E+01               0
GRID*             152285               0-1.250000000E+004.5097451701E+01+
*       -1.789573044E+01               0
GRID*             152286               0-1.250000000E+004.8186616605E+01+
*       -1.790309630E+01               0
GRID*             152287               0-1.250000000E+005.1260352071E+01+
*       -1.790165027E+01               0
GRID*             152288               0-1.250000000E+005.1180545032E+01+
*       -2.050777231E+01               0
GRID*             152289               0-1.250000000E+005.1109405587E+01+
*       -2.310493857E+01               0
GRID*             152290               0-1.250000000E+004.8027079752E+01+
*       -2.310921198E+01               0
GRID*             152291               0-1.250000000E+004.4923337607E+01+
*       -2.309802023E+01               0
GRID*             152292               0-1.250000000E+004.1788767276E+01+
*       -2.306935697E+01               0
GRID*             152293               0-1.250000000E+003.8604768929E+01+
*       -2.302210806E+01               0
GRID*             152294               0-1.250000000E+003.5329410130E+01+
*       -2.295533546E+01               0
GRID*             152295               0-1.250000000E+003.1844591524E+01+
*       -2.286767453E+01               0
GRID*             152296               0-1.250000000E+002.7577867854E+01+
*       -2.275503595E+01               0
GRID*             152297               0-1.250000000E+003.2071579987E+01+
*       -2.030353692E+01               0
GRID*             152298               0-1.250000000E+003.5450889798E+01+
*       -2.038003568E+01               0
GRID*             152299               0-1.250000000E+003.8699111900E+01+
*       -2.043456675E+01               0
GRID*             152300               0-1.250000000E+004.1872353467E+01+
*       -2.047266673E+01               0
GRID*             152301               0-1.250000000E+004.5000670749E+01+
*       -2.049576830E+01               0
GRID*             152302               0-1.250000000E+004.8100185053E+01+
*       -2.050433695E+01               0
GRID*             152303               0-1.250000000E+008.4873206149E+01+
*       -1.489059092E+01               0
GRID*             152304               0-1.250000000E+008.3098191131E+01+
*       -1.673558768E+01               0
GRID*             152305               0-1.250000000E+008.4822710763E+01+
*       -1.663047723E+01               0
GRID*             152306               0-1.250000000E+008.6404280816E+01+
*       -1.674187204E+01               0
GRID*             152307               0-1.250000000E+008.7448605955E+01+
*       -2.591501660E+01               0
GRID*             152308               0-1.250000000E+008.7415702586E+01+
*       -2.757843589E+01               0
GRID*             152309               0-1.250000000E+008.7451515432E+01+
*       -2.108299694E+01               0
GRID*             152310               0-1.250000000E+008.7384235272E+01+
*       -1.968059405E+01               0
GRID*             152311               0-1.250000000E+001.7963787332E+01+
*       -6.987576893E+01               0
GRID*             152312               0-1.250000000E+001.7976129680E+01+
*       -6.687288619E+01               0
GRID*             152313               0-1.250000000E+001.4979267070E+01+
*       -6.673381316E+01               0
GRID*             152314               0-1.250000000E+001.4970252149E+01+
*       -6.972633746E+01               0
GRID*             152315               0-1.250000000E+002.0967285813E+01+
*       -7.002733342E+01               0
GRID*             152316               0-1.250000000E+002.0981123311E+01+
*       -6.701432213E+01               0
GRID*             152317               0-1.250000000E+002.3983497486E+01+
*       -7.017513215E+01               0
GRID*             152318               0-1.250000000E+002.3996110239E+01+
*       -6.715261098E+01               0
GRID*             152319               0-1.250000000E+002.7014111157E+01+
*       -7.031155458E+01               0
GRID*             152320               0-1.250000000E+002.7022052224E+01+
*       -6.728093601E+01               0
GRID*             152321               0-1.250000000E+003.0059040679E+01+
*       -7.042848528E+01               0
GRID*             152322               0-1.250000000E+003.0058646556E+01+
*       -6.739242145E+01               0
GRID*             152323               0-1.250000000E+003.3115848670E+01+
*       -7.051873161E+01               0
GRID*             152324               0-1.250000000E+003.3104106996E+01+
*       -6.748135361E+01               0
GRID*             152325               0-1.250000000E+003.6179779062E+01+
*       -7.057771534E+01               0
GRID*             152326               0-1.250000000E+003.6155294984E+01+
*       -6.754416212E+01               0
GRID*             152327               0-1.250000000E+003.9244785453E+01+
*       -7.060473029E+01               0
GRID*             152328               0-1.250000000E+003.9208301665E+01+
*       -6.757990904E+01               0
GRID*             152329               0-1.250000000E+004.2304975809E+01+
*       -7.060238260E+01               0
GRID*             152330               0-1.250000000E+004.2259271433E+01+
*       -6.759003756E+01               0
GRID*             152331               0-1.250000000E+004.5355728941E+01+
*       -7.057563859E+01               0
GRID*             152332               0-1.250000000E+004.5305188213E+01+
*       -6.757782243E+01               0
GRID*             152333               0-1.250000000E+004.8394650329E+01+
*       -7.053137141E+01               0
GRID*             152334               0-1.250000000E+004.8344554309E+01+
*       -6.754781719E+01               0
GRID*             152335               0-1.250000000E+005.1422473958E+01+
*       -7.047754478E+01               0
GRID*             152336               0-1.250000000E+005.1377863208E+01+
*       -6.750509686E+01               0
GRID*             152337               0-1.250000000E+005.4443212843E+01+
*       -7.042092448E+01               0
GRID*             152338               0-1.250000000E+005.4407582111E+01+
*       -6.745405844E+01               0
GRID*             152339               0-1.250000000E+005.7463116536E+01+
*       -7.036494669E+01               0
GRID*             152340               0-1.250000000E+005.7437505731E+01+
*       -6.739733258E+01               0
GRID*             152341               0-1.250000000E+006.0488799611E+01+
*       -7.030897052E+01               0
GRID*             152342               0-1.250000000E+006.0471639790E+01+
*       -6.733533611E+01               0
GRID*             152343               0-1.250000000E+006.3525002149E+01+
*       -7.024903556E+01               0
GRID*             152344               0-1.250000000E+006.3512940901E+01+
*       -6.726679642E+01               0
GRID*             152345               0-1.250000000E+006.6572818788E+01+
*       -7.018032512E+01               0
GRID*             152346               0-1.250000000E+006.6562419941E+01+
*       -6.719007303E+01               0
GRID*             152347               0-1.250000000E+006.9629843262E+01+
*       -7.010042175E+01               0
GRID*             152348               0-1.250000000E+006.9619052913E+01+
*       -6.710466578E+01               0
GRID*             152349               0-1.250000000E+007.2691896387E+01+
*       -7.001016697E+01               0
GRID*             152350               0-1.250000000E+007.2680359050E+01+
*       -6.701191593E+01               0
GRID*             152351               0-1.250000000E+007.5754551128E+01+
*       -6.991291876E+01               0
GRID*             152352               0-1.250000000E+007.5743095586E+01+
*       -6.691487144E+01               0
GRID*             152353               0-1.250000000E+007.8814101744E+01+
*       -6.981315582E+01               0
GRID*             152354               0-1.250000000E+007.8803944919E+01+
*       -6.681750409E+01               0
GRID*             152355               0-1.250000000E+008.1868224437E+01+
*       -6.971492789E+01               0
GRID*             152356               0-1.250000000E+008.1860266262E+01+
*       -6.672351896E+01               0
GRID*             152357               0-1.250000000E+008.4916398661E+01+
*       -6.962059819E+01               0
GRID*             152358               0-1.250000000E+008.4910802984E+01+
*       -6.663519783E+01               0
GRID*             152359               0-1.250000000E+008.4923823401E+01+
*       -7.260700596E+01               0
GRID*             152360               0-1.250000000E+008.4933233370E+01+
*       -7.559675013E+01               0
GRID*             152361               0-1.250000000E+008.4946514438E+01+
*       -7.859012873E+01               0
GRID*             152362               0-1.250000000E+008.4965969411E+01+
*       -8.158704697E+01               0
GRID*             152363               0-1.250000000E+008.4994156262E+01+
*       -8.458686834E+01               0
GRID*             152364               0-1.250000000E+008.5033474312E+01+
*       -8.758833549E+01               0
GRID*             152365               0-1.250000000E+008.5085507162E+01+
*       -9.058972401E+01               0
GRID*             152366               0-1.250000000E+008.5150434253E+01+
*       -9.358927973E+01               0
GRID*             152367               0-1.250000000E+008.5227299228E+01+
*       -9.658560551E+01               0
GRID*             152368               0-1.250000000E+008.5315246677E+01+
*       -9.957763698E+01               0
GRID*             152369               0-1.250000000E+008.5415158958E+01+
*       -1.025642300E+02               0
GRID*             152370               0-1.250000000E+008.5531263972E+01+
*       -1.055418480E+02               0
GRID*             152371               0-1.250000000E+008.5673296650E+01+
*       -1.084872863E+02               0
GRID*             152372               0-1.250000000E+008.5853782899E+01+
*       -1.112555561E+02               0
GRID*             152373               0-1.250000000E+008.2972795821E+01+
*       -1.087448641E+02               0
GRID*             152374               0-1.250000000E+008.3270245256E+01+
*       -1.118938167E+02               0
GRID*             152375               0-1.250000000E+008.0183113998E+01+
*       -1.088621246E+02               0
GRID*             152376               0-1.250000000E+008.0368525308E+01+
*       -1.117426636E+02               0
GRID*             152377               0-1.250000000E+007.7398428630E+01+
*       -1.090091303E+02               0
GRID*             152378               0-1.250000000E+007.7618239470E+01+
*       -1.118150548E+02               0
GRID*             152379               0-1.250000000E+007.4612017793E+01+
*       -1.092115344E+02               0
GRID*             152380               0-1.250000000E+007.4875228873E+01+
*       -1.119940833E+02               0
GRID*             152381               0-1.250000000E+007.1819536226E+01+
*       -1.094685808E+02               0
GRID*             152382               0-1.250000000E+007.2123133323E+01+
*       -1.122407271E+02               0
GRID*             152383               0-1.250000000E+006.9020976064E+01+
*       -1.097790292E+02               0
GRID*             152384               0-1.250000000E+006.9367987076E+01+
*       -1.125494927E+02               0
GRID*             152385               0-1.250000000E+006.6210756656E+01+
*       -1.101422530E+02               0
GRID*             152386               0-1.250000000E+006.6604312986E+01+
*       -1.129326789E+02               0
GRID*             152387               0-1.250000000E+006.3371487502E+01+
*       -1.105493689E+02               0
GRID*             152388               0-1.250000000E+006.3796210060E+01+
*       -1.134042296E+02               0
GRID*             152389               0-1.250000000E+006.0480425278E+01+
*       -1.109657763E+02               0
GRID*             152390               0-1.250000000E+006.0876059811E+01+
*       -1.139329599E+02               0
GRID*             152391               0-1.250000000E+005.7539668993E+01+
*       -1.113218999E+02               0
GRID*             152392               0-1.250000000E+005.7836670660E+01+
*       -1.143259875E+02               0
GRID*             152393               0-1.250000000E+005.4584905283E+01+
*       -1.116004116E+02               0
GRID*             152394               0-1.250000000E+005.4785352275E+01+
*       -1.145957991E+02               0
GRID*             152395               0-1.250000000E+005.1640529108E+01+
*       -1.118080609E+02               0
GRID*             152396               0-1.250000000E+005.1763948589E+01+
*       -1.147787110E+02               0
GRID*             152397               0-1.250000000E+004.8715926986E+01+
*       -1.119569227E+02               0
GRID*             152398               0-1.250000000E+004.8778557324E+01+
*       -1.149004163E+02               0
GRID*             152399               0-1.250000000E+004.5812360414E+01+
*       -1.120579978E+02               0
GRID*             152400               0-1.250000000E+004.5824419468E+01+
*       -1.149762085E+02               0
GRID*             152401               0-1.250000000E+004.2928326673E+01+
*       -1.121198852E+02               0
GRID*             152402               0-1.250000000E+004.2895108936E+01+
*       -1.150152717E+02               0
GRID*             152403               0-1.250000000E+004.0062035547E+01+
*       -1.121486738E+02               0
GRID*             152404               0-1.250000000E+003.9984892919E+01+
*       -1.150232458E+02               0
GRID*             152405               0-1.250000000E+003.7212051053E+01+
*       -1.121482045E+02               0
GRID*             152406               0-1.250000000E+003.7088959556E+01+
*       -1.150036560E+02               0
GRID*             152407               0-1.250000000E+003.4377625763E+01+
*       -1.121204187E+02               0
GRID*             152408               0-1.250000000E+003.4203509949E+01+
*       -1.149584982E+02               0
GRID*             152409               0-1.250000000E+003.1560308521E+01+
*       -1.120655160E+02               0
GRID*             152410               0-1.250000000E+003.1327074008E+01+
*       -1.148879338E+02               0
GRID*             152411               0-1.250000000E+002.8767405905E+01+
*       -1.119820343E+02               0
GRID*             152412               0-1.250000000E+002.8463935829E+01+
*       -1.147890763E+02               0
GRID*             152413               0-1.250000000E+002.6015693522E+01+
*       -1.118674471E+02               0
GRID*             152414               0-1.250000000E+002.5629296197E+01+
*       -1.146542954E+02               0
GRID*             152415               0-1.250000000E+002.3334172336E+01+
*       -1.117211644E+02               0
GRID*             152416               0-1.250000000E+002.2865261973E+01+
*       -1.144706085E+02               0
GRID*             152417               0-1.250000000E+002.0761292642E+01+
*       -1.115542108E+02               0
GRID*             152418               0-1.250000000E+002.0281418877E+01+
*       -1.142251089E+02               0
GRID*             152419               0-1.250000000E+001.8301865412E+01+
*       -1.114199564E+02               0
GRID*             152420               0-1.250000000E+001.5941217523E+01+
*       -1.113313638E+02               0
GRID*             152421               0-1.250000000E+001.3657218882E+01+
*       -1.112482567E+02               0
GRID*             152422               0-1.250000000E+001.3808683932E+01+
*       -1.083695494E+02               0
GRID*             152423               0-1.250000000E+001.3959445668E+01+
*       -1.054625513E+02               0
GRID*             152424               0-1.250000000E+001.4101853198E+01+
*       -1.025353412E+02               0
GRID*             152425               0-1.250000000E+001.4235439164E+01+
*       -9.959563581E+01               0
GRID*             152426               0-1.250000000E+001.4361787263E+01+
*       -9.664673504E+01               0
GRID*             152427               0-1.250000000E+001.4481635084E+01+
*       -9.368805316E+01               0
GRID*             152428               0-1.250000000E+001.4593412719E+01+
*       -9.071730505E+01               0
GRID*             152429               0-1.250000000E+001.4693282051E+01+
*       -8.773325862E+01               0
GRID*             152430               0-1.250000000E+001.4777158999E+01+
*       -8.473775673E+01               0
GRID*             152431               0-1.250000000E+001.4843561753E+01+
*       -8.173515615E+01               0
GRID*             152432               0-1.250000000E+001.4893563883E+01+
*       -7.873005978E+01               0
GRID*             152433               0-1.250000000E+001.4929592771E+01+
*       -7.572594748E+01               0
GRID*             152434               0-1.250000000E+001.4954382558E+01+
*       -7.272500363E+01               0
GRID*             152435               0-1.250000000E+001.7941413925E+01+
*       -7.288760888E+01               0
GRID*             152436               0-1.250000000E+002.0940872587E+01+
*       -7.305334972E+01               0
GRID*             152437               0-1.250000000E+002.3956914092E+01+
*       -7.321584300E+01               0
GRID*             152438               0-1.250000000E+002.6992577610E+01+
*       -7.336621924E+01               0
GRID*             152439               0-1.250000000E+003.0048498243E+01+
*       -7.349405144E+01               0
GRID*             152440               0-1.250000000E+003.3121478806E+01+
*       -7.358903507E+01               0
GRID*             152441               0-1.250000000E+003.6204054327E+01+
*       -7.364423775E+01               0
GRID*             152442               0-1.250000000E+003.9286592260E+01+
*       -7.365959488E+01               0
GRID*             152443               0-1.250000000E+004.2360168428E+01+
*       -7.363964570E+01               0
GRID*             152444               0-1.250000000E+004.5417824742E+01+
*       -7.359152856E+01               0
GRID*             152445               0-1.250000000E+004.8455491675E+01+
*       -7.352530254E+01               0
GRID*             152446               0-1.250000000E+005.1474015865E+01+
*       -7.345398445E+01               0
GRID*             152447               0-1.250000000E+005.4479869003E+01+
*       -7.338836253E+01               0
GRID*             152448               0-1.250000000E+005.7483466809E+01+
*       -7.333344663E+01               0
GRID*             152449               0-1.250000000E+006.0496215069E+01+
*       -7.328708200E+01               0
GRID*             152450               0-1.250000000E+006.3526229103E+01+
*       -7.324042755E+01               0
GRID*             152451               0-1.250000000E+006.6574358757E+01+
*       -7.318252327E+01               0
GRID*             152452               0-1.250000000E+006.9634955243E+01+
*       -7.310842821E+01               0
GRID*             152453               0-1.250000000E+007.2700666732E+01+
*       -7.301926607E+01               0
GRID*             152454               0-1.250000000E+007.5765314143E+01+
*       -7.291963229E+01               0
GRID*             152455               0-1.250000000E+007.8824812098E+01+
*       -7.281511369E+01               0
GRID*             152456               0-1.250000000E+008.1877279884E+01+
*       -7.271045958E+01               0
GRID*             152457               0-1.250000000E+008.1890212794E+01+
*       -7.570962438E+01               0
GRID*             152458               0-1.250000000E+008.1908714081E+01+
*       -7.871485693E+01               0
GRID*             152459               0-1.250000000E+008.1936455638E+01+
*       -8.172607571E+01               0
GRID*             152460               0-1.250000000E+008.1977712053E+01+
*       -8.474218062E+01               0
GRID*             152461               0-1.250000000E+008.2036578483E+01+
*       -8.776075938E+01               0
GRID*             152462               0-1.250000000E+008.2115543861E+01+
*       -9.077825813E+01               0
GRID*             152463               0-1.250000000E+008.2214229191E+01+
*       -9.379094163E+01               0
GRID*             152464               0-1.250000000E+008.2330265667E+01+
*       -9.679581066E+01               0
GRID*             152465               0-1.250000000E+008.2461350456E+01+
*       -9.979072981E+01               0
GRID*             152466               0-1.250000000E+008.2607246206E+01+
*       -1.027745831E+02               0
GRID*             152467               0-1.250000000E+008.2771991129E+01+
*       -1.057500672E+02               0
GRID*             152468               0-1.250000000E+007.9976476307E+01+
*       -1.059344480E+02               0
GRID*             152469               0-1.250000000E+007.7164759178E+01+
*       -1.061308276E+02               0
GRID*             152470               0-1.250000000E+007.4343421008E+01+
*       -1.063612789E+02               0
GRID*             152471               0-1.250000000E+007.1515408442E+01+
*       -1.066338347E+02               0
GRID*             152472               0-1.250000000E+006.8683232214E+01+
*       -1.069497386E+02               0
GRID*             152473               0-1.250000000E+006.5846521058E+01+
*       -1.073043547E+02               0
GRID*             152474               0-1.250000000E+006.2999979419E+01+
*       -1.076834348E+02               0
GRID*             152475               0-1.250000000E+006.0136537356E+01+
*       -1.080592903E+02               0
GRID*             152476               0-1.250000000E+005.7257306897E+01+
*       -1.083964947E+02               0
GRID*             152477               0-1.250000000E+005.4374055429E+01+
*       -1.086768775E+02               0
GRID*             152478               0-1.250000000E+005.1497334034E+01+
*       -1.088972798E+02               0
GRID*             152479               0-1.250000000E+004.8632548097E+01+
*       -1.090624892E+02               0
GRID*             152480               0-1.250000000E+004.5781565086E+01+
*       -1.091803727E+02               0
GRID*             152481               0-1.250000000E+004.2945396354E+01+
*       -1.092589190E+02               0
GRID*             152482               0-1.250000000E+004.0125711013E+01+
*       -1.093041165E+02               0
GRID*             152483               0-1.250000000E+003.7324616186E+01+
*       -1.093190748E+02               0
GRID*             152484               0-1.250000000E+003.4543808064E+01+
*       -1.093041907E+02               0
GRID*             152485               0-1.250000000E+003.1785224222E+01+
*       -1.092582015E+02               0
GRID*             152486               0-1.250000000E+002.9053762038E+01+
*       -1.091800519E+02               0
GRID*             152487               0-1.250000000E+002.6360060877E+01+
*       -1.090707604E+02               0
GRID*             152488               0-1.250000000E+002.3720145545E+01+
*       -1.089344628E+02               0
GRID*             152489               0-1.250000000E+002.1149532408E+01+
*       -1.087815881E+02               0
GRID*             152490               0-1.250000000E+001.8650283964E+01+
*       -1.086319455E+02               0
GRID*             152491               0-1.250000000E+001.6211156355E+01+
*       -1.084941456E+02               0
GRID*             152492               0-1.250000000E+001.6440065892E+01+
*       -1.056259099E+02               0
GRID*             152493               0-1.250000000E+001.6647780681E+01+
*       -1.027283480E+02               0
GRID*             152494               0-1.250000000E+001.6842109996E+01+
*       -9.981362029E+01               0
GRID*             152495               0-1.250000000E+001.7028678915E+01+
*       -9.688603468E+01               0
GRID*             152496               0-1.250000000E+001.7210073682E+01+
*       -9.394326728E+01               0
GRID*             152497               0-1.250000000E+001.7383940201E+01+
*       -9.097954550E+01               0
GRID*             152498               0-1.250000000E+001.7541953789E+01+
*       -8.799098827E+01               0
GRID*             152499               0-1.250000000E+001.7673969407E+01+
*       -8.498074393E+01               0
GRID*             152500               0-1.250000000E+001.7776633415E+01+
*       -8.195790666E+01               0
GRID*             152501               0-1.250000000E+001.7852254381E+01+
*       -7.893147441E+01               0
GRID*             152502               0-1.250000000E+001.7905552653E+01+
*       -7.590770092E+01               0
GRID*             152503               0-1.250000000E+002.0897157863E+01+
*       -7.609230476E+01               0
GRID*             152504               0-1.250000000E+002.3910479561E+01+
*       -7.627591825E+01               0
GRID*             152505               0-1.250000000E+002.6951100764E+01+
*       -7.644835719E+01               0
GRID*             152506               0-1.250000000E+003.0021690928E+01+
*       -7.659555635E+01               0
GRID*             152507               0-1.250000000E+003.3118571250E+01+
*       -7.670081788E+01               0
GRID*             152508               0-1.250000000E+003.6229218491E+01+
*       -7.675124647E+01               0
GRID*             152509               0-1.250000000E+003.9337512015E+01+
*       -7.674952927E+01               0
GRID*             152510               0-1.250000000E+004.2430679649E+01+
*       -7.670418256E+01               0
GRID*             152511               0-1.250000000E+004.5498859782E+01+
*       -7.662438182E+01               0
GRID*             152512               0-1.250000000E+004.8534429965E+01+
*       -7.652351196E+01               0
GRID*             152513               0-1.250000000E+005.1537468655E+01+
*       -7.642415684E+01               0
GRID*             152514               0-1.250000000E+005.4518354320E+01+
*       -7.634439462E+01               0
GRID*             152515               0-1.250000000E+005.7494728899E+01+
*       -7.629245736E+01               0
GRID*             152516               0-1.250000000E+006.0486905310E+01+
*       -7.626437132E+01               0
GRID*             152517               0-1.250000000E+006.3509985804E+01+
*       -7.624213770E+01               0
GRID*             152518               0-1.250000000E+006.6563655791E+01+
*       -7.620086895E+01               0
GRID*             152519               0-1.250000000E+006.9634236118E+01+
*       -7.613312476E+01               0
GRID*             152520               0-1.250000000E+007.2708464657E+01+
*       -7.604278635E+01               0
GRID*             152521               0-1.250000000E+007.5777889994E+01+
*       -7.593762105E+01               0
GRID*             152522               0-1.250000000E+007.8838450396E+01+
*       -7.582529292E+01               0
GRID*             152523               0-1.250000000E+007.8859443704E+01+
*       -7.884316232E+01               0
GRID*             152524               0-1.250000000E+007.8892325455E+01+
*       -8.187055642E+01               0
GRID*             152525               0-1.250000000E+007.8943822528E+01+
*       -8.490606774E+01               0
GRID*             152526               0-1.250000000E+007.9020916752E+01+
*       -8.794558189E+01               0
GRID*             152527               0-1.250000000E+007.9127762293E+01+
*       -9.098223105E+01               0
GRID*             152528               0-1.250000000E+007.9262188075E+01+
*       -9.400879410E+01               0
GRID*             152529               0-1.250000000E+007.9418536446E+01+
*       -9.702004180E+01               0
GRID*             152530               0-1.250000000E+007.9591362856E+01+
*       -1.000125627E+02               0
GRID*             152531               0-1.250000000E+007.9777141238E+01+
*       -1.029835878E+02               0
GRID*             152532               0-1.250000000E+007.6931491878E+01+
*       -1.032078156E+02               0
GRID*             152533               0-1.250000000E+007.4074315390E+01+
*       -1.034604346E+02               0
GRID*             152534               0-1.250000000E+007.1211161057E+01+
*       -1.037496506E+02               0
GRID*             152535               0-1.250000000E+006.8348468073E+01+
*       -1.040779454E+02               0
GRID*             152536               0-1.250000000E+006.5492443027E+01+
*       -1.044402207E+02               0
GRID*             152537               0-1.250000000E+006.2646539077E+01+
*       -1.048205816E+02               0
GRID*             152538               0-1.250000000E+005.9809623699E+01+
*       -1.051926045E+02               0
GRID*             152539               0-1.250000000E+005.6979637698E+01+
*       -1.055295983E+02               0
GRID*             152540               0-1.250000000E+005.4156879932E+01+
*       -1.058150633E+02               0
GRID*             152541               0-1.250000000E+005.1342106330E+01+
*       -1.060434103E+02               0
GRID*             152542               0-1.250000000E+004.8535227560E+01+
*       -1.062171291E+02               0
GRID*             152543               0-1.250000000E+004.5736169856E+01+
*       -1.063438229E+02               0
GRID*             152544               0-1.250000000E+004.2946993655E+01+
*       -1.064328223E+02               0
GRID*             152545               0-1.250000000E+004.0173056003E+01+
*       -1.064907897E+02               0
GRID*             152546               0-1.250000000E+003.7420727885E+01+
*       -1.065194956E+02               0
GRID*             152547               0-1.250000000E+003.4694169792E+01+
*       -1.065157820E+02               0
GRID*             152548               0-1.250000000E+003.1993903163E+01+
*       -1.064738943E+02               0
GRID*             152549               0-1.250000000E+002.9318654012E+01+
*       -1.063908208E+02               0
GRID*             152550               0-1.250000000E+002.6670106291E+01+
*       -1.062712389E+02               0
GRID*             152551               0-1.250000000E+002.4054704547E+01+
*       -1.061236478E+02               0
GRID*             152552               0-1.250000000E+002.1479129680E+01+
*       -1.059584710E+02               0
GRID*             152553               0-1.250000000E+001.8944008075E+01+
*       -1.057871456E+02               0
GRID*             152554               0-1.250000000E+001.9203133101E+01+
*       -1.029206284E+02               0
GRID*             152555               0-1.250000000E+001.9447791564E+01+
*       -1.000365086E+02               0
GRID*             152556               0-1.250000000E+001.9688400896E+01+
*       -9.713916791E+01               0
GRID*             152557               0-1.250000000E+001.9931523290E+01+
*       -9.422251264E+01               0
GRID*             152558               0-1.250000000E+002.0175184177E+01+
*       -9.127325944E+01               0
GRID*             152559               0-1.250000000E+002.0402960223E+01+
*       -8.828028317E+01               0
GRID*             152560               0-1.250000000E+002.0589815945E+01+
*       -8.524835701E+01               0
GRID*             152561               0-1.250000000E+002.0730024729E+01+
*       -8.219686385E+01               0
GRID*             152562               0-1.250000000E+002.0829437050E+01+
*       -7.914241819E+01               0
GRID*             152563               0-1.250000000E+002.3835081325E+01+
*       -7.935515029E+01               0
GRID*             152564               0-1.250000000E+002.6878836307E+01+
*       -7.956170528E+01               0
GRID*             152565               0-1.250000000E+002.9968783397E+01+
*       -7.974333172E+01               0
GRID*             152566               0-1.250000000E+003.3102728070E+01+
*       -7.987004131E+01               0
GRID*             152567               0-1.250000000E+003.6257107800E+01+
*       -7.991076947E+01               0
GRID*             152568               0-1.250000000E+003.9402663772E+01+
*       -7.988146936E+01               0
GRID*             152569               0-1.250000000E+004.2524163414E+01+
*       -7.980002897E+01               0
GRID*             152570               0-1.250000000E+004.5609988231E+01+
*       -7.967442829E+01               0
GRID*             152571               0-1.250000000E+004.8643240651E+01+
*       -7.951625857E+01               0
GRID*             152572               0-1.250000000E+005.1620438739E+01+
*       -7.937103248E+01               0
GRID*             152573               0-1.250000000E+005.4559122978E+01+
*       -7.926930429E+01               0
GRID*             152574               0-1.250000000E+005.7488892996E+01+
*       -7.922466682E+01               0
GRID*             152575               0-1.250000000E+006.0446290729E+01+
*       -7.923295001E+01               0
GRID*             152576               0-1.250000000E+006.3462903790E+01+
*       -7.926059529E+01               0
GRID*             152577               0-1.250000000E+006.6535501280E+01+
*       -7.924504708E+01               0
GRID*             152578               0-1.250000000E+006.9628727004E+01+
*       -7.918200701E+01               0
GRID*             152579               0-1.250000000E+007.2719080563E+01+
*       -7.908532812E+01               0
GRID*             152580               0-1.250000000E+007.5796548331E+01+
*       -7.896945384E+01               0
GRID*             152581               0-1.250000000E+007.5828735970E+01+
*       -8.201523799E+01               0
GRID*             152582               0-1.250000000E+007.5884573040E+01+
*       -8.507515059E+01               0
GRID*             152583               0-1.250000000E+007.5976857629E+01+
*       -8.814288120E+01               0
GRID*             152584               0-1.250000000E+007.6114299084E+01+
*       -9.120506458E+01               0
GRID*             152585               0-1.250000000E+007.6289472436E+01+
*       -9.424817050E+01               0
GRID*             152586               0-1.250000000E+007.6489752382E+01+
*       -9.726473441E+01               0
GRID*             152587               0-1.250000000E+007.6705066836E+01+
*       -1.002515202E+02               0
GRID*             152588               0-1.250000000E+007.3807448839E+01+
*       -1.005188651E+02               0
GRID*             152589               0-1.250000000E+007.0904240293E+01+
*       -1.008238016E+02               0
GRID*             152590               0-1.250000000E+006.8006230123E+01+
*       -1.011715016E+02               0
GRID*             152591               0-1.250000000E+006.5128306291E+01+
*       -1.015590568E+02               0
GRID*             152592               0-1.250000000E+006.2284466153E+01+
*       -1.019682782E+02               0
GRID*             152593               0-1.250000000E+005.9476045702E+01+
*       -1.023636697E+02               0
GRID*             152594               0-1.250000000E+005.6694673138E+01+
*       -1.027169339E+02               0
GRID*             152595               0-1.250000000E+005.3931032859E+01+
*       -1.030127619E+02               0
GRID*             152596               0-1.250000000E+005.1177644587E+01+
*       -1.032463113E+02               0
GRID*             152597               0-1.250000000E+004.8428540453E+01+
*       -1.034208633E+02               0
GRID*             152598               0-1.250000000E+004.5679913672E+01+
*       -1.035469468E+02               0
GRID*             152599               0-1.250000000E+004.2933771837E+01+
*       -1.036396210E+02               0
GRID*             152600               0-1.250000000E+004.0200516732E+01+
*       -1.037085698E+02               0
GRID*             152601               0-1.250000000E+003.7493377105E+01+
*       -1.037540736E+02               0
GRID*             152602               0-1.250000000E+003.4821184051E+01+
*       -1.037663272E+02               0
GRID*             152603               0-1.250000000E+003.2182490350E+01+
*       -1.037287696E+02               0
GRID*             152604               0-1.250000000E+002.9564993301E+01+
*       -1.036305440E+02               0
GRID*             152605               0-1.250000000E+002.6957442645E+01+
*       -1.034842975E+02               0
GRID*             152606               0-1.250000000E+002.4359057355E+01+
*       -1.033072658E+02               0
GRID*             152607               0-1.250000000E+002.1774097237E+01+
*       -1.031136154E+02               0
GRID*             152608               0-1.250000000E+002.2053250422E+01+
*       -1.002655106E+02               0
GRID*             152609               0-1.250000000E+002.2337278797E+01+
*       -9.741022964E+01               0
GRID*             152610               0-1.250000000E+002.2640963246E+01+
*       -9.453583745E+01               0
GRID*             152611               0-1.250000000E+002.2968060274E+01+
*       -9.161468972E+01               0
GRID*             152612               0-1.250000000E+002.3290309878E+01+
*       -8.861630356E+01               0
GRID*             152613               0-1.250000000E+002.3541377297E+01+
*       -8.554616823E+01               0
GRID*             152614               0-1.250000000E+002.3717379251E+01+
*       -8.244995019E+01               0
GRID*             152615               0-1.250000000E+002.6757495695E+01+
*       -8.270843031E+01               0
GRID*             152616               0-1.250000000E+002.9870810347E+01+
*       -8.295379078E+01               0
GRID*             152617               0-1.250000000E+003.3066474647E+01+
*       -8.313115937E+01               0
GRID*             152618               0-1.250000000E+003.6293070665E+01+
*       -8.314116047E+01               0
GRID*             152619               0-1.250000000E+003.9488945195E+01+
*       -8.306266304E+01               0
GRID*             152620               0-1.250000000E+004.2648891714E+01+
*       -8.293459529E+01               0
GRID*             152621               0-1.250000000E+004.5768578303E+01+
*       -8.274989124E+01               0
GRID*             152622               0-1.250000000E+004.8801960273E+01+
*       -8.248855304E+01               0
GRID*             152623               0-1.250000000E+005.1735632038E+01+
*       -8.226811308E+01               0
GRID*             152624               0-1.250000000E+005.4603485167E+01+
*       -8.213244931E+01               0
GRID*             152625               0-1.250000000E+005.7452066896E+01+
*       -8.210033884E+01               0
GRID*             152626               0-1.250000000E+006.0344592225E+01+
*       -8.217804675E+01               0
GRID*             152627               0-1.250000000E+006.3357183166E+01+
*       -8.231903560E+01               0
GRID*             152628               0-1.250000000E+006.6484259281E+01+
*       -8.233640503E+01               0
GRID*             152629               0-1.250000000E+006.9623987442E+01+
*       -8.226685537E+01               0
GRID*             152630               0-1.250000000E+007.2740534097E+01+
*       -8.215198397E+01               0
GRID*             152631               0-1.250000000E+007.2788666071E+01+
*       -8.524397582E+01               0
GRID*             152632               0-1.250000000E+007.2888660669E+01+
*       -8.835406273E+01               0
GRID*             152633               0-1.250000000E+007.3065041013E+01+
*       -9.145435080E+01               0
GRID*             152634               0-1.250000000E+007.3292890943E+01+
*       -9.451863068E+01               0
GRID*             152635               0-1.250000000E+007.3545069074E+01+
*       -9.753946721E+01               0
GRID*             152636               0-1.250000000E+007.0591387460E+01+
*       -9.785596719E+01               0
GRID*             152637               0-1.250000000E+006.7643086392E+01+
*       -9.822745401E+01               0
GRID*             152638               0-1.250000000E+006.4728793827E+01+
*       -9.865976554E+01               0
GRID*             152639               0-1.250000000E+006.1885449131E+01+
*       -9.913400457E+01               0
GRID*             152640               0-1.250000000E+005.9113700162E+01+
*       -9.958084649E+01               0
GRID*             152641               0-1.250000000E+005.6389635536E+01+
*       -9.996489534E+01               0
GRID*             152642               0-1.250000000E+005.3691511199E+01+
*       -1.002750336E+02               0
GRID*             152643               0-1.250000000E+005.1004566474E+01+
*       -1.005100261E+02               0
GRID*             152644               0-1.250000000E+004.8317089130E+01+
*       -1.006749020E+02               0
GRID*             152645               0-1.250000000E+004.5618441178E+01+
*       -1.007855883E+02               0
GRID*             152646               0-1.250000000E+004.2907149950E+01+
*       -1.008727863E+02               0
GRID*             152647               0-1.250000000E+004.0202511512E+01+
*       -1.009535908E+02               0
GRID*             152648               0-1.250000000E+003.7531215051E+01+
*       -1.010272783E+02               0
GRID*             152649               0-1.250000000E+003.4913790701E+01+
*       -1.010733682E+02               0
GRID*             152650               0-1.250000000E+003.2349344878E+01+
*       -1.010514730E+02               0
GRID*             152651               0-1.250000000E+002.9803253751E+01+
*       -1.009228167E+02               0
GRID*             152652               0-1.250000000E+002.7239686402E+01+
*       -1.007264669E+02               0
GRID*             152653               0-1.250000000E+002.4653707415E+01+
*       -1.004989709E+02               0
GRID*             152654               0-1.250000000E+002.4963813423E+01+
*       -9.770185518E+01               0
GRID*             152655               0-1.250000000E+002.5321599083E+01+
*       -9.489708028E+01               0
GRID*             152656               0-1.250000000E+002.5754285742E+01+
*       -9.203417058E+01               0
GRID*             152657               0-1.250000000E+002.6232994134E+01+
*       -8.903030446E+01               0
GRID*             152658               0-1.250000000E+002.6556864794E+01+
*       -8.588043271E+01               0
GRID*             152659               0-1.250000000E+002.9686523295E+01+
*       -8.624672994E+01               0
GRID*             152660               0-1.250000000E+003.2996995561E+01+
*       -8.657872144E+01               0
GRID*             152661               0-1.250000000E+003.6357482348E+01+
*       -8.646307354E+01               0
GRID*             152662               0-1.250000000E+003.9605108769E+01+
*       -8.629040559E+01               0
GRID*             152663               0-1.250000000E+004.2805614089E+01+
*       -8.611913881E+01               0
GRID*             152664               0-1.250000000E+004.6005248363E+01+
*       -8.589438439E+01               0
GRID*             152665               0-1.250000000E+004.9048363420E+01+
*       -8.541222507E+01               0
GRID*             152666               0-1.250000000E+005.1905342928E+01+
*       -8.507492009E+01               0
GRID*             152667               0-1.250000000E+005.4658171273E+01+
*       -8.488905602E+01               0
GRID*             152668               0-1.250000000E+005.7366318229E+01+
*       -8.486507612E+01               0
GRID*             152669               0-1.250000000E+006.0121056756E+01+
*       -8.505517380E+01               0
GRID*             152670               0-1.250000000E+006.3126120592E+01+
*       -8.549982901E+01               0
GRID*             152671               0-1.250000000E+006.6413848492E+01+
*       -8.551716479E+01               0
GRID*             152672               0-1.250000000E+006.9638782608E+01+
*       -8.540146541E+01               0
GRID*             152673               0-1.250000000E+006.9723256436E+01+
*       -8.858344493E+01               0
GRID*             152674               0-1.250000000E+006.9966011939E+01+
*       -9.174677788E+01               0
GRID*             152675               0-1.250000000E+007.0273216230E+01+
*       -9.483637740E+01               0
GRID*             152676               0-1.250000000E+006.7244124247E+01+
*       -9.522616055E+01               0
GRID*             152677               0-1.250000000E+006.4253783279E+01+
*       -9.572253051E+01               0
GRID*             152678               0-1.250000000E+006.1410215296E+01+
*       -9.633164190E+01               0
GRID*             152679               0-1.250000000E+005.8698376656E+01+
*       -9.686425117E+01               0
GRID*             152680               0-1.250000000E+005.6052090584E+01+
*       -9.728870449E+01               0
GRID*             152681               0-1.250000000E+005.3432846676E+01+
*       -9.761305103E+01               0
GRID*             152682               0-1.250000000E+005.0823327282E+01+
*       -9.784399020E+01               0
GRID*             152683               0-1.250000000E+004.8209025612E+01+
*       -9.798401339E+01               0
GRID*             152684               0-1.250000000E+004.5564608508E+01+
*       -9.804986775E+01               0
GRID*             152685               0-1.250000000E+004.2871757280E+01+
*       -9.811594192E+01               0
GRID*             152686               0-1.250000000E+004.0169929946E+01+
*       -9.821178443E+01               0
GRID*             152687               0-1.250000000E+003.7512531130E+01+
*       -9.833729159E+01               0
GRID*             152688               0-1.250000000E+003.4948741631E+01+
*       -9.846089601E+01               0
GRID*             152689               0-1.250000000E+003.2493440065E+01+
*       -9.849707907E+01               0
GRID*             152690               0-1.250000000E+003.0058245525E+01+
*       -9.829878568E+01               0
GRID*             152691               0-1.250000000E+002.7546576315E+01+
*       -9.800872806E+01               0
GRID*             152692               0-1.250000000E+002.7932344704E+01+
*       -9.531913576E+01               0
GRID*             152693               0-1.250000000E+002.8489753615E+01+
*       -9.258897032E+01               0
GRID*             152694               0-1.250000000E+002.9312721317E+01+
*       -8.959927967E+01               0
GRID*             152695               0-1.250000000E+003.2863969777E+01+
*       -9.059385102E+01               0
GRID*             152696               0-1.250000000E+003.6529830778E+01+
*       -8.985074228E+01               0
GRID*             152697               0-1.250000000E+003.9758888277E+01+
*       -8.951577262E+01               0
GRID*             152698               0-1.250000000E+004.2948895726E+01+
*       -8.934874102E+01               0
GRID*             152699               0-1.250000000E+004.6396629193E+01+
*       -8.931587497E+01               0
GRID*             152700               0-1.250000000E+004.9455975590E+01+
*       -8.820078976E+01               0
GRID*             152701               0-1.250000000E+005.2162409115E+01+
*       -8.773136602E+01               0
GRID*             152702               0-1.250000000E+005.4745144834E+01+
*       -8.748524290E+01               0
GRID*             152703               0-1.250000000E+005.7228187409E+01+
*       -8.742358941E+01               0
GRID*             152704               0-1.250000000E+005.9661823511E+01+
*       -8.769006704E+01               0
GRID*             152705               0-1.250000000E+006.2536581879E+01+
*       -8.916924417E+01               0
GRID*             152706               0-1.250000000E+006.6390065582E+01+
*       -8.884218627E+01               0
GRID*             152707               0-1.250000000E+006.6803780017E+01+
*       -9.212090009E+01               0
GRID*             152708               0-1.250000000E+006.3618331934E+01+
*       -9.267119104E+01               0
GRID*             152709               0-1.250000000E+006.0796025790E+01+
*       -9.360670951E+01               0
GRID*             152710               0-1.250000000E+005.8207624133E+01+
*       -9.425561711E+01               0
GRID*             152711               0-1.250000000E+005.5675763910E+01+
*       -9.471137301E+01               0
GRID*             152712               0-1.250000000E+005.3151730726E+01+
*       -9.504180387E+01               0
GRID*             152713               0-1.250000000E+005.0634276145E+01+
*       -9.526590011E+01               0
GRID*             152714               0-1.250000000E+004.8120254074E+01+
*       -9.536623166E+01               0
GRID*             152715               0-1.250000000E+004.5552682611E+01+
*       -9.531538582E+01               0
GRID*             152716               0-1.250000000E+004.2841790179E+01+
*       -9.533223936E+01               0
GRID*             152717               0-1.250000000E+004.0089475782E+01+
*       -9.544629395E+01               0
GRID*             152718               0-1.250000000E+003.7393974710E+01+
*       -9.565930033E+01               0
GRID*             152719               0-1.250000000E+003.4866492187E+01+
*       -9.595064935E+01               0
GRID*             152720               0-1.250000000E+003.2611597833E+01+
*       -9.619099371E+01               0
GRID*             152721               0-1.250000000E+003.0392062072E+01+
*       -9.579059668E+01               0
GRID*             152722               0-1.250000000E+003.0992068468E+01+
*       -9.337217907E+01               0
GRID*             152723               0-1.250000000E+003.2692999037E+01+
*       -9.443263263E+01               0
GRID*             152724               0-1.250000000E+003.4485571382E+01+
*       -9.350207003E+01               0
GRID*             152725               0-1.250000000E+003.7094117669E+01+
*       -9.290541135E+01               0
GRID*             152726               0-1.250000000E+005.8841862651E+01+
*       -8.950778841E+01               0
GRID*             152727               0-1.250000000E+005.9951328500E+01+
*       -9.113783251E+01               0
GRID*             152728               0-1.250000000E+005.7127649882E+01+
*       -8.966972993E+01               0
GRID*             152729               0-1.250000000E+005.7645986221E+01+
*       -9.183228138E+01               0
GRID*             152730               0-1.250000000E+003.9947939508E+01+
*       -9.258220238E+01               0
GRID*             152731               0-1.250000000E+005.4916643676E+01+
*       -8.989797114E+01               0
GRID*             152732               0-1.250000000E+005.5275835806E+01+
*       -9.225455112E+01               0
GRID*             152733               0-1.250000000E+004.2852069383E+01+
*       -9.244828869E+01               0
GRID*             152734               0-1.250000000E+005.2522465399E+01+
*       -9.017352391E+01               0
GRID*             152735               0-1.250000000E+005.2848632603E+01+
*       -9.257066965E+01               0
GRID*             152736               0-1.250000000E+005.0148349960E+01+
*       -9.048817912E+01               0
GRID*             152737               0-1.250000000E+005.0428531119E+01+
*       -9.280488024E+01               0
GRID*             152738               0-1.250000000E+004.5685840950E+01+
*       -9.250943296E+01               0
GRID*             152739               0-1.250000000E+004.8104690750E+01+
*       -9.080920319E+01               0
GRID*             152740               0-1.250000000E+004.8075093230E+01+
*       -9.289145168E+01               0
GRID*             152741               0-1.250000000E+007.9038693018E+01+
*       -3.575691369E+01               0
GRID*             152742               0-1.250000000E+007.8795395049E+01+
*       -3.928989787E+01               0
GRID*             152743               0-1.250000000E+008.1988141492E+01+
*       -3.927058760E+01               0
GRID*             152744               0-1.250000000E+008.2254786911E+01+
*       -3.592168366E+01               0
GRID*             152745               0-1.250000000E+007.9815523907E+01+
*       -3.178101815E+01               0
GRID*             152746               0-1.250000000E+008.2780792035E+01+
*       -3.250650247E+01               0
GRID*             152747               0-1.250000000E+007.8913426984E+01+
*       -2.914374761E+01               0
GRID*             152748               0-1.250000000E+008.0343200841E+01+
*       -2.841292250E+01               0
GRID*             152749               0-1.250000000E+008.1615771678E+01+
*       -2.915427016E+01               0
GRID*             152750               0-1.250000000E+008.3533279901E+01+
*       -2.952153490E+01               0
GRID*             152751               0-1.250000000E+008.5054776307E+01+
*       -3.937552478E+01               0
GRID*             152752               0-1.250000000E+008.5246509558E+01+
*       -3.616425065E+01               0
GRID*             152753               0-1.250000000E+008.5565686363E+01+
*       -3.288483900E+01               0
GRID*             152754               0-1.250000000E+008.5993754469E+01+
*       -2.945839725E+01               0
GRID*             152755               0-1.250000000E+007.5481619739E+01+
*       -3.956069107E+01               0
GRID*             152756               0-1.250000000E+007.5389442026E+01+
*       -3.598586131E+01               0
GRID*             152757               0-1.250000000E+007.2025059119E+01+
*       -3.725236546E+01               0
GRID*             152758               0-1.250000000E+007.2252562902E+01+
*       -4.013625020E+01               0
GRID*             152759               0-1.250000000E+006.9010537071E+01+
*       -3.780404824E+01               0
GRID*             152760               0-1.250000000E+006.9166539515E+01+
*       -4.056607040E+01               0
GRID*             152761               0-1.250000000E+006.6038887441E+01+
*       -3.815469707E+01               0
GRID*             152762               0-1.250000000E+006.6135851847E+01+
*       -4.088674929E+01               0
GRID*             152763               0-1.250000000E+006.3058580635E+01+
*       -3.840716434E+01               0
GRID*             152764               0-1.250000000E+006.3120266309E+01+
*       -4.113081632E+01               0
GRID*             152765               0-1.250000000E+006.0062218568E+01+
*       -3.859551998E+01               0
GRID*             152766               0-1.250000000E+006.0104287016E+01+
*       -4.131732060E+01               0
GRID*             152767               0-1.250000000E+005.7050641452E+01+
*       -3.873462935E+01               0
GRID*             152768               0-1.250000000E+005.7082603758E+01+
*       -4.145703895E+01               0
GRID*             152769               0-1.250000000E+005.4025967836E+01+
*       -3.883230266E+01               0
GRID*             152770               0-1.250000000E+005.4053876811E+01+
*       -4.155636256E+01               0
GRID*             152771               0-1.250000000E+005.0990262086E+01+
*       -3.889301171E+01               0
GRID*             152772               0-1.250000000E+005.1018350416E+01+
*       -4.161919102E+01               0
GRID*             152773               0-1.250000000E+004.7945466506E+01+
*       -3.891922815E+01               0
GRID*             152774               0-1.250000000E+004.7977033892E+01+
*       -4.164779897E+01               0
GRID*             152775               0-1.250000000E+004.4893647288E+01+
*       -3.891195392E+01               0
GRID*             152776               0-1.250000000E+004.4931506779E+01+
*       -4.164325219E+01               0
GRID*             152777               0-1.250000000E+004.1837327530E+01+
*       -3.887095280E+01               0
GRID*             152778               0-1.250000000E+004.1883960926E+01+
*       -4.160564076E+01               0
GRID*             152779               0-1.250000000E+003.8779756538E+01+
*       -3.879485768E+01               0
GRID*             152780               0-1.250000000E+003.8837308806E+01+
*       -4.153426122E+01               0
GRID*             152781               0-1.250000000E+003.5724958779E+01+
*       -3.868120503E+01               0
GRID*             152782               0-1.250000000E+003.5795135037E+01+
*       -4.142785393E+01               0
GRID*             152783               0-1.250000000E+003.2677765112E+01+
*       -3.852621198E+01               0
GRID*             152784               0-1.250000000E+003.2761396981E+01+
*       -4.128488396E+01               0
GRID*             152785               0-1.250000000E+002.9644086921E+01+
*       -3.832423869E+01               0
GRID*             152786               0-1.250000000E+002.9740132203E+01+
*       -4.110390803E+01               0
GRID*             152787               0-1.250000000E+002.6630548711E+01+
*       -3.806795535E+01               0
GRID*             152788               0-1.250000000E+002.6735038157E+01+
*       -4.088469266E+01               0
GRID*             152789               0-1.250000000E+002.3641552019E+01+
*       -3.775195359E+01               0
GRID*             152790               0-1.250000000E+002.3748308428E+01+
*       -4.063147067E+01               0
GRID*             152791               0-1.250000000E+002.0680662882E+01+
*       -3.739102567E+01               0
GRID*             152792               0-1.250000000E+002.0780155476E+01+
*       -4.036033362E+01               0
GRID*             152793               0-1.250000000E+001.7754231049E+01+
*       -3.707079434E+01               0
GRID*             152794               0-1.250000000E+001.7827996976E+01+
*       -4.010697664E+01               0
GRID*             152795               0-1.250000000E+001.4825283278E+01+
*       -3.673830419E+01               0
GRID*             152796               0-1.250000000E+001.4879633856E+01+
*       -3.988827599E+01               0
GRID*             152797               0-1.250000000E+001.4760265371E+01+
*       -3.319899137E+01               0
GRID*             152798               0-1.250000000E+001.3676875458E+01+
*       -3.003534537E+01               0
GRID*             152799               0-1.250000000E+001.5436351577E+01+
*       -2.950853771E+01               0
GRID*             152800               0-1.250000000E+001.7077625891E+01+
*       -2.924689373E+01               0
GRID*             152801               0-1.250000000E+001.8635496767E+01+
*       -2.892189901E+01               0
GRID*             152802               0-1.250000000E+001.9764881401E+01+
*       -2.829741996E+01               0
GRID*             152803               0-1.250000000E+002.1102985825E+01+
*       -2.895661915E+01               0
GRID*             152804               0-1.250000000E+002.3195783934E+01+
*       -2.951707337E+01               0
GRID*             152805               0-1.250000000E+002.6065153886E+01+
*       -3.005489173E+01               0
GRID*             152806               0-1.250000000E+002.9135547438E+01+
*       -3.033887382E+01               0
GRID*             152807               0-1.250000000E+003.2299454084E+01+
*       -3.054113286E+01               0
GRID*             152808               0-1.250000000E+003.5464139808E+01+
*       -3.068908488E+01               0
GRID*             152809               0-1.250000000E+003.8607752344E+01+
*       -3.079596707E+01               0
GRID*             152810               0-1.250000000E+004.1728739337E+01+
*       -3.086829561E+01               0
GRID*             152811               0-1.250000000E+004.4829651656E+01+
*       -3.090974960E+01               0
GRID*             152812               0-1.250000000E+004.7912472574E+01+
*       -3.092259131E+01               0
GRID*             152813               0-1.250000000E+005.0978029111E+01+
*       -3.090807994E+01               0
GRID*             152814               0-1.250000000E+005.4026092440E+01+
*       -3.086647343E+01               0
GRID*             152815               0-1.250000000E+005.7055079203E+01+
*       -3.079682637E+01               0
GRID*             152816               0-1.250000000E+006.0061412967E+01+
*       -3.069814280E+01               0
GRID*             152817               0-1.250000000E+006.3038157583E+01+
*       -3.057049705E+01               0
GRID*             152818               0-1.250000000E+006.5972488565E+01+
*       -3.041721066E+01               0
GRID*             152819               0-1.250000000E+006.8842025523E+01+
*       -3.024921966E+01               0
GRID*             152820               0-1.250000000E+007.1614306072E+01+
*       -3.008994316E+01               0
GRID*             152821               0-1.250000000E+007.4254131259E+01+
*       -2.995147034E+01               0
GRID*             152822               0-1.250000000E+007.6817949082E+01+
*       -2.966048310E+01               0
GRID*             152823               0-1.250000000E+007.6561377294E+01+
*       -3.249282481E+01               0
GRID*             152824               0-1.250000000E+001.7668007249E+01+
*       -3.400280057E+01               0
GRID*             152825               0-1.250000000E+001.5937179530E+01+
*       -3.147814832E+01               0
GRID*             152826               0-1.250000000E+001.7767664143E+01+
*       -3.143956456E+01               0
GRID*             152827               0-1.250000000E+002.0527891073E+01+
*       -3.435732758E+01               0
GRID*             152828               0-1.250000000E+002.0278872917E+01+
*       -3.113268072E+01               0
GRID*             152829               0-1.250000000E+007.1466182886E+01+
*       -3.250360565E+01               0
GRID*             152830               0-1.250000000E+007.3974899077E+01+
*       -3.237315465E+01               0
GRID*             152831               0-1.250000000E+007.3716571692E+01+
*       -3.451610628E+01               0
GRID*             152832               0-1.250000000E+007.1511100028E+01+
*       -3.486442216E+01               0
GRID*             152833               0-1.250000000E+006.8813924361E+01+
*       -3.522076561E+01               0
GRID*             152834               0-1.250000000E+006.8764695574E+01+
*       -3.272453090E+01               0
GRID*             152835               0-1.250000000E+006.5927326839E+01+
*       -3.294917135E+01               0
GRID*             152836               0-1.250000000E+006.3006065585E+01+
*       -3.314092872E+01               0
GRID*             152837               0-1.250000000E+006.3013881737E+01+
*       -3.574702723E+01               0
GRID*             152838               0-1.250000000E+006.5951081953E+01+
*       -3.551699979E+01               0
GRID*             152839               0-1.250000000E+006.0035978491E+01+
*       -3.329432640E+01               0
GRID*             152840               0-1.250000000E+006.0036496699E+01+
*       -3.592296205E+01               0
GRID*             152841               0-1.250000000E+005.7034530456E+01+
*       -3.341063986E+01               0
GRID*             152842               0-1.250000000E+005.7032998070E+01+
*       -3.605378297E+01               0
GRID*             152843               0-1.250000000E+005.4010533552E+01+
*       -3.349246227E+01               0
GRID*             152844               0-1.250000000E+005.4010391767E+01+
*       -3.614541250E+01               0
GRID*             152845               0-1.250000000E+005.0968630294E+01+
*       -3.354209278E+01               0
GRID*             152846               0-1.250000000E+005.0972687304E+01+
*       -3.620161253E+01               0
GRID*             152847               0-1.250000000E+004.7911403075E+01+
*       -3.356098136E+01               0
GRID*             152848               0-1.250000000E+004.7922537793E+01+
*       -3.622450842E+01               0
GRID*             152849               0-1.250000000E+004.4840433380E+01+
*       -3.354935648E+01               0
GRID*             152850               0-1.250000000E+004.4862128940E+01+
*       -3.621479050E+01               0
GRID*             152851               0-1.250000000E+004.1756887511E+01+
*       -3.350621294E+01               0
GRID*             152852               0-1.250000000E+004.1793781337E+01+
*       -3.617181629E+01               0
GRID*             152853               0-1.250000000E+003.8661857830E+01+
*       -3.342919799E+01               0
GRID*             152854               0-1.250000000E+003.8720323150E+01+
*       -3.609358823E+01               0
GRID*             152855               0-1.250000000E+003.5557180865E+01+
*       -3.331400177E+01               0
GRID*             152856               0-1.250000000E+003.5645433091E+01+
*       -3.597644934E+01               0
GRID*             152857               0-1.250000000E+003.2448229669E+01+
*       -3.315245702E+01               0
GRID*             152858               0-1.250000000E+003.2574617413E+01+
*       -3.581398622E+01               0
GRID*             152859               0-1.250000000E+002.9349808935E+01+
*       -3.292777256E+01               0
GRID*             152860               0-1.250000000E+002.9517026508E+01+
*       -3.559466560E+01               0
GRID*             152861               0-1.250000000E+002.6292409310E+01+
*       -3.260260607E+01               0
GRID*             152862               0-1.250000000E+002.6485797839E+01+
*       -3.529832753E+01               0
GRID*             152863               0-1.250000000E+002.3281728489E+01+
*       -3.206492203E+01               0
GRID*             152864               0-1.250000000E+002.3487146045E+01+
*       -3.489118520E+01               0
GRID*             152865               0-1.250000000E+008.4957385090E+01+
*       -4.252014887E+01               0
GRID*             152866               0-1.250000000E+008.4911328916E+01+
*       -4.560921191E+01               0
GRID*             152867               0-1.250000000E+008.4892522329E+01+
*       -4.865825685E+01               0
GRID*             152868               0-1.250000000E+008.4887389985E+01+
*       -5.168042762E+01               0
GRID*             152869               0-1.250000000E+008.4888729207E+01+
*       -5.468530886E+01               0
GRID*             152870               0-1.250000000E+008.4892909141E+01+
*       -5.767950658E+01               0
GRID*             152871               0-1.250000000E+008.4898227155E+01+
*       -6.066749826E+01               0
GRID*             152872               0-1.250000000E+008.4903966061E+01+
*       -6.365238480E+01               0
GRID*             152873               0-1.250000000E+008.1849744413E+01+
*       -6.373713599E+01               0
GRID*             152874               0-1.250000000E+007.8790458924E+01+
*       -6.382866455E+01               0
GRID*             152875               0-1.250000000E+007.5727712533E+01+
*       -6.392513036E+01               0
GRID*             152876               0-1.250000000E+007.2664058848E+01+
*       -6.402337830E+01               0
GRID*             152877               0-1.250000000E+006.9602278381E+01+
*       -6.411979562E+01               0
GRID*             152878               0-1.250000000E+006.6544781591E+01+
*       -6.421116810E+01               0
GRID*             152879               0-1.250000000E+006.3493175028E+01+
*       -6.429526940E+01               0
GRID*             152880               0-1.250000000E+006.0447934540E+01+
*       -6.437100964E+01               0
GRID*             152881               0-1.250000000E+005.7408235482E+01+
*       -6.443806642E+01               0
GRID*             152882               0-1.250000000E+005.4372121387E+01+
*       -6.449611578E+01               0
GRID*             152883               0-1.250000000E+005.1337054058E+01+
*       -6.454410259E+01               0
GRID*             152884               0-1.250000000E+004.8300658434E+01+
*       -6.457990371E+01               0
GRID*             152885               0-1.250000000E+004.5261400080E+01+
*       -6.460050964E+01               0
GRID*             152886               0-1.250000000E+004.2218991350E+01+
*       -6.460259144E+01               0
GRID*             152887               0-1.250000000E+003.9174432202E+01+
*       -6.458318829E+01               0
GRID*             152888               0-1.250000000E+003.6129737508E+01+
*       -6.454027863E+01               0
GRID*             152889               0-1.250000000E+003.3087484087E+01+
*       -6.447325648E+01               0
GRID*             152890               0-1.250000000E+003.0050284127E+01+
*       -6.438336805E+01               0
GRID*             152891               0-1.250000000E+002.7020278164E+01+
*       -6.427395817E+01               0
GRID*             152892               0-1.250000000E+002.3998766686E+01+
*       -6.415022297E+01               0
GRID*             152893               0-1.250000000E+002.0986055781E+01+
*       -6.401835408E+01               0
GRID*             152894               0-1.250000000E+001.7981494903E+01+
*       -6.388424843E+01               0
GRID*             152895               0-1.250000000E+001.4983645218E+01+
*       -6.375212359E+01               0
GRID*             152896               0-1.250000000E+001.4983884157E+01+
*       -6.077305839E+01               0
GRID*             152897               0-1.250000000E+001.4980956175E+01+
*       -5.779899299E+01               0
GRID*             152898               0-1.250000000E+001.4975242117E+01+
*       -5.482899219E+01               0
GRID*             152899               0-1.250000000E+001.4966799267E+01+
*       -5.186142347E+01               0
GRID*             152900               0-1.250000000E+001.4955067185E+01+
*       -4.889319620E+01               0
GRID*             152901               0-1.250000000E+001.4938355317E+01+
*       -4.591842745E+01               0
GRID*             152902               0-1.250000000E+001.4913440467E+01+
*       -4.292553288E+01               0
GRID*             152903               0-1.250000000E+001.7874009133E+01+
*       -4.310483937E+01               0
GRID*             152904               0-1.250000000E+002.0840080258E+01+
*       -4.331225649E+01               0
GRID*             152905               0-1.250000000E+002.3816976888E+01+
*       -4.353092250E+01               0
GRID*             152906               0-1.250000000E+002.6807330907E+01+
*       -4.374096818E+01               0
GRID*             152907               0-1.250000000E+002.9811642139E+01+
*       -4.392927720E+01               0
GRID*             152908               0-1.250000000E+003.2828766464E+01+
*       -4.408919185E+01               0
GRID*             152909               0-1.250000000E+003.5856386012E+01+
*       -4.421794053E+01               0
GRID*             152910               0-1.250000000E+003.8891636210E+01+
*       -4.431471195E+01               0
GRID*             152911               0-1.250000000E+004.1931553384E+01+
*       -4.437956205E+01               0
GRID*             152912               0-1.250000000E+004.4973408524E+01+
*       -4.441280363E+01               0
GRID*             152913               0-1.250000000E+004.8014953347E+01+
*       -4.441460864E+01               0
GRID*             152914               0-1.250000000E+005.1054543716E+01+
*       -4.438473315E+01               0
GRID*             152915               0-1.250000000E+005.4091196160E+01+
*       -4.432233152E+01               0
GRID*             152916               0-1.250000000E+005.7124700171E+01+
*       -4.422582229E+01               0
GRID*             152917               0-1.250000000E+006.0155939611E+01+
*       -4.409277575E+01               0
GRID*             152918               0-1.250000000E+006.3187671850E+01+
*       -4.391980002E+01               0
GRID*             152919               0-1.250000000E+006.6226116525E+01+
*       -4.370250571E+01               0
GRID*             152920               0-1.250000000E+006.9283572117E+01+
*       -4.343634001E+01               0
GRID*             152921               0-1.250000000E+007.2380697812E+01+
*       -4.312211056E+01               0
GRID*             152922               0-1.250000000E+007.5539400588E+01+
*       -4.278909176E+01               0
GRID*             152923               0-1.250000000E+007.8728108587E+01+
*       -4.257594468E+01               0
GRID*             152924               0-1.250000000E+008.1874729872E+01+
*       -4.249987055E+01               0
GRID*             152925               0-1.250000000E+008.1828763778E+01+
*       -4.563375683E+01               0
GRID*             152926               0-1.250000000E+008.1814678370E+01+
*       -4.870735509E+01               0
GRID*             152927               0-1.250000000E+008.1814955939E+01+
*       -5.174363339E+01               0
GRID*             152928               0-1.250000000E+008.1821320898E+01+
*       -5.475715738E+01               0
GRID*             152929               0-1.250000000E+008.1829928169E+01+
*       -5.775717786E+01               0
GRID*             152930               0-1.250000000E+008.1839136721E+01+
*       -6.074967745E+01               0
GRID*             152931               0-1.250000000E+007.8776366236E+01+
*       -6.083973744E+01               0
GRID*             152932               0-1.250000000E+007.5710511741E+01+
*       -6.093742563E+01               0
GRID*             152933               0-1.250000000E+007.2644342940E+01+
*       -6.103963695E+01               0
GRID*             152934               0-1.250000000E+006.9580548734E+01+
*       -6.114238890E+01               0
GRID*             152935               0-1.250000000E+006.6521161060E+01+
*       -6.124169399E+01               0
GRID*             152936               0-1.250000000E+006.3467300947E+01+
*       -6.133422308E+01               0
GRID*             152937               0-1.250000000E+006.0419106994E+01+
*       -6.141757760E+01               0
GRID*             152938               0-1.250000000E+005.7375804778E+01+
*       -6.149013648E+01               0
GRID*             152939               0-1.250000000E+005.4335939074E+01+
*       -6.155061693E+01               0
GRID*             152940               0-1.250000000E+005.1297766918E+01+
*       -6.159761260E+01               0
GRID*             152941               0-1.250000000E+004.8259726982E+01+
*       -6.162933357E+01               0
GRID*             152942               0-1.250000000E+004.5220854866E+01+
*       -6.164364399E+01               0
GRID*             152943               0-1.250000000E+004.2181030264E+01+
*       -6.163834924E+01               0
GRID*             152944               0-1.250000000E+003.9140999878E+01+
*       -6.161160173E+01               0
GRID*             152945               0-1.250000000E+003.6102196603E+01+
*       -6.156230857E+01               0
GRID*             152946               0-1.250000000E+003.3066429687E+01+
*       -6.149053003E+01               0
GRID*             152947               0-1.250000000E+003.0035527790E+01+
*       -6.139787275E+01               0
GRID*             152948               0-1.250000000E+002.7011001898E+01+
*       -6.128773141E+01               0
GRID*             152949               0-1.250000000E+002.3993781387E+01+
*       -6.116507803E+01               0
GRID*             152950               0-1.250000000E+002.0984058140E+01+
*       -6.103558455E+01               0
GRID*             152951               0-1.250000000E+001.7981241536E+01+
*       -6.090440154E+01               0
GRID*             152952               0-1.250000000E+001.7976144799E+01+
*       -5.793025371E+01               0
GRID*             152953               0-1.250000000E+001.7966884769E+01+
*       -5.496320754E+01               0
GRID*             152954               0-1.250000000E+001.7953349528E+01+
*       -5.200145096E+01               0
GRID*             152955               0-1.250000000E+001.7934566830E+01+
*       -4.904202135E+01               0
GRID*             152956               0-1.250000000E+001.7908216955E+01+
*       -4.607997280E+01               0
GRID*             152957               0-1.250000000E+002.0884425464E+01+
*       -4.625755053E+01               0
GRID*             152958               0-1.250000000E+002.3869031050E+01+
*       -4.644231784E+01               0
GRID*             152959               0-1.250000000E+002.6863929696E+01+
*       -4.662159530E+01               0
GRID*             152960               0-1.250000000E+002.9869698941E+01+
*       -4.678517759E+01               0
GRID*             152961               0-1.250000000E+003.2885720828E+01+
*       -4.692640216E+01               0
GRID*             152962               0-1.250000000E+003.5910476522E+01+
*       -4.704144282E+01               0
GRID*             152963               0-1.250000000E+003.8941934916E+01+
*       -4.712835611E+01               0
GRID*             152964               0-1.250000000E+004.1977911334E+01+
*       -4.718631432E+01               0
GRID*             152965               0-1.250000000E+004.5016366952E+01+
*       -4.721505326E+01               0
GRID*             152966               0-1.250000000E+004.8055638105E+01+
*       -4.721447996E+01               0
GRID*             152967               0-1.250000000E+005.1094591944E+01+
*       -4.718440610E+01               0
GRID*             152968               0-1.250000000E+005.4132740667E+01+
*       -4.712439563E+01               0
GRID*             152969               0-1.250000000E+005.7170380352E+01+
*       -4.703373145E+01               0
GRID*             152970               0-1.250000000E+006.0208841697E+01+
*       -4.691152824E+01               0
GRID*             152971               0-1.250000000E+006.3250943684E+01+
*       -4.675705837E+01               0
GRID*             152972               0-1.250000000E+006.6301645782E+01+
*       -4.657048961E+01               0
GRID*             152973               0-1.250000000E+006.9368505572E+01+
*       -4.635468972E+01               0
GRID*             152974               0-1.250000000E+007.2460440708E+01+
*       -4.611977545E+01               0
GRID*             152975               0-1.250000000E+007.5581158818E+01+
*       -4.589251138E+01               0
GRID*             152976               0-1.250000000E+007.8713889036E+01+
*       -4.572496998E+01               0
GRID*             152977               0-1.250000000E+007.8719155654E+01+
*       -4.880017583E+01               0
GRID*             152978               0-1.250000000E+007.8731853593E+01+
*       -5.183564079E+01               0
GRID*             152979               0-1.250000000E+007.8746654607E+01+
*       -5.484826082E+01               0
GRID*             152980               0-1.250000000E+007.8761334697E+01+
*       -5.784797896E+01               0
GRID*             152981               0-1.250000000E+007.5690863029E+01+
*       -5.794931190E+01               0
GRID*             152982               0-1.250000000E+007.2620613695E+01+
*       -5.805885916E+01               0
GRID*             152983               0-1.250000000E+006.9553629488E+01+
*       -5.817146613E+01               0
GRID*             152984               0-1.250000000E+006.6491818805E+01+
*       -5.828173141E+01               0
GRID*             152985               0-1.250000000E+006.3435932010E+01+
*       -5.838493808E+01               0
GRID*             152986               0-1.250000000E+006.0385742816E+01+
*       -5.847749044E+01               0
GRID*             152987               0-1.250000000E+005.7340332819E+01+
*       -5.855684219E+01               0
GRID*             152988               0-1.250000000E+005.4298401841E+01+
*       -5.862114619E+01               0
GRID*             152989               0-1.250000000E+005.1258590089E+01+
*       -5.866886158E+01               0
GRID*             152990               0-1.250000000E+004.8219789520E+01+
*       -5.869848907E+01               0
GRID*             152991               0-1.250000000E+004.5181394338E+01+
*       -5.870850999E+01               0
GRID*             152992               0-1.250000000E+004.2143436636E+01+
*       -5.869751335E+01               0
GRID*             152993               0-1.250000000E+003.9106577440E+01+
*       -5.866444260E+01               0
GRID*             152994               0-1.250000000E+003.6071963752E+01+
*       -5.860890034E+01               0
GRID*             152995               0-1.250000000E+003.3040997046E+01+
*       -5.853149679E+01               0
GRID*             152996               0-1.250000000E+003.0015068608E+01+
*       -5.843421376E+01               0
GRID*             152997               0-1.250000000E+002.6995305798E+01+
*       -5.832062996E+01               0
GRID*             152998               0-1.250000000E+002.3982359638E+01+
*       -5.819572293E+01               0
GRID*             152999               0-1.250000000E+002.0976267196E+01+
*       -5.806477128E+01               0
GRID*             153000               0-1.250000000E+002.0963005185E+01+
*       -5.510227409E+01               0
GRID*             153001               0-1.250000000E+002.0944075276E+01+
*       -5.214896214E+01               0
GRID*             153002               0-1.250000000E+002.0918123568E+01+
*       -4.920263741E+01               0
GRID*             153003               0-1.250000000E+002.3909272572E+01+
*       -4.936474217E+01               0
GRID*             153004               0-1.250000000E+002.6908844360E+01+
*       -4.952209544E+01               0
GRID*             153005               0-1.250000000E+002.9917255265E+01+
*       -4.966657315E+01               0
GRID*             153006               0-1.250000000E+003.2934087814E+01+
*       -4.979220781E+01               0
GRID*             153007               0-1.250000000E+003.5958249016E+01+
*       -4.989502665E+01               0
GRID*             153008               0-1.250000000E+003.8988227678E+01+
*       -4.997266274E+01               0
GRID*             153009               0-1.250000000E+004.2022371834E+01+
*       -5.002389792E+01               0
GRID*             153010               0-1.250000000E+004.5059145515E+01+
*       -5.004823898E+01               0
GRID*             153011               0-1.250000000E+004.8097340636E+01+
*       -5.004557585E+01               0
GRID*             153012               0-1.250000000E+005.1136233993E+01+
*       -5.001594012E+01               0
GRID*             153013               0-1.250000000E+005.4175699450E+01+
*       -4.995938008E+01               0
GRID*             153014               0-1.250000000E+005.7216304322E+01+
*       -4.987597915E+01               0
GRID*             153015               0-1.250000000E+006.0259426650E+01+
*       -4.976605915E+01               0
GRID*             153016               0-1.250000000E+006.3307402196E+01+
*       -4.963062811E+01               0
GRID*             153017               0-1.250000000E+006.6363600779E+01+
*       -4.947217968E+01               0
GRID*             153018               0-1.250000000E+006.9432085777E+01+
*       -4.929607246E+01               0
GRID*             153019               0-1.250000000E+007.2516139635E+01+
*       -4.911274866E+01               0
GRID*             153020               0-1.250000000E+007.5614885216E+01+
*       -4.894002026E+01               0
GRID*             153021               0-1.250000000E+007.5643650089E+01+
*       -5.195686178E+01               0
GRID*             153022               0-1.250000000E+007.5668463703E+01+
*       -5.495781928E+01               0
GRID*             153023               0-1.250000000E+007.2592177586E+01+
*       -5.507943289E+01               0
GRID*             153024               0-1.250000000E+006.9520896540E+01+
*       -5.520684929E+01               0
GRID*             153025               0-1.250000000E+006.6456461413E+01+
*       -5.533237552E+01               0
GRID*             153026               0-1.250000000E+006.3399111158E+01+
*       -5.544952922E+01               0
GRID*             153027               0-1.250000000E+006.0348014079E+01+
*       -5.555360661E+01               0
GRID*             153028               0-1.250000000E+005.7301837443E+01+
*       -5.564145973E+01               0
GRID*             153029               0-1.250000000E+005.4259155873E+01+
*       -5.571102123E+01               0
GRID*             153030               0-1.250000000E+005.1218727553E+01+
*       -5.576083895E+01               0
GRID*             153031               0-1.250000000E+004.8179689691E+01+
*       -5.578974995E+01               0
GRID*             153032               0-1.250000000E+004.5141687631E+01+
*       -5.579674087E+01               0
GRID*             153033               0-1.250000000E+004.2104923628E+01+
*       -5.578098126E+01               0
GRID*             153034               0-1.250000000E+003.9070111176E+01+
*       -5.574198648E+01               0
GRID*             153035               0-1.250000000E+003.6038339304E+01+
*       -5.567987049E+01               0
GRID*             153036               0-1.250000000E+003.3010872352E+01+
*       -5.559566666E+01               0
GRID*             153037               0-1.250000000E+002.9988921103E+01+
*       -5.549167059E+01               0
GRID*             153038               0-1.250000000E+002.6973418210E+01+
*       -5.537168753E+01               0
GRID*             153039               0-1.250000000E+002.3964821613E+01+
*       -5.524108299E+01               0
GRID*             153040               0-1.250000000E+002.3940632863E+01+
*       -5.229822677E+01               0
GRID*             153041               0-1.250000000E+002.6944721384E+01+
*       -5.244028601E+01               0
GRID*             153042               0-1.250000000E+002.9956438094E+01+
*       -5.257037526E+01               0
GRID*             153043               0-1.250000000E+003.2975360893E+01+
*       -5.268353742E+01               0
GRID*             153044               0-1.250000000E+003.6000563030E+01+
*       -5.277598558E+01               0
GRID*             153045               0-1.250000000E+003.9030789483E+01+
*       -5.284529893E+01               0
GRID*             153046               0-1.250000000E+004.2064685717E+01+
*       -5.289020918E+01               0
GRID*             153047               0-1.250000000E+004.5101027678E+01+
*       -5.291027728E+01               0
GRID*             153048               0-1.250000000E+004.8138920123E+01+
*       -5.290558794E+01               0
GRID*             153049               0-1.250000000E+005.1177941079E+01+
*       -5.287651662E+01               0
GRID*             153050               0-1.250000000E+005.4218224109E+01+
*       -5.282360177E+01               0
GRID*             153051               0-1.250000000E+005.7260485705E+01+
*       -5.274755809E+01               0
GRID*             153052               0-1.250000000E+006.0306012046E+01+
*       -5.264947002E+01               0
GRID*             153053               0-1.250000000E+006.3356597179E+01+
*       -5.253119470E+01               0
GRID*             153054               0-1.250000000E+006.6414358214E+01+
*       -5.239598761E+01               0
GRID*             153055               0-1.250000000E+006.9481246560E+01+
*       -5.224934442E+01               0
GRID*             153056               0-1.250000000E+007.2558012781E+01+
*       -5.209994380E+01               0
GRID*             153057               0-1.250000000E+001.4088066699E+01+
*       -1.524794405E+01               0
GRID*             153058               0-1.250000000E+001.2828590831E+01+
*       -1.616594573E+01               0
GRID*             153059               0-1.250000000E+001.2504772279E+01+
*       -2.263960046E+01               0
GRID*             153060               0-1.250000000E+001.2466247310E+01+
*       -2.401958721E+01               0
GRID*             153061               0-1.250000000E+008.7490761009E+01+
*       -1.130937010E+02               0
GRID*             153062               0-1.250000000E+008.6024143949E+01+
*       -1.131598452E+02               0
GRID*             153063               0-1.250000000E+008.4522974678E+01+
*       -1.132571351E+02               0
GRID*             153064               0-1.250000000E+008.1905924522E+01+
*       -1.720776483E+01               0
GRID*             153065               0-1.250000000E+001.3936020853E+01+
*       -3.141352301E+02               0
GRID*             153066               0-1.250000000E+008.7178373767E+01+
*       -3.213670009E+02               0
GRID*             153067               0-1.250000000E+001.8097662001E+01+
*       -3.254209453E+02               0
GRID*             153068               0-1.250000000E+001.2796809526E+01+
*       -3.184751366E+02               0
GRID*             173770               0-2.500000000E+009.1000000000E+01+
*       -2.170000000E+02               0
GRID*             173769               00.0000000000E+009.1000000000E+01+
*       -2.170000000E+02               0
GRID*             173233               0-2.500000000E+009.1000000000E+01+
*       -1.260322581E+02               0
GRID*             173234               0-2.500000000E+009.1000000000E+01+
*       -1.290645161E+02               0
GRID*             173235               0-2.500000000E+009.1000000000E+01+
*       -1.320967742E+02               0
GRID*             173236               0-2.500000000E+009.1000000000E+01+
*       -1.351290323E+02               0
GRID*             173237               0-2.500000000E+009.1000000000E+01+
*       -1.381612903E+02               0
GRID*             173238               0-2.500000000E+009.1000000000E+01+
*       -1.411935484E+02               0
GRID*             173239               0-2.500000000E+009.1000000000E+01+
*       -1.442258065E+02               0
GRID*             173240               0-2.500000000E+009.1000000000E+01+
*       -1.472580645E+02               0
GRID*             173241               0-2.500000000E+009.1000000000E+01+
*       -1.502903226E+02               0
GRID*             173242               0-2.500000000E+009.1000000000E+01+
*       -1.533225806E+02               0
GRID*             173243               0-2.500000000E+009.1000000000E+01+
*       -1.563548387E+02               0
GRID*             173244               0-2.500000000E+009.1000000000E+01+
*       -1.593870968E+02               0
GRID*             173245               0-2.500000000E+009.1000000000E+01+
*       -1.624193548E+02               0
GRID*             173246               0-2.500000000E+009.1000000000E+01+
*       -1.654516129E+02               0
GRID*             173247               0-2.500000000E+009.1000000000E+01+
*       -1.684838710E+02               0
GRID*             173248               0-2.500000000E+009.1000000000E+01+
*       -1.715161290E+02               0
GRID*             173249               0-2.500000000E+009.1000000000E+01+
*       -1.745483871E+02               0
GRID*             173250               0-2.500000000E+009.1000000000E+01+
*       -1.775806452E+02               0
GRID*             173251               0-2.500000000E+009.1000000000E+01+
*       -1.806129032E+02               0
GRID*             173252               0-2.500000000E+009.1000000000E+01+
*       -1.836451613E+02               0
GRID*             173253               0-2.500000000E+009.1000000000E+01+
*       -1.866774194E+02               0
GRID*             173254               0-2.500000000E+009.1000000000E+01+
*       -1.897096774E+02               0
GRID*             173255               0-2.500000000E+009.1000000000E+01+
*       -1.927419355E+02               0
GRID*             173256               0-2.500000000E+009.1000000000E+01+
*       -1.957741935E+02               0
GRID*             173257               0-2.500000000E+009.1000000000E+01+
*       -1.988064516E+02               0
GRID*             173258               0-2.500000000E+009.1000000000E+01+
*       -2.018387097E+02               0
GRID*             173259               0-2.500000000E+009.1000000000E+01+
*       -2.048709677E+02               0
GRID*             173260               0-2.500000000E+009.1000000000E+01+
*       -2.079032258E+02               0
GRID*             173261               0-2.500000000E+009.1000000000E+01+
*       -2.109354839E+02               0
GRID*             173262               0-2.500000000E+009.1000000000E+01+
*       -2.139677419E+02               0
GRID*             173263               0-2.500000000E+009.1000000000E+01+
*       -1.245161290E+02               0
GRID*             173264               0-2.500000000E+009.1000000000E+01+
*       -1.275483871E+02               0
GRID*             173265               0-2.500000000E+009.1000000000E+01+
*       -1.305806452E+02               0
GRID*             173266               0-2.500000000E+009.1000000000E+01+
*       -1.336129032E+02               0
GRID*             173267               0-2.500000000E+009.1000000000E+01+
*       -1.366451613E+02               0
GRID*             173268               0-2.500000000E+009.1000000000E+01+
*       -1.396774194E+02               0
GRID*             173269               0-2.500000000E+009.1000000000E+01+
*       -1.427096774E+02               0
GRID*             173270               0-2.500000000E+009.1000000000E+01+
*       -1.457419355E+02               0
GRID*             173271               0-2.500000000E+009.1000000000E+01+
*       -1.487741935E+02               0
GRID*             173272               0-2.500000000E+009.1000000000E+01+
*       -1.518064516E+02               0
GRID*             173273               0-2.500000000E+009.1000000000E+01+
*       -1.548387097E+02               0
GRID*             173274               0-2.500000000E+009.1000000000E+01+
*       -1.578709677E+02               0
GRID*             173275               0-2.500000000E+009.1000000000E+01+
*       -1.609032258E+02               0
GRID*             173276               0-2.500000000E+009.1000000000E+01+
*       -1.639354839E+02               0
GRID*             173277               0-2.500000000E+009.1000000000E+01+
*       -1.669677419E+02               0
GRID*             173278               0-2.500000000E+009.1000000000E+01+
*       -1.700000000E+02               0
GRID*             173279               0-2.500000000E+009.1000000000E+01+
*       -1.730322581E+02               0
GRID*             173280               0-2.500000000E+009.1000000000E+01+
*       -1.760645161E+02               0
GRID*             173281               0-2.500000000E+009.1000000000E+01+
*       -1.790967742E+02               0
GRID*             173282               0-2.500000000E+009.1000000000E+01+
*       -1.821290323E+02               0
GRID*             173283               0-2.500000000E+009.1000000000E+01+
*       -1.851612903E+02               0
GRID*             173284               0-2.500000000E+009.1000000000E+01+
*       -1.881935484E+02               0
GRID*             173285               0-2.500000000E+009.1000000000E+01+
*       -1.912258065E+02               0
GRID*             173286               0-2.500000000E+009.1000000000E+01+
*       -1.942580645E+02               0
GRID*             173287               0-2.500000000E+009.1000000000E+01+
*       -1.972903226E+02               0
GRID*             173288               0-2.500000000E+009.1000000000E+01+
*       -2.003225806E+02               0
GRID*             173289               0-2.500000000E+009.1000000000E+01+
*       -2.033548387E+02               0
GRID*             173290               0-2.500000000E+009.1000000000E+01+
*       -2.063870968E+02               0
GRID*             173291               0-2.500000000E+009.1000000000E+01+
*       -2.094193548E+02               0
GRID*             173292               0-2.500000000E+009.1000000000E+01+
*       -2.124516129E+02               0
GRID*             173293               0-2.500000000E+009.1000000000E+01+
*       -2.154838710E+02               0
GRID*             173294               00.0000000000E+009.1000000000E+01+
*       -1.260322581E+02               0
GRID*             173295               00.0000000000E+009.1000000000E+01+
*       -1.290645161E+02               0
GRID*             173296               00.0000000000E+009.1000000000E+01+
*       -1.320967742E+02               0
GRID*             173297               00.0000000000E+009.1000000000E+01+
*       -1.351290323E+02               0
GRID*             173298               00.0000000000E+009.1000000000E+01+
*       -1.381612903E+02               0
GRID*             173299               00.0000000000E+009.1000000000E+01+
*       -1.411935484E+02               0
GRID*             173300               00.0000000000E+009.1000000000E+01+
*       -1.442258065E+02               0
GRID*             173301               00.0000000000E+009.1000000000E+01+
*       -1.472580645E+02               0
GRID*             173302               00.0000000000E+009.1000000000E+01+
*       -1.502903226E+02               0
GRID*             173303               00.0000000000E+009.1000000000E+01+
*       -1.533225806E+02               0
GRID*             173304               00.0000000000E+009.1000000000E+01+
*       -1.563548387E+02               0
GRID*             173305               00.0000000000E+009.1000000000E+01+
*       -1.593870968E+02               0
GRID*             173306               00.0000000000E+009.1000000000E+01+
*       -1.624193548E+02               0
GRID*             173307               00.0000000000E+009.1000000000E+01+
*       -1.654516129E+02               0
GRID*             173308               00.0000000000E+009.1000000000E+01+
*       -1.684838710E+02               0
GRID*             173309               00.0000000000E+009.1000000000E+01+
*       -1.715161290E+02               0
GRID*             173310               00.0000000000E+009.1000000000E+01+
*       -1.745483871E+02               0
GRID*             173311               00.0000000000E+009.1000000000E+01+
*       -1.775806452E+02               0
GRID*             173312               00.0000000000E+009.1000000000E+01+
*       -1.806129032E+02               0
GRID*             173313               00.0000000000E+009.1000000000E+01+
*       -1.836451613E+02               0
GRID*             173314               00.0000000000E+009.1000000000E+01+
*       -1.866774194E+02               0
GRID*             173315               00.0000000000E+009.1000000000E+01+
*       -1.897096774E+02               0
GRID*             173316               00.0000000000E+009.1000000000E+01+
*       -1.927419355E+02               0
GRID*             173317               00.0000000000E+009.1000000000E+01+
*       -1.957741935E+02               0
GRID*             173318               00.0000000000E+009.1000000000E+01+
*       -1.988064516E+02               0
GRID*             173319               00.0000000000E+009.1000000000E+01+
*       -2.018387097E+02               0
GRID*             173320               00.0000000000E+009.1000000000E+01+
*       -2.048709677E+02               0
GRID*             173321               00.0000000000E+009.1000000000E+01+
*       -2.079032258E+02               0
GRID*             173322               00.0000000000E+009.1000000000E+01+
*       -2.109354839E+02               0
GRID*             173323               00.0000000000E+009.1000000000E+01+
*       -2.139677419E+02               0
GRID*             173324               00.0000000000E+009.1000000000E+01+
*       -1.245161290E+02               0
GRID*             173325               00.0000000000E+009.1000000000E+01+
*       -1.275483871E+02               0
GRID*             173326               00.0000000000E+009.1000000000E+01+
*       -1.305806452E+02               0
GRID*             173327               00.0000000000E+009.1000000000E+01+
*       -1.336129032E+02               0
GRID*             173328               00.0000000000E+009.1000000000E+01+
*       -1.366451613E+02               0
GRID*             173329               00.0000000000E+009.1000000000E+01+
*       -1.396774194E+02               0
GRID*             173330               00.0000000000E+009.1000000000E+01+
*       -1.427096774E+02               0
GRID*             173331               00.0000000000E+009.1000000000E+01+
*       -1.457419355E+02               0
GRID*             173332               00.0000000000E+009.1000000000E+01+
*       -1.487741935E+02               0
GRID*             173333               00.0000000000E+009.1000000000E+01+
*       -1.518064516E+02               0
GRID*             173334               00.0000000000E+009.1000000000E+01+
*       -1.548387097E+02               0
GRID*             173335               00.0000000000E+009.1000000000E+01+
*       -1.578709677E+02               0
GRID*             173336               00.0000000000E+009.1000000000E+01+
*       -1.609032258E+02               0
GRID*             173337               00.0000000000E+009.1000000000E+01+
*       -1.639354839E+02               0
GRID*             173338               00.0000000000E+009.1000000000E+01+
*       -1.669677419E+02               0
GRID*             173339               00.0000000000E+009.1000000000E+01+
*       -1.700000000E+02               0
GRID*             173340               00.0000000000E+009.1000000000E+01+
*       -1.730322581E+02               0
GRID*             173341               00.0000000000E+009.1000000000E+01+
*       -1.760645161E+02               0
GRID*             173342               00.0000000000E+009.1000000000E+01+
*       -1.790967742E+02               0
GRID*             173343               00.0000000000E+009.1000000000E+01+
*       -1.821290323E+02               0
GRID*             173344               00.0000000000E+009.1000000000E+01+
*       -1.851612903E+02               0
GRID*             173345               00.0000000000E+009.1000000000E+01+
*       -1.881935484E+02               0
GRID*             173346               00.0000000000E+009.1000000000E+01+
*       -1.912258065E+02               0
GRID*             173347               00.0000000000E+009.1000000000E+01+
*       -1.942580645E+02               0
GRID*             173348               00.0000000000E+009.1000000000E+01+
*       -1.972903226E+02               0
GRID*             173349               00.0000000000E+009.1000000000E+01+
*       -2.003225806E+02               0
GRID*             173350               00.0000000000E+009.1000000000E+01+
*       -2.033548387E+02               0
GRID*             173351               00.0000000000E+009.1000000000E+01+
*       -2.063870968E+02               0
GRID*             173352               00.0000000000E+009.1000000000E+01+
*       -2.094193548E+02               0
GRID*             173353               00.0000000000E+009.1000000000E+01+
*       -2.124516129E+02               0
GRID*             173354               00.0000000000E+009.1000000000E+01+
*       -2.154838710E+02               0
GRID*             153256               0-1.250000000E+009.1000000000E+01+
*       -1.260322581E+02               0
GRID*             153257               0-1.250000000E+009.1000000000E+01+
*       -1.290645161E+02               0
GRID*             153258               0-1.250000000E+009.1000000000E+01+
*       -1.320967742E+02               0
GRID*             153259               0-1.250000000E+009.1000000000E+01+
*       -1.351290323E+02               0
GRID*             153260               0-1.250000000E+009.1000000000E+01+
*       -1.381612903E+02               0
GRID*             153261               0-1.250000000E+009.1000000000E+01+
*       -1.411935484E+02               0
GRID*             153262               0-1.250000000E+009.1000000000E+01+
*       -1.442258065E+02               0
GRID*             153263               0-1.250000000E+009.1000000000E+01+
*       -1.472580645E+02               0
GRID*             153264               0-1.250000000E+009.1000000000E+01+
*       -1.502903226E+02               0
GRID*             153265               0-1.250000000E+009.1000000000E+01+
*       -1.533225806E+02               0
GRID*             153266               0-1.250000000E+009.1000000000E+01+
*       -1.563548387E+02               0
GRID*             153267               0-1.250000000E+009.1000000000E+01+
*       -1.593870968E+02               0
GRID*             153268               0-1.250000000E+009.1000000000E+01+
*       -1.624193548E+02               0
GRID*             153269               0-1.250000000E+009.1000000000E+01+
*       -1.654516129E+02               0
GRID*             153270               0-1.250000000E+009.1000000000E+01+
*       -1.684838710E+02               0
GRID*             153271               0-1.250000000E+009.1000000000E+01+
*       -1.715161290E+02               0
GRID*             153272               0-1.250000000E+009.1000000000E+01+
*       -1.745483871E+02               0
GRID*             153273               0-1.250000000E+009.1000000000E+01+
*       -1.775806452E+02               0
GRID*             153274               0-1.250000000E+009.1000000000E+01+
*       -1.806129032E+02               0
GRID*             153275               0-1.250000000E+009.1000000000E+01+
*       -1.836451613E+02               0
GRID*             153276               0-1.250000000E+009.1000000000E+01+
*       -1.866774194E+02               0
GRID*             153277               0-1.250000000E+009.1000000000E+01+
*       -1.897096774E+02               0
GRID*             153278               0-1.250000000E+009.1000000000E+01+
*       -1.927419355E+02               0
GRID*             153279               0-1.250000000E+009.1000000000E+01+
*       -1.957741935E+02               0
GRID*             153280               0-1.250000000E+009.1000000000E+01+
*       -1.988064516E+02               0
GRID*             153281               0-1.250000000E+009.1000000000E+01+
*       -2.018387097E+02               0
GRID*             153282               0-1.250000000E+009.1000000000E+01+
*       -2.048709677E+02               0
GRID*             153283               0-1.250000000E+009.1000000000E+01+
*       -2.079032258E+02               0
GRID*             153284               0-1.250000000E+009.1000000000E+01+
*       -2.109354839E+02               0
GRID*             153285               0-1.250000000E+009.1000000000E+01+
*       -2.139677419E+02               0
GRID*             173978               0-2.500000000E+009.1000000000E+01+
*       -2.200379181E+02               0
GRID*             173981               00.0000000000E+009.1000000000E+01+
*       -2.200379181E+02               0
GRID*             173639               0-2.500000000E+008.9999980927E+00+
*       -2.139677419E+02               0
GRID*             173640               0-2.500000000E+008.9999980927E+00+
*       -2.109354839E+02               0
GRID*             173641               0-2.500000000E+008.9999980927E+00+
*       -2.079032258E+02               0
GRID*             173642               0-2.500000000E+008.9999980927E+00+
*       -2.048709677E+02               0
GRID*             173643               0-2.500000000E+008.9999980927E+00+
*       -2.018387097E+02               0
GRID*             173644               0-2.500000000E+008.9999980927E+00+
*       -1.988064516E+02               0
GRID*             173645               0-2.500000000E+008.9999980927E+00+
*       -1.957741935E+02               0
GRID*             173646               0-2.500000000E+008.9999980927E+00+
*       -1.927419355E+02               0
GRID*             173647               0-2.500000000E+008.9999980927E+00+
*       -1.897096774E+02               0
GRID*             173648               0-2.500000000E+008.9999980927E+00+
*       -1.866774194E+02               0
GRID*             173649               0-2.500000000E+008.9999980927E+00+
*       -1.836451613E+02               0
GRID*             173650               0-2.500000000E+008.9999980927E+00+
*       -1.806129032E+02               0
GRID*             173651               0-2.500000000E+008.9999980927E+00+
*       -1.775806452E+02               0
GRID*             173652               0-2.500000000E+008.9999980927E+00+
*       -1.745483871E+02               0
GRID*             173653               0-2.500000000E+008.9999980927E+00+
*       -1.715161290E+02               0
GRID*             173654               0-2.500000000E+008.9999980927E+00+
*       -1.684838710E+02               0
GRID*             173655               0-2.500000000E+008.9999980927E+00+
*       -1.654516129E+02               0
GRID*             173656               0-2.500000000E+008.9999980927E+00+
*       -1.624193548E+02               0
GRID*             173657               0-2.500000000E+008.9999980927E+00+
*       -1.593870968E+02               0
GRID*             173658               0-2.500000000E+008.9999980927E+00+
*       -1.563548387E+02               0
GRID*             173659               0-2.500000000E+008.9999980927E+00+
*       -1.533225806E+02               0
GRID*             173660               0-2.500000000E+008.9999980927E+00+
*       -1.502903226E+02               0
GRID*             173661               0-2.500000000E+008.9999980927E+00+
*       -1.472580645E+02               0
GRID*             173662               0-2.500000000E+008.9999980927E+00+
*       -1.442258065E+02               0
GRID*             173663               0-2.500000000E+008.9999980927E+00+
*       -1.411935484E+02               0
GRID*             173664               0-2.500000000E+008.9999980927E+00+
*       -1.381612903E+02               0
GRID*             173665               0-2.500000000E+008.9999980927E+00+
*       -1.351290323E+02               0
GRID*             173666               0-2.500000000E+008.9999980927E+00+
*       -1.320967742E+02               0
GRID*             173667               0-2.500000000E+008.9999980927E+00+
*       -1.290645161E+02               0
GRID*             173668               0-2.500000000E+008.9999980927E+00+
*       -1.260322581E+02               0
GRID*             173669               0-2.500000000E+008.9999980927E+00+
*       -2.154838710E+02               0
GRID*             173670               0-2.500000000E+008.9999980927E+00+
*       -2.124516129E+02               0
GRID*             173671               0-2.500000000E+008.9999980927E+00+
*       -2.094193548E+02               0
GRID*             173672               0-2.500000000E+008.9999980927E+00+
*       -2.063870968E+02               0
GRID*             173673               0-2.500000000E+008.9999980927E+00+
*       -2.033548387E+02               0
GRID*             173674               0-2.500000000E+008.9999980927E+00+
*       -2.003225806E+02               0
GRID*             173675               0-2.500000000E+008.9999980927E+00+
*       -1.972903226E+02               0
GRID*             173676               0-2.500000000E+008.9999980927E+00+
*       -1.942580645E+02               0
GRID*             173677               0-2.500000000E+008.9999980927E+00+
*       -1.912258065E+02               0
GRID*             173678               0-2.500000000E+008.9999980927E+00+
*       -1.881935484E+02               0
GRID*             173679               0-2.500000000E+008.9999980927E+00+
*       -1.851612903E+02               0
GRID*             173680               0-2.500000000E+008.9999980927E+00+
*       -1.821290323E+02               0
GRID*             173681               0-2.500000000E+008.9999980927E+00+
*       -1.790967742E+02               0
GRID*             173682               0-2.500000000E+008.9999980927E+00+
*       -1.760645161E+02               0
GRID*             173683               0-2.500000000E+008.9999980927E+00+
*       -1.730322581E+02               0
GRID*             173684               0-2.500000000E+008.9999980927E+00+
*       -1.700000000E+02               0
GRID*             173685               0-2.500000000E+008.9999980927E+00+
*       -1.669677419E+02               0
GRID*             173686               0-2.500000000E+008.9999980927E+00+
*       -1.639354839E+02               0
GRID*             173687               0-2.500000000E+008.9999980927E+00+
*       -1.609032258E+02               0
GRID*             173688               0-2.500000000E+008.9999980927E+00+
*       -1.578709677E+02               0
GRID*             173689               0-2.500000000E+008.9999980927E+00+
*       -1.548387097E+02               0
GRID*             173690               0-2.500000000E+008.9999980927E+00+
*       -1.518064516E+02               0
GRID*             173691               0-2.500000000E+008.9999980927E+00+
*       -1.487741935E+02               0
GRID*             173692               0-2.500000000E+008.9999980927E+00+
*       -1.457419355E+02               0
GRID*             173693               0-2.500000000E+008.9999980927E+00+
*       -1.427096774E+02               0
GRID*             173694               0-2.500000000E+008.9999980927E+00+
*       -1.396774194E+02               0
GRID*             173695               0-2.500000000E+008.9999980927E+00+
*       -1.366451613E+02               0
GRID*             173696               0-2.500000000E+008.9999980927E+00+
*       -1.336129032E+02               0
GRID*             173697               0-2.500000000E+008.9999980927E+00+
*       -1.305806452E+02               0
GRID*             173698               0-2.500000000E+008.9999980927E+00+
*       -1.275483871E+02               0
GRID*             173699               0-2.500000000E+008.9999980927E+00+
*       -1.245161290E+02               0
GRID*             173948               0-2.500000000E+009.1000000000E+01+
*       -2.180126394E+02               0
GRID*             173949               0-2.500000000E+009.1000000000E+01+
*       -2.190252787E+02               0
GRID*             173950               0-2.500000000E+009.1000000000E+01+
*       -2.175063197E+02               0
GRID*             173951               0-2.500000000E+009.1000000000E+01+
*       -2.185189590E+02               0
GRID*             173952               0-2.500000000E+009.1000000000E+01+
*       -2.195315984E+02               0
GRID*             173700               00.0000000000E+008.9999980927E+00+
*       -2.139677419E+02               0
GRID*             173701               00.0000000000E+008.9999980927E+00+
*       -2.109354839E+02               0
GRID*             173702               00.0000000000E+008.9999980927E+00+
*       -2.079032258E+02               0
GRID*             173703               00.0000000000E+008.9999980927E+00+
*       -2.048709677E+02               0
GRID*             173704               00.0000000000E+008.9999980927E+00+
*       -2.018387097E+02               0
GRID*             173705               00.0000000000E+008.9999980927E+00+
*       -1.988064516E+02               0
GRID*             173706               00.0000000000E+008.9999980927E+00+
*       -1.957741935E+02               0
GRID*             173707               00.0000000000E+008.9999980927E+00+
*       -1.927419355E+02               0
GRID*             173708               00.0000000000E+008.9999980927E+00+
*       -1.897096774E+02               0
GRID*             173709               00.0000000000E+008.9999980927E+00+
*       -1.866774194E+02               0
GRID*             173710               00.0000000000E+008.9999980927E+00+
*       -1.836451613E+02               0
GRID*             173711               00.0000000000E+008.9999980927E+00+
*       -1.806129032E+02               0
GRID*             173712               00.0000000000E+008.9999980927E+00+
*       -1.775806452E+02               0
GRID*             173713               00.0000000000E+008.9999980927E+00+
*       -1.745483871E+02               0
GRID*             173714               00.0000000000E+008.9999980927E+00+
*       -1.715161290E+02               0
GRID*             173715               00.0000000000E+008.9999980927E+00+
*       -1.684838710E+02               0
GRID*             173716               00.0000000000E+008.9999980927E+00+
*       -1.654516129E+02               0
GRID*             173717               00.0000000000E+008.9999980927E+00+
*       -1.624193548E+02               0
GRID*             173718               00.0000000000E+008.9999980927E+00+
*       -1.593870968E+02               0
GRID*             173719               00.0000000000E+008.9999980927E+00+
*       -1.563548387E+02               0
GRID*             173720               00.0000000000E+008.9999980927E+00+
*       -1.533225806E+02               0
GRID*             173721               00.0000000000E+008.9999980927E+00+
*       -1.502903226E+02               0
GRID*             173722               00.0000000000E+008.9999980927E+00+
*       -1.472580645E+02               0
GRID*             173723               00.0000000000E+008.9999980927E+00+
*       -1.442258065E+02               0
GRID*             173724               00.0000000000E+008.9999980927E+00+
*       -1.411935484E+02               0
GRID*             173725               00.0000000000E+008.9999980927E+00+
*       -1.381612903E+02               0
GRID*             173726               00.0000000000E+008.9999980927E+00+
*       -1.351290323E+02               0
GRID*             173727               00.0000000000E+008.9999980927E+00+
*       -1.320967742E+02               0
GRID*             173728               00.0000000000E+008.9999980927E+00+
*       -1.290645161E+02               0
GRID*             173729               00.0000000000E+008.9999980927E+00+
*       -1.260322581E+02               0
GRID*             173730               00.0000000000E+008.9999980927E+00+
*       -2.154838710E+02               0
GRID*             173731               00.0000000000E+008.9999980927E+00+
*       -2.124516129E+02               0
GRID*             173732               00.0000000000E+008.9999980927E+00+
*       -2.094193548E+02               0
GRID*             173733               00.0000000000E+008.9999980927E+00+
*       -2.063870968E+02               0
GRID*             173734               00.0000000000E+008.9999980927E+00+
*       -2.033548387E+02               0
GRID*             173735               00.0000000000E+008.9999980927E+00+
*       -2.003225806E+02               0
GRID*             173736               00.0000000000E+008.9999980927E+00+
*       -1.972903226E+02               0
GRID*             173737               00.0000000000E+008.9999980927E+00+
*       -1.942580645E+02               0
GRID*             173738               00.0000000000E+008.9999980927E+00+
*       -1.912258065E+02               0
GRID*             173739               00.0000000000E+008.9999980927E+00+
*       -1.881935484E+02               0
GRID*             173740               00.0000000000E+008.9999980927E+00+
*       -1.851612903E+02               0
GRID*             173741               00.0000000000E+008.9999980927E+00+
*       -1.821290323E+02               0
GRID*             173742               00.0000000000E+008.9999980927E+00+
*       -1.790967742E+02               0
GRID*             173743               00.0000000000E+008.9999980927E+00+
*       -1.760645161E+02               0
GRID*             173744               00.0000000000E+008.9999980927E+00+
*       -1.730322581E+02               0
GRID*             173745               00.0000000000E+008.9999980927E+00+
*       -1.700000000E+02               0
GRID*             173746               00.0000000000E+008.9999980927E+00+
*       -1.669677419E+02               0
GRID*             173747               00.0000000000E+008.9999980927E+00+
*       -1.639354839E+02               0
GRID*             173748               00.0000000000E+008.9999980927E+00+
*       -1.609032258E+02               0
GRID*             173749               00.0000000000E+008.9999980927E+00+
*       -1.578709677E+02               0
GRID*             173750               00.0000000000E+008.9999980927E+00+
*       -1.548387097E+02               0
GRID*             173751               00.0000000000E+008.9999980927E+00+
*       -1.518064516E+02               0
GRID*             173752               00.0000000000E+008.9999980927E+00+
*       -1.487741935E+02               0
GRID*             173753               00.0000000000E+008.9999980927E+00+
*       -1.457419355E+02               0
GRID*             173754               00.0000000000E+008.9999980927E+00+
*       -1.427096774E+02               0
GRID*             173755               00.0000000000E+008.9999980927E+00+
*       -1.396774194E+02               0
GRID*             173756               00.0000000000E+008.9999980927E+00+
*       -1.366451613E+02               0
GRID*             173757               00.0000000000E+008.9999980927E+00+
*       -1.336129032E+02               0
GRID*             173758               00.0000000000E+008.9999980927E+00+
*       -1.305806452E+02               0
GRID*             173759               00.0000000000E+008.9999980927E+00+
*       -1.275483871E+02               0
GRID*             173760               00.0000000000E+008.9999980927E+00+
*       -1.245161290E+02               0
GRID*             173971               00.0000000000E+009.1000000000E+01+
*       -2.180126394E+02               0
GRID*             173972               00.0000000000E+009.1000000000E+01+
*       -2.190252787E+02               0
GRID*             173973               00.0000000000E+009.1000000000E+01+
*       -2.175063197E+02               0
GRID*             173974               00.0000000000E+009.1000000000E+01+
*       -2.185189590E+02               0
GRID*             173975               00.0000000000E+009.1000000000E+01+
*       -2.195315984E+02               0
GRID*             153156               0-1.250000000E+008.9999980927E+00+
*       -2.139677419E+02               0
GRID*             153157               0-1.250000000E+008.9999980927E+00+
*       -2.109354839E+02               0
GRID*             153158               0-1.250000000E+008.9999980927E+00+
*       -2.079032258E+02               0
GRID*             153159               0-1.250000000E+008.9999980927E+00+
*       -2.048709677E+02               0
GRID*             153160               0-1.250000000E+008.9999980927E+00+
*       -2.018387097E+02               0
GRID*             153161               0-1.250000000E+008.9999980927E+00+
*       -1.988064516E+02               0
GRID*             153162               0-1.250000000E+008.9999980927E+00+
*       -1.957741935E+02               0
GRID*             153163               0-1.250000000E+008.9999980927E+00+
*       -1.927419355E+02               0
GRID*             153164               0-1.250000000E+008.9999980927E+00+
*       -1.897096774E+02               0
GRID*             153165               0-1.250000000E+008.9999980927E+00+
*       -1.866774194E+02               0
GRID*             153166               0-1.250000000E+008.9999980927E+00+
*       -1.836451613E+02               0
GRID*             153167               0-1.250000000E+008.9999980927E+00+
*       -1.806129032E+02               0
GRID*             153168               0-1.250000000E+008.9999980927E+00+
*       -1.775806452E+02               0
GRID*             153169               0-1.250000000E+008.9999980927E+00+
*       -1.745483871E+02               0
GRID*             153170               0-1.250000000E+008.9999980927E+00+
*       -1.715161290E+02               0
GRID*             153171               0-1.250000000E+008.9999980927E+00+
*       -1.684838710E+02               0
GRID*             153172               0-1.250000000E+008.9999980927E+00+
*       -1.654516129E+02               0
GRID*             153173               0-1.250000000E+008.9999980927E+00+
*       -1.624193548E+02               0
GRID*             153174               0-1.250000000E+008.9999980927E+00+
*       -1.593870968E+02               0
GRID*             153175               0-1.250000000E+008.9999980927E+00+
*       -1.563548387E+02               0
GRID*             153176               0-1.250000000E+008.9999980927E+00+
*       -1.533225806E+02               0
GRID*             153177               0-1.250000000E+008.9999980927E+00+
*       -1.502903226E+02               0
GRID*             153178               0-1.250000000E+008.9999980927E+00+
*       -1.472580645E+02               0
GRID*             153179               0-1.250000000E+008.9999980927E+00+
*       -1.442258065E+02               0
GRID*             153180               0-1.250000000E+008.9999980927E+00+
*       -1.411935484E+02               0
GRID*             153181               0-1.250000000E+008.9999980927E+00+
*       -1.381612903E+02               0
GRID*             153182               0-1.250000000E+008.9999980927E+00+
*       -1.351290323E+02               0
GRID*             153183               0-1.250000000E+008.9999980927E+00+
*       -1.320967742E+02               0
GRID*             153184               0-1.250000000E+008.9999980927E+00+
*       -1.290645161E+02               0
GRID*             153185               0-1.250000000E+008.9999980927E+00+
*       -1.260322581E+02               0
GRID*             173915               0-1.250000000E+009.1000000000E+01+
*       -2.180126394E+02               0
GRID*             173916               0-1.250000000E+009.1000000000E+01+
*       -2.190252787E+02               0
GRID*             174461               0-2.500000000E+008.9999980927E+00+
*       -2.190000000E+02               0
GRID*             174462               0-2.500000000E+008.9999980927E+00+
*       -2.180000000E+02               0
GRID*             174463               0-2.500000000E+008.9999980927E+00+
*       -2.195000000E+02               0
GRID*             174464               0-2.500000000E+008.9999980927E+00+
*       -2.185000000E+02               0
GRID*             174465               0-2.500000000E+008.9999980927E+00+
*       -2.175000000E+02               0
GRID*             174471               00.0000000000E+008.9999980927E+00+
*       -2.190000000E+02               0
GRID*             174472               00.0000000000E+008.9999980927E+00+
*       -2.180000000E+02               0
GRID*             174473               00.0000000000E+008.9999980927E+00+
*       -2.195000000E+02               0
GRID*             174474               00.0000000000E+008.9999980927E+00+
*       -2.185000000E+02               0
GRID*             174475               00.0000000000E+008.9999980927E+00+
*       -2.175000000E+02               0
GRID*             174428               0-1.250000000E+008.9999980927E+00+
*       -2.190000000E+02               0
GRID*             174429               0-1.250000000E+008.9999980927E+00+
*       -2.180000000E+02               0
GRID*             172949               0-2.500000000E+008.9999980927E+00+
*       -1.140277778E+02               0
GRID*             172950               0-2.500000000E+008.9999980927E+00+
*       -1.110555556E+02               0
GRID*             172951               0-2.500000000E+008.9999980927E+00+
*       -1.080833333E+02               0
GRID*             172952               0-2.500000000E+008.9999980927E+00+
*       -1.051111111E+02               0
GRID*             172953               0-2.500000000E+008.9999980927E+00+
*       -1.021388889E+02               0
GRID*             172954               0-2.500000000E+008.9999980927E+00+
*       -9.916666667E+01               0
GRID*             172955               0-2.500000000E+008.9999980927E+00+
*       -9.619444444E+01               0
GRID*             172956               0-2.500000000E+008.9999980927E+00+
*       -9.322222222E+01               0
GRID*             172957               0-2.500000000E+008.9999980927E+00+
*       -9.025000000E+01               0
GRID*             172958               0-2.500000000E+008.9999980927E+00+
*       -8.727777778E+01               0
GRID*             172959               0-2.500000000E+008.9999980927E+00+
*       -8.430555556E+01               0
GRID*             172960               0-2.500000000E+008.9999980927E+00+
*       -8.133333333E+01               0
GRID*             172961               0-2.500000000E+008.9999980927E+00+
*       -7.836111111E+01               0
GRID*             172962               0-2.500000000E+008.9999980927E+00+
*       -7.538888889E+01               0
GRID*             172963               0-2.500000000E+008.9999980927E+00+
*       -7.241666667E+01               0
GRID*             172964               0-2.500000000E+008.9999980927E+00+
*       -6.944444444E+01               0
GRID*             172965               0-2.500000000E+008.9999980927E+00+
*       -6.647222222E+01               0
GRID*             172966               0-2.500000000E+008.9999980927E+00+
*       -6.350000000E+01               0
GRID*             172967               0-2.500000000E+008.9999980927E+00+
*       -6.052777778E+01               0
GRID*             172968               0-2.500000000E+008.9999980927E+00+
*       -5.755555556E+01               0
GRID*             172969               0-2.500000000E+008.9999980927E+00+
*       -5.458333333E+01               0
GRID*             172970               0-2.500000000E+008.9999980927E+00+
*       -5.161111111E+01               0
GRID*             172971               0-2.500000000E+008.9999980927E+00+
*       -4.863888889E+01               0
GRID*             172972               0-2.500000000E+008.9999980927E+00+
*       -4.566666667E+01               0
GRID*             172973               0-2.500000000E+008.9999980927E+00+
*       -4.269444444E+01               0
GRID*             172974               0-2.500000000E+008.9999980927E+00+
*       -3.972222222E+01               0
GRID*             172975               0-2.500000000E+008.9999980927E+00+
*       -3.675000000E+01               0
GRID*             172976               0-2.500000000E+008.9999980927E+00+
*       -3.377777778E+01               0
GRID*             172977               0-2.500000000E+008.9999980927E+00+
*       -3.080555556E+01               0
GRID*             172978               0-2.500000000E+008.9999980927E+00+
*       -2.783333333E+01               0
GRID*             172979               0-2.500000000E+008.9999980927E+00+
*       -2.486111111E+01               0
GRID*             172980               0-2.500000000E+008.9999980927E+00+
*       -2.188888889E+01               0
GRID*             172981               0-2.500000000E+008.9999980927E+00+
*       -1.891666667E+01               0
GRID*             172982               0-2.500000000E+008.9999980927E+00+
*       -1.594444444E+01               0
GRID*             172983               0-2.500000000E+008.9999980927E+00+
*       -1.297222222E+01               0
GRID*             172984               0-2.500000000E+008.9999980927E+00+
*       -1.148611111E+01               0
GRID*             172985               0-2.500000000E+008.9999980927E+00+
*       -1.445833333E+01               0
GRID*             172986               0-2.500000000E+008.9999980927E+00+
*       -1.743055556E+01               0
GRID*             172987               0-2.500000000E+008.9999980927E+00+
*       -2.040277778E+01               0
GRID*             172988               0-2.500000000E+008.9999980927E+00+
*       -2.337500000E+01               0
GRID*             172989               0-2.500000000E+008.9999980927E+00+
*       -2.634722222E+01               0
GRID*             172990               0-2.500000000E+008.9999980927E+00+
*       -2.931944444E+01               0
GRID*             172991               0-2.500000000E+008.9999980927E+00+
*       -3.229166667E+01               0
GRID*             172992               0-2.500000000E+008.9999980927E+00+
*       -3.526388889E+01               0
GRID*             172993               0-2.500000000E+008.9999980927E+00+
*       -3.823611111E+01               0
GRID*             172994               0-2.500000000E+008.9999980927E+00+
*       -4.120833333E+01               0
GRID*             172995               0-2.500000000E+008.9999980927E+00+
*       -4.418055556E+01               0
GRID*             172996               0-2.500000000E+008.9999980927E+00+
*       -4.715277778E+01               0
GRID*             172997               0-2.500000000E+008.9999980927E+00+
*       -5.012500000E+01               0
GRID*             172998               0-2.500000000E+008.9999980927E+00+
*       -5.309722222E+01               0
GRID*             172999               0-2.500000000E+008.9999980927E+00+
*       -5.606944444E+01               0
GRID*             173000               0-2.500000000E+008.9999980927E+00+
*       -5.904166667E+01               0
GRID*             173001               0-2.500000000E+008.9999980927E+00+
*       -6.201388889E+01               0
GRID*             173002               0-2.500000000E+008.9999980927E+00+
*       -6.498611111E+01               0
GRID*             173003               0-2.500000000E+008.9999980927E+00+
*       -6.795833333E+01               0
GRID*             173004               0-2.500000000E+008.9999980927E+00+
*       -7.093055556E+01               0
GRID*             173005               0-2.500000000E+008.9999980927E+00+
*       -7.390277778E+01               0
GRID*             173006               0-2.500000000E+008.9999980927E+00+
*       -7.687500000E+01               0
GRID*             173007               0-2.500000000E+008.9999980927E+00+
*       -7.984722222E+01               0
GRID*             173008               0-2.500000000E+008.9999980927E+00+
*       -8.281944444E+01               0
GRID*             173009               0-2.500000000E+008.9999980927E+00+
*       -8.579166667E+01               0
GRID*             173010               0-2.500000000E+008.9999980927E+00+
*       -8.876388889E+01               0
GRID*             173011               0-2.500000000E+008.9999980927E+00+
*       -9.173611111E+01               0
GRID*             173012               0-2.500000000E+008.9999980927E+00+
*       -9.470833333E+01               0
GRID*             173013               0-2.500000000E+008.9999980927E+00+
*       -9.768055556E+01               0
GRID*             173014               0-2.500000000E+008.9999980927E+00+
*       -1.006527778E+02               0
GRID*             173015               0-2.500000000E+008.9999980927E+00+
*       -1.036250000E+02               0
GRID*             173016               0-2.500000000E+008.9999980927E+00+
*       -1.065972222E+02               0
GRID*             173017               0-2.500000000E+008.9999980927E+00+
*       -1.095694444E+02               0
GRID*             173018               0-2.500000000E+008.9999980927E+00+
*       -1.125416667E+02               0
GRID*             173019               0-2.500000000E+008.9999980927E+00+
*       -1.155138889E+02               0
GRID*             173091               0-2.500000000E+009.1000000000E+01+
*       -1.297222222E+01               0
GRID*             173092               0-2.500000000E+009.1000000000E+01+
*       -1.594444444E+01               0
GRID*             173093               0-2.500000000E+009.1000000000E+01+
*       -1.891666667E+01               0
GRID*             173094               0-2.500000000E+009.1000000000E+01+
*       -2.188888889E+01               0
GRID*             173095               0-2.500000000E+009.1000000000E+01+
*       -2.486111111E+01               0
GRID*             173096               0-2.500000000E+009.1000000000E+01+
*       -2.783333333E+01               0
GRID*             173097               0-2.500000000E+009.1000000000E+01+
*       -3.080555556E+01               0
GRID*             173098               0-2.500000000E+009.1000000000E+01+
*       -3.377777778E+01               0
GRID*             173099               0-2.500000000E+009.1000000000E+01+
*       -3.675000000E+01               0
GRID*             173100               0-2.500000000E+009.1000000000E+01+
*       -3.972222222E+01               0
GRID*             173101               0-2.500000000E+009.1000000000E+01+
*       -4.269444444E+01               0
GRID*             173102               0-2.500000000E+009.1000000000E+01+
*       -4.566666667E+01               0
GRID*             173103               0-2.500000000E+009.1000000000E+01+
*       -4.863888889E+01               0
GRID*             173104               0-2.500000000E+009.1000000000E+01+
*       -5.161111111E+01               0
GRID*             173105               0-2.500000000E+009.1000000000E+01+
*       -5.458333333E+01               0
GRID*             173106               0-2.500000000E+009.1000000000E+01+
*       -5.755555556E+01               0
GRID*             173107               0-2.500000000E+009.1000000000E+01+
*       -6.052777778E+01               0
GRID*             173108               0-2.500000000E+009.1000000000E+01+
*       -6.350000000E+01               0
GRID*             173109               0-2.500000000E+009.1000000000E+01+
*       -6.647222222E+01               0
GRID*             173110               0-2.500000000E+009.1000000000E+01+
*       -6.944444444E+01               0
GRID*             173111               0-2.500000000E+009.1000000000E+01+
*       -7.241666667E+01               0
GRID*             173112               0-2.500000000E+009.1000000000E+01+
*       -7.538888889E+01               0
GRID*             173113               0-2.500000000E+009.1000000000E+01+
*       -7.836111111E+01               0
GRID*             173114               0-2.500000000E+009.1000000000E+01+
*       -8.133333333E+01               0
GRID*             173115               0-2.500000000E+009.1000000000E+01+
*       -8.430555556E+01               0
GRID*             173116               0-2.500000000E+009.1000000000E+01+
*       -8.727777778E+01               0
GRID*             173117               0-2.500000000E+009.1000000000E+01+
*       -9.025000000E+01               0
GRID*             173118               0-2.500000000E+009.1000000000E+01+
*       -9.322222222E+01               0
GRID*             173119               0-2.500000000E+009.1000000000E+01+
*       -9.619444444E+01               0
GRID*             173120               0-2.500000000E+009.1000000000E+01+
*       -9.916666667E+01               0
GRID*             173121               0-2.500000000E+009.1000000000E+01+
*       -1.021388889E+02               0
GRID*             173122               0-2.500000000E+009.1000000000E+01+
*       -1.051111111E+02               0
GRID*             173123               0-2.500000000E+009.1000000000E+01+
*       -1.080833333E+02               0
GRID*             173124               0-2.500000000E+009.1000000000E+01+
*       -1.110555556E+02               0
GRID*             173125               0-2.500000000E+009.1000000000E+01+
*       -1.140277778E+02               0
GRID*             173126               0-2.500000000E+009.1000000000E+01+
*       -1.155138889E+02               0
GRID*             173127               0-2.500000000E+009.1000000000E+01+
*       -1.125416667E+02               0
GRID*             173128               0-2.500000000E+009.1000000000E+01+
*       -1.095694444E+02               0
GRID*             173129               0-2.500000000E+009.1000000000E+01+
*       -1.065972222E+02               0
GRID*             173130               0-2.500000000E+009.1000000000E+01+
*       -1.036250000E+02               0
GRID*             173131               0-2.500000000E+009.1000000000E+01+
*       -1.006527778E+02               0
GRID*             173132               0-2.500000000E+009.1000000000E+01+
*       -9.768055556E+01               0
GRID*             173133               0-2.500000000E+009.1000000000E+01+
*       -9.470833333E+01               0
GRID*             173134               0-2.500000000E+009.1000000000E+01+
*       -9.173611111E+01               0
GRID*             173135               0-2.500000000E+009.1000000000E+01+
*       -8.876388889E+01               0
GRID*             173136               0-2.500000000E+009.1000000000E+01+
*       -8.579166667E+01               0
GRID*             173137               0-2.500000000E+009.1000000000E+01+
*       -8.281944444E+01               0
GRID*             173138               0-2.500000000E+009.1000000000E+01+
*       -7.984722222E+01               0
GRID*             173139               0-2.500000000E+009.1000000000E+01+
*       -7.687500000E+01               0
GRID*             173140               0-2.500000000E+009.1000000000E+01+
*       -7.390277778E+01               0
GRID*             173141               0-2.500000000E+009.1000000000E+01+
*       -7.093055556E+01               0
GRID*             173142               0-2.500000000E+009.1000000000E+01+
*       -6.795833333E+01               0
GRID*             173143               0-2.500000000E+009.1000000000E+01+
*       -6.498611111E+01               0
GRID*             173144               0-2.500000000E+009.1000000000E+01+
*       -6.201388889E+01               0
GRID*             173145               0-2.500000000E+009.1000000000E+01+
*       -5.904166667E+01               0
GRID*             173146               0-2.500000000E+009.1000000000E+01+
*       -5.606944444E+01               0
GRID*             173147               0-2.500000000E+009.1000000000E+01+
*       -5.309722222E+01               0
GRID*             173148               0-2.500000000E+009.1000000000E+01+
*       -5.012500000E+01               0
GRID*             173149               0-2.500000000E+009.1000000000E+01+
*       -4.715277778E+01               0
GRID*             173150               0-2.500000000E+009.1000000000E+01+
*       -4.418055556E+01               0
GRID*             173151               0-2.500000000E+009.1000000000E+01+
*       -4.120833333E+01               0
GRID*             173152               0-2.500000000E+009.1000000000E+01+
*       -3.823611111E+01               0
GRID*             173153               0-2.500000000E+009.1000000000E+01+
*       -3.526388889E+01               0
GRID*             173154               0-2.500000000E+009.1000000000E+01+
*       -3.229166667E+01               0
GRID*             173155               0-2.500000000E+009.1000000000E+01+
*       -2.931944444E+01               0
GRID*             173156               0-2.500000000E+009.1000000000E+01+
*       -2.634722222E+01               0
GRID*             173157               0-2.500000000E+009.1000000000E+01+
*       -2.337500000E+01               0
GRID*             173158               0-2.500000000E+009.1000000000E+01+
*       -2.040277778E+01               0
GRID*             173159               0-2.500000000E+009.1000000000E+01+
*       -1.743055556E+01               0
GRID*             173160               0-2.500000000E+009.1000000000E+01+
*       -1.445833333E+01               0
GRID*             173161               0-2.500000000E+009.1000000000E+01+
*       -1.148611111E+01               0
GRID*             173020               00.0000000000E+008.9999980927E+00+
*       -1.140277778E+02               0
GRID*             173021               00.0000000000E+008.9999980927E+00+
*       -1.110555556E+02               0
GRID*             173022               00.0000000000E+008.9999980927E+00+
*       -1.080833333E+02               0
GRID*             173023               00.0000000000E+008.9999980927E+00+
*       -1.051111111E+02               0
GRID*             173024               00.0000000000E+008.9999980927E+00+
*       -1.021388889E+02               0
GRID*             173025               00.0000000000E+008.9999980927E+00+
*       -9.916666667E+01               0
GRID*             173026               00.0000000000E+008.9999980927E+00+
*       -9.619444444E+01               0
GRID*             173027               00.0000000000E+008.9999980927E+00+
*       -9.322222222E+01               0
GRID*             173028               00.0000000000E+008.9999980927E+00+
*       -9.025000000E+01               0
GRID*             173029               00.0000000000E+008.9999980927E+00+
*       -8.727777778E+01               0
GRID*             173030               00.0000000000E+008.9999980927E+00+
*       -8.430555556E+01               0
GRID*             173031               00.0000000000E+008.9999980927E+00+
*       -8.133333333E+01               0
GRID*             173032               00.0000000000E+008.9999980927E+00+
*       -7.836111111E+01               0
GRID*             173033               00.0000000000E+008.9999980927E+00+
*       -7.538888889E+01               0
GRID*             173034               00.0000000000E+008.9999980927E+00+
*       -7.241666667E+01               0
GRID*             173035               00.0000000000E+008.9999980927E+00+
*       -6.944444444E+01               0
GRID*             173036               00.0000000000E+008.9999980927E+00+
*       -6.647222222E+01               0
GRID*             173037               00.0000000000E+008.9999980927E+00+
*       -6.350000000E+01               0
GRID*             173038               00.0000000000E+008.9999980927E+00+
*       -6.052777778E+01               0
GRID*             173039               00.0000000000E+008.9999980927E+00+
*       -5.755555556E+01               0
GRID*             173040               00.0000000000E+008.9999980927E+00+
*       -5.458333333E+01               0
GRID*             173041               00.0000000000E+008.9999980927E+00+
*       -5.161111111E+01               0
GRID*             173042               00.0000000000E+008.9999980927E+00+
*       -4.863888889E+01               0
GRID*             173043               00.0000000000E+008.9999980927E+00+
*       -4.566666667E+01               0
GRID*             173044               00.0000000000E+008.9999980927E+00+
*       -4.269444444E+01               0
GRID*             173045               00.0000000000E+008.9999980927E+00+
*       -3.972222222E+01               0
GRID*             173046               00.0000000000E+008.9999980927E+00+
*       -3.675000000E+01               0
GRID*             173047               00.0000000000E+008.9999980927E+00+
*       -3.377777778E+01               0
GRID*             173048               00.0000000000E+008.9999980927E+00+
*       -3.080555556E+01               0
GRID*             173049               00.0000000000E+008.9999980927E+00+
*       -2.783333333E+01               0
GRID*             173050               00.0000000000E+008.9999980927E+00+
*       -2.486111111E+01               0
GRID*             173051               00.0000000000E+008.9999980927E+00+
*       -2.188888889E+01               0
GRID*             173052               00.0000000000E+008.9999980927E+00+
*       -1.891666667E+01               0
GRID*             173053               00.0000000000E+008.9999980927E+00+
*       -1.594444444E+01               0
GRID*             173054               00.0000000000E+008.9999980927E+00+
*       -1.297222222E+01               0
GRID*             173055               00.0000000000E+008.9999980927E+00+
*       -1.148611111E+01               0
GRID*             173056               00.0000000000E+008.9999980927E+00+
*       -1.445833333E+01               0
GRID*             173057               00.0000000000E+008.9999980927E+00+
*       -1.743055556E+01               0
GRID*             173058               00.0000000000E+008.9999980927E+00+
*       -2.040277778E+01               0
GRID*             173059               00.0000000000E+008.9999980927E+00+
*       -2.337500000E+01               0
GRID*             173060               00.0000000000E+008.9999980927E+00+
*       -2.634722222E+01               0
GRID*             173061               00.0000000000E+008.9999980927E+00+
*       -2.931944444E+01               0
GRID*             173062               00.0000000000E+008.9999980927E+00+
*       -3.229166667E+01               0
GRID*             173063               00.0000000000E+008.9999980927E+00+
*       -3.526388889E+01               0
GRID*             173064               00.0000000000E+008.9999980927E+00+
*       -3.823611111E+01               0
GRID*             173065               00.0000000000E+008.9999980927E+00+
*       -4.120833333E+01               0
GRID*             173066               00.0000000000E+008.9999980927E+00+
*       -4.418055556E+01               0
GRID*             173067               00.0000000000E+008.9999980927E+00+
*       -4.715277778E+01               0
GRID*             173068               00.0000000000E+008.9999980927E+00+
*       -5.012500000E+01               0
GRID*             173069               00.0000000000E+008.9999980927E+00+
*       -5.309722222E+01               0
GRID*             173070               00.0000000000E+008.9999980927E+00+
*       -5.606944444E+01               0
GRID*             173071               00.0000000000E+008.9999980927E+00+
*       -5.904166667E+01               0
GRID*             173072               00.0000000000E+008.9999980927E+00+
*       -6.201388889E+01               0
GRID*             173073               00.0000000000E+008.9999980927E+00+
*       -6.498611111E+01               0
GRID*             173074               00.0000000000E+008.9999980927E+00+
*       -6.795833333E+01               0
GRID*             173075               00.0000000000E+008.9999980927E+00+
*       -7.093055556E+01               0
GRID*             173076               00.0000000000E+008.9999980927E+00+
*       -7.390277778E+01               0
GRID*             173077               00.0000000000E+008.9999980927E+00+
*       -7.687500000E+01               0
GRID*             173078               00.0000000000E+008.9999980927E+00+
*       -7.984722222E+01               0
GRID*             173079               00.0000000000E+008.9999980927E+00+
*       -8.281944444E+01               0
GRID*             173080               00.0000000000E+008.9999980927E+00+
*       -8.579166667E+01               0
GRID*             173081               00.0000000000E+008.9999980927E+00+
*       -8.876388889E+01               0
GRID*             173082               00.0000000000E+008.9999980927E+00+
*       -9.173611111E+01               0
GRID*             173083               00.0000000000E+008.9999980927E+00+
*       -9.470833333E+01               0
GRID*             173084               00.0000000000E+008.9999980927E+00+
*       -9.768055556E+01               0
GRID*             173085               00.0000000000E+008.9999980927E+00+
*       -1.006527778E+02               0
GRID*             173086               00.0000000000E+008.9999980927E+00+
*       -1.036250000E+02               0
GRID*             173087               00.0000000000E+008.9999980927E+00+
*       -1.065972222E+02               0
GRID*             173088               00.0000000000E+008.9999980927E+00+
*       -1.095694444E+02               0
GRID*             173089               00.0000000000E+008.9999980927E+00+
*       -1.125416667E+02               0
GRID*             173090               00.0000000000E+008.9999980927E+00+
*       -1.155138889E+02               0
GRID*             173162               00.0000000000E+009.1000000000E+01+
*       -1.297222222E+01               0
GRID*             173163               00.0000000000E+009.1000000000E+01+
*       -1.594444444E+01               0
GRID*             173164               00.0000000000E+009.1000000000E+01+
*       -1.891666667E+01               0
GRID*             173165               00.0000000000E+009.1000000000E+01+
*       -2.188888889E+01               0
GRID*             173166               00.0000000000E+009.1000000000E+01+
*       -2.486111111E+01               0
GRID*             173167               00.0000000000E+009.1000000000E+01+
*       -2.783333333E+01               0
GRID*             173168               00.0000000000E+009.1000000000E+01+
*       -3.080555556E+01               0
GRID*             173169               00.0000000000E+009.1000000000E+01+
*       -3.377777778E+01               0
GRID*             173170               00.0000000000E+009.1000000000E+01+
*       -3.675000000E+01               0
GRID*             173171               00.0000000000E+009.1000000000E+01+
*       -3.972222222E+01               0
GRID*             173172               00.0000000000E+009.1000000000E+01+
*       -4.269444444E+01               0
GRID*             173173               00.0000000000E+009.1000000000E+01+
*       -4.566666667E+01               0
GRID*             173174               00.0000000000E+009.1000000000E+01+
*       -4.863888889E+01               0
GRID*             173175               00.0000000000E+009.1000000000E+01+
*       -5.161111111E+01               0
GRID*             173176               00.0000000000E+009.1000000000E+01+
*       -5.458333333E+01               0
GRID*             173177               00.0000000000E+009.1000000000E+01+
*       -5.755555556E+01               0
GRID*             173178               00.0000000000E+009.1000000000E+01+
*       -6.052777778E+01               0
GRID*             173179               00.0000000000E+009.1000000000E+01+
*       -6.350000000E+01               0
GRID*             173180               00.0000000000E+009.1000000000E+01+
*       -6.647222222E+01               0
GRID*             173181               00.0000000000E+009.1000000000E+01+
*       -6.944444444E+01               0
GRID*             173182               00.0000000000E+009.1000000000E+01+
*       -7.241666667E+01               0
GRID*             173183               00.0000000000E+009.1000000000E+01+
*       -7.538888889E+01               0
GRID*             173184               00.0000000000E+009.1000000000E+01+
*       -7.836111111E+01               0
GRID*             173185               00.0000000000E+009.1000000000E+01+
*       -8.133333333E+01               0
GRID*             173186               00.0000000000E+009.1000000000E+01+
*       -8.430555556E+01               0
GRID*             173187               00.0000000000E+009.1000000000E+01+
*       -8.727777778E+01               0
GRID*             173188               00.0000000000E+009.1000000000E+01+
*       -9.025000000E+01               0
GRID*             173189               00.0000000000E+009.1000000000E+01+
*       -9.322222222E+01               0
GRID*             173190               00.0000000000E+009.1000000000E+01+
*       -9.619444444E+01               0
GRID*             173191               00.0000000000E+009.1000000000E+01+
*       -9.916666667E+01               0
GRID*             173192               00.0000000000E+009.1000000000E+01+
*       -1.021388889E+02               0
GRID*             173193               00.0000000000E+009.1000000000E+01+
*       -1.051111111E+02               0
GRID*             173194               00.0000000000E+009.1000000000E+01+
*       -1.080833333E+02               0
GRID*             173195               00.0000000000E+009.1000000000E+01+
*       -1.110555556E+02               0
GRID*             173196               00.0000000000E+009.1000000000E+01+
*       -1.140277778E+02               0
GRID*             173197               00.0000000000E+009.1000000000E+01+
*       -1.155138889E+02               0
GRID*             173198               00.0000000000E+009.1000000000E+01+
*       -1.125416667E+02               0
GRID*             173199               00.0000000000E+009.1000000000E+01+
*       -1.095694444E+02               0
GRID*             173200               00.0000000000E+009.1000000000E+01+
*       -1.065972222E+02               0
GRID*             173201               00.0000000000E+009.1000000000E+01+
*       -1.036250000E+02               0
GRID*             173202               00.0000000000E+009.1000000000E+01+
*       -1.006527778E+02               0
GRID*             173203               00.0000000000E+009.1000000000E+01+
*       -9.768055556E+01               0
GRID*             173204               00.0000000000E+009.1000000000E+01+
*       -9.470833333E+01               0
GRID*             173205               00.0000000000E+009.1000000000E+01+
*       -9.173611111E+01               0
GRID*             173206               00.0000000000E+009.1000000000E+01+
*       -8.876388889E+01               0
GRID*             173207               00.0000000000E+009.1000000000E+01+
*       -8.579166667E+01               0
GRID*             173208               00.0000000000E+009.1000000000E+01+
*       -8.281944444E+01               0
GRID*             173209               00.0000000000E+009.1000000000E+01+
*       -7.984722222E+01               0
GRID*             173210               00.0000000000E+009.1000000000E+01+
*       -7.687500000E+01               0
GRID*             173211               00.0000000000E+009.1000000000E+01+
*       -7.390277778E+01               0
GRID*             173212               00.0000000000E+009.1000000000E+01+
*       -7.093055556E+01               0
GRID*             173213               00.0000000000E+009.1000000000E+01+
*       -6.795833333E+01               0
GRID*             173214               00.0000000000E+009.1000000000E+01+
*       -6.498611111E+01               0
GRID*             173215               00.0000000000E+009.1000000000E+01+
*       -6.201388889E+01               0
GRID*             173216               00.0000000000E+009.1000000000E+01+
*       -5.904166667E+01               0
GRID*             173217               00.0000000000E+009.1000000000E+01+
*       -5.606944444E+01               0
GRID*             173218               00.0000000000E+009.1000000000E+01+
*       -5.309722222E+01               0
GRID*             173219               00.0000000000E+009.1000000000E+01+
*       -5.012500000E+01               0
GRID*             173220               00.0000000000E+009.1000000000E+01+
*       -4.715277778E+01               0
GRID*             173221               00.0000000000E+009.1000000000E+01+
*       -4.418055556E+01               0
GRID*             173222               00.0000000000E+009.1000000000E+01+
*       -4.120833333E+01               0
GRID*             173223               00.0000000000E+009.1000000000E+01+
*       -3.823611111E+01               0
GRID*             173224               00.0000000000E+009.1000000000E+01+
*       -3.526388889E+01               0
GRID*             173225               00.0000000000E+009.1000000000E+01+
*       -3.229166667E+01               0
GRID*             173226               00.0000000000E+009.1000000000E+01+
*       -2.931944444E+01               0
GRID*             173227               00.0000000000E+009.1000000000E+01+
*       -2.634722222E+01               0
GRID*             173228               00.0000000000E+009.1000000000E+01+
*       -2.337500000E+01               0
GRID*             173229               00.0000000000E+009.1000000000E+01+
*       -2.040277778E+01               0
GRID*             173230               00.0000000000E+009.1000000000E+01+
*       -1.743055556E+01               0
GRID*             173231               00.0000000000E+009.1000000000E+01+
*       -1.445833333E+01               0
GRID*             173232               00.0000000000E+009.1000000000E+01+
*       -1.148611111E+01               0
GRID*             153286               0-1.250000000E+009.1000000000E+01+
*       -1.140277778E+02               0
GRID*             153287               0-1.250000000E+009.1000000000E+01+
*       -1.110555556E+02               0
GRID*             153288               0-1.250000000E+009.1000000000E+01+
*       -1.080833333E+02               0
GRID*             153289               0-1.250000000E+009.1000000000E+01+
*       -1.051111111E+02               0
GRID*             153290               0-1.250000000E+009.1000000000E+01+
*       -1.021388889E+02               0
GRID*             153291               0-1.250000000E+009.1000000000E+01+
*       -9.916666667E+01               0
GRID*             153292               0-1.250000000E+009.1000000000E+01+
*       -9.619444444E+01               0
GRID*             153293               0-1.250000000E+009.1000000000E+01+
*       -9.322222222E+01               0
GRID*             153294               0-1.250000000E+009.1000000000E+01+
*       -9.025000000E+01               0
GRID*             153295               0-1.250000000E+009.1000000000E+01+
*       -8.727777778E+01               0
GRID*             153296               0-1.250000000E+009.1000000000E+01+
*       -8.430555556E+01               0
GRID*             153297               0-1.250000000E+009.1000000000E+01+
*       -8.133333333E+01               0
GRID*             153298               0-1.250000000E+009.1000000000E+01+
*       -7.836111111E+01               0
GRID*             153299               0-1.250000000E+009.1000000000E+01+
*       -7.538888889E+01               0
GRID*             153300               0-1.250000000E+009.1000000000E+01+
*       -7.241666667E+01               0
GRID*             153301               0-1.250000000E+009.1000000000E+01+
*       -6.944444444E+01               0
GRID*             153302               0-1.250000000E+009.1000000000E+01+
*       -6.647222222E+01               0
GRID*             153303               0-1.250000000E+009.1000000000E+01+
*       -6.350000000E+01               0
GRID*             153304               0-1.250000000E+009.1000000000E+01+
*       -6.052777778E+01               0
GRID*             153305               0-1.250000000E+009.1000000000E+01+
*       -5.755555556E+01               0
GRID*             153306               0-1.250000000E+009.1000000000E+01+
*       -5.458333333E+01               0
GRID*             153307               0-1.250000000E+009.1000000000E+01+
*       -5.161111111E+01               0
GRID*             153308               0-1.250000000E+009.1000000000E+01+
*       -4.863888889E+01               0
GRID*             153309               0-1.250000000E+009.1000000000E+01+
*       -4.566666667E+01               0
GRID*             153310               0-1.250000000E+009.1000000000E+01+
*       -4.269444444E+01               0
GRID*             153311               0-1.250000000E+009.1000000000E+01+
*       -3.972222222E+01               0
GRID*             153312               0-1.250000000E+009.1000000000E+01+
*       -3.675000000E+01               0
GRID*             153313               0-1.250000000E+009.1000000000E+01+
*       -3.377777778E+01               0
GRID*             153314               0-1.250000000E+009.1000000000E+01+
*       -3.080555556E+01               0
GRID*             153315               0-1.250000000E+009.1000000000E+01+
*       -2.783333333E+01               0
GRID*             153316               0-1.250000000E+009.1000000000E+01+
*       -2.486111111E+01               0
GRID*             153317               0-1.250000000E+009.1000000000E+01+
*       -2.188888889E+01               0
GRID*             153318               0-1.250000000E+009.1000000000E+01+
*       -1.891666667E+01               0
GRID*             153319               0-1.250000000E+009.1000000000E+01+
*       -1.594444444E+01               0
GRID*             153320               0-1.250000000E+009.1000000000E+01+
*       -1.297222222E+01               0
GRID*             153186               0-1.250000000E+008.9999980927E+00+
*       -1.297222222E+01               0
GRID*             153187               0-1.250000000E+008.9999980927E+00+
*       -1.594444444E+01               0
GRID*             153188               0-1.250000000E+008.9999980927E+00+
*       -1.891666667E+01               0
GRID*             153189               0-1.250000000E+008.9999980927E+00+
*       -2.188888889E+01               0
GRID*             153190               0-1.250000000E+008.9999980927E+00+
*       -2.486111111E+01               0
GRID*             153191               0-1.250000000E+008.9999980927E+00+
*       -2.783333333E+01               0
GRID*             153192               0-1.250000000E+008.9999980927E+00+
*       -3.080555556E+01               0
GRID*             153193               0-1.250000000E+008.9999980927E+00+
*       -3.377777778E+01               0
GRID*             153194               0-1.250000000E+008.9999980927E+00+
*       -3.675000000E+01               0
GRID*             153195               0-1.250000000E+008.9999980927E+00+
*       -3.972222222E+01               0
GRID*             153196               0-1.250000000E+008.9999980927E+00+
*       -4.269444444E+01               0
GRID*             153197               0-1.250000000E+008.9999980927E+00+
*       -4.566666667E+01               0
GRID*             153198               0-1.250000000E+008.9999980927E+00+
*       -4.863888889E+01               0
GRID*             153199               0-1.250000000E+008.9999980927E+00+
*       -5.161111111E+01               0
GRID*             153200               0-1.250000000E+008.9999980927E+00+
*       -5.458333333E+01               0
GRID*             153201               0-1.250000000E+008.9999980927E+00+
*       -5.755555556E+01               0
GRID*             153202               0-1.250000000E+008.9999980927E+00+
*       -6.052777778E+01               0
GRID*             153203               0-1.250000000E+008.9999980927E+00+
*       -6.350000000E+01               0
GRID*             153204               0-1.250000000E+008.9999980927E+00+
*       -6.647222222E+01               0
GRID*             153205               0-1.250000000E+008.9999980927E+00+
*       -6.944444444E+01               0
GRID*             153206               0-1.250000000E+008.9999980927E+00+
*       -7.241666667E+01               0
GRID*             153207               0-1.250000000E+008.9999980927E+00+
*       -7.538888889E+01               0
GRID*             153208               0-1.250000000E+008.9999980927E+00+
*       -7.836111111E+01               0
GRID*             153209               0-1.250000000E+008.9999980927E+00+
*       -8.133333333E+01               0
GRID*             153210               0-1.250000000E+008.9999980927E+00+
*       -8.430555556E+01               0
GRID*             153211               0-1.250000000E+008.9999980927E+00+
*       -8.727777778E+01               0
GRID*             153212               0-1.250000000E+008.9999980927E+00+
*       -9.025000000E+01               0
GRID*             153213               0-1.250000000E+008.9999980927E+00+
*       -9.322222222E+01               0
GRID*             153214               0-1.250000000E+008.9999980927E+00+
*       -9.619444444E+01               0
GRID*             153215               0-1.250000000E+008.9999980927E+00+
*       -9.916666667E+01               0
GRID*             153216               0-1.250000000E+008.9999980927E+00+
*       -1.021388889E+02               0
GRID*             153217               0-1.250000000E+008.9999980927E+00+
*       -1.051111111E+02               0
GRID*             153218               0-1.250000000E+008.9999980927E+00+
*       -1.080833333E+02               0
GRID*             153219               0-1.250000000E+008.9999980927E+00+
*       -1.110555556E+02               0
GRID*             153220               0-1.250000000E+008.9999980927E+00+
*       -1.140277778E+02               0
GRID*             173976               0-2.500000000E+008.9060661316E+01+
*       -2.189393463E+02               0
GRID*             173977               0-2.500000000E+008.9499732971E+01+
*       -2.200284424E+02               0
GRID*             173979               00.0000000000E+008.9060661316E+01+
*       -2.189393463E+02               0
GRID*             173980               00.0000000000E+008.9499732971E+01+
*       -2.200284424E+02               0
GRID*             173933               0-2.500000000E+008.9303754551E+01+
*       -2.192582294E+02               0
GRID*             173934               0-2.500000000E+008.9453678156E+01+
*       -2.196301212E+02               0
GRID*             173935               0-2.500000000E+008.9490074248E+01+
*       -2.198277360E+02               0
GRID*             173936               0-2.500000000E+008.9391201028E+01+
*       -2.194391422E+02               0
GRID*             173937               0-2.500000000E+008.9192911030E+01+
*       -2.190906286E+02               0
GRID*             173938               0-2.500000000E+009.0353553772E+01+
*       -2.176464488E+02               0
GRID*             173939               0-2.500000000E+008.9707107544E+01+
*       -2.182928975E+02               0
GRID*             173940               0-2.500000000E+009.0676776886E+01+
*       -2.173232244E+02               0
GRID*             173941               0-2.500000000E+008.9383884430E+01+
*       -2.186161219E+02               0
GRID*             173942               0-2.500000000E+009.0030330658E+01+
*       -2.179696732E+02               0
GRID*             173943               0-2.500000000E+008.9999821981E+01+
*       -2.200316010E+02               0
GRID*             173944               0-2.500000000E+009.0499910990E+01+
*       -2.200347595E+02               0
GRID*             173945               0-2.500000000E+009.0749955495E+01+
*       -2.200363388E+02               0
GRID*             173946               0-2.500000000E+009.0249866486E+01+
*       -2.200331802E+02               0
GRID*             173947               0-2.500000000E+008.9749777476E+01+
*       -2.200300217E+02               0
GRID*             173953               0-1.250000000E+008.9060661316E+01+
*       -2.189393463E+02               0
GRID*             173954               0-1.250000000E+008.9499732971E+01+
*       -2.200284424E+02               0
GRID*             173955               0-1.250000000E+009.1000000000E+01+
*       -2.200379181E+02               0
GRID*             172569               0-1.250000000E+009.1000000000E+01+
*       -2.170000000E+02               0
GRID*             173956               00.0000000000E+008.9453678156E+01+
*       -2.196301212E+02               0
GRID*             173957               00.0000000000E+008.9303754551E+01+
*       -2.192582294E+02               0
GRID*             173958               00.0000000000E+008.9192911030E+01+
*       -2.190906286E+02               0
GRID*             173959               00.0000000000E+008.9391201028E+01+
*       -2.194391422E+02               0
GRID*             173960               00.0000000000E+008.9490074248E+01+
*       -2.198277360E+02               0
GRID*             173961               00.0000000000E+008.9707107544E+01+
*       -2.182928975E+02               0
GRID*             173962               00.0000000000E+009.0353553772E+01+
*       -2.176464488E+02               0
GRID*             173963               00.0000000000E+009.0676776886E+01+
*       -2.173232244E+02               0
GRID*             173964               00.0000000000E+009.0030330658E+01+
*       -2.179696732E+02               0
GRID*             173965               00.0000000000E+008.9383884430E+01+
*       -2.186161219E+02               0
GRID*             173966               00.0000000000E+009.0499910990E+01+
*       -2.200347595E+02               0
GRID*             173967               00.0000000000E+008.9999821981E+01+
*       -2.200316010E+02               0
GRID*             173968               00.0000000000E+009.0749955495E+01+
*       -2.200363388E+02               0
GRID*             173969               00.0000000000E+009.0249866486E+01+
*       -2.200331802E+02               0
GRID*             173970               00.0000000000E+008.9749777476E+01+
*       -2.200300217E+02               0
GRID*             173911               0-1.249999999E+009.0353553658E+01+
*       -2.176464487E+02               0
GRID*             173912               0-1.250000001E+008.9707107658E+01+
*       -2.182928977E+02               0
GRID*             173917               00.0000000000E+009.0434584838E+01+
*       -2.184278361E+02               0
GRID*             173918               00.0000000000E+009.0484559270E+01+
*       -2.192268929E+02               0
GRID*             173919               00.0000000000E+008.9969118540E+01+
*       -2.194285071E+02               0
GRID*             173920               00.0000000000E+008.9869169677E+01+
*       -2.188430327E+02               0
GRID*             173921               00.0000000000E+008.9919144108E+01+
*       -2.191357699E+02               0
GRID*             173922               00.0000000000E+009.0226838905E+01+
*       -2.193277000E+02               0
GRID*             173923               00.0000000000E+009.0459572054E+01+
*       -2.188273645E+02               0
GRID*             173924               00.0000000000E+009.0151877257E+01+
*       -2.186354344E+02               0
GRID*             173925               00.0000000000E+009.0394069305E+01+
*       -2.180371424E+02               0
GRID*             173926               00.0000000000E+009.0717292419E+01+
*       -2.182202377E+02               0
GRID*             173927               00.0000000000E+009.0742279635E+01+
*       -2.191260858E+02               0
GRID*             173928               00.0000000000E+009.0492235130E+01+
*       -2.196308262E+02               0
GRID*             173929               00.0000000000E+008.9984470260E+01+
*       -2.197300540E+02               0
GRID*             173930               00.0000000000E+008.9711398175E+01+
*       -2.195293142E+02               0
GRID*             173931               00.0000000000E+008.9586462096E+01+
*       -2.190506311E+02               0
GRID*             173932               00.0000000000E+008.9788138610E+01+
*       -2.185679651E+02               0
GRID*             173893               0-2.500000000E+009.0434584838E+01+
*       -2.184278361E+02               0
GRID*             173894               0-2.500000000E+008.9869169677E+01+
*       -2.188430327E+02               0
GRID*             173895               0-2.500000000E+009.0484559270E+01+
*       -2.192268929E+02               0
GRID*             173896               0-2.500000000E+008.9969118540E+01+
*       -2.194285071E+02               0
GRID*             173897               0-2.500000000E+009.0459572054E+01+
*       -2.188273645E+02               0
GRID*             173898               0-2.500000000E+009.0226838905E+01+
*       -2.193277000E+02               0
GRID*             173899               0-2.500000000E+008.9919144108E+01+
*       -2.191357699E+02               0
GRID*             173900               0-2.500000000E+009.0151877257E+01+
*       -2.186354344E+02               0
GRID*             173901               0-2.500000000E+009.0717292419E+01+
*       -2.182202377E+02               0
GRID*             173902               0-2.500000000E+009.0394069305E+01+
*       -2.180371424E+02               0
GRID*             173903               0-2.500000000E+009.0742279635E+01+
*       -2.191260858E+02               0
GRID*             173904               0-2.500000000E+009.0492235130E+01+
*       -2.196308262E+02               0
GRID*             173905               0-2.500000000E+008.9984470260E+01+
*       -2.197300540E+02               0
GRID*             173906               0-2.500000000E+008.9711398175E+01+
*       -2.195293142E+02               0
GRID*             173907               0-2.500000000E+008.9586462096E+01+
*       -2.190506311E+02               0
GRID*             173908               0-2.500000000E+008.9788138610E+01+
*       -2.185679651E+02               0
GRID*             173909               0-1.250000372E+008.9303751292E+01+
*       -2.192582242E+02               0
GRID*             173910               0-1.249999629E+008.9453679648E+01+
*       -2.196301272E+02               0
GRID*             173913               0-1.250000000E+009.0499910990E+01+
*       -2.200347595E+02               0
GRID*             173914               0-1.250000000E+008.9999821981E+01+
*       -2.200316010E+02               0
GRID*             173889               0-1.250000000E+008.9869169677E+01+
*       -2.188430327E+02               0
GRID*             173890               0-1.250000000E+008.9969118540E+01+
*       -2.194285071E+02               0
GRID*             173891               0-1.250000000E+009.0484559270E+01+
*       -2.192268929E+02               0
GRID*             173892               0-1.250000000E+009.0434584838E+01+
*       -2.184278361E+02               0
GRID*             173772               0-2.500000000E+008.8000000000E+01+
*       -1.170000000E+02               0
GRID*             176377               0-2.500000000E+008.8000000000E+01+
*       -1.185000000E+02               0
GRID*             176378               00.0000000000E+008.8000000000E+01+
*       -1.185000000E+02               0
GRID*             173771               00.0000000000E+008.8000000000E+01+
*       -1.170000000E+02               0
GRID*             176360               0-2.500000000E+008.8000000000E+01+
*       -1.175000000E+02               0
GRID*             176361               0-2.500000000E+008.8000000000E+01+
*       -1.180000000E+02               0
GRID*             176362               0-2.500000000E+008.8000000000E+01+
*       -1.172500000E+02               0
GRID*             176363               0-2.500000000E+008.8000000000E+01+
*       -1.177500000E+02               0
GRID*             176364               0-2.500000000E+008.8000000000E+01+
*       -1.182500000E+02               0
GRID*             176400               0-2.500000000E+008.8574025834E+01+
*       -1.186141806E+02               0
GRID*             176401               0-2.500000000E+008.8833358192E+01+
*       -1.187527920E+02               0
GRID*             176402               0-2.500000000E+008.8292635376E+01+
*       -1.185288243E+02               0
GRID*             172771               0-2.500000000E+008.9500000000E+01+
*       -1.170000000E+02               0
GRID*             172772               0-2.500000000E+009.0250000000E+01+
*       -1.170000000E+02               0
GRID*             172773               0-2.500000000E+008.8750000000E+01+
*       -1.170000000E+02               0
GRID*             176365               0-1.250000000E+008.8000000000E+01+
*       -1.185000000E+02               0
GRID*             172570               0-1.250000000E+008.8000000000E+01+
*       -1.170000000E+02               0
GRID*             176366               00.0000000000E+008.8000000000E+01+
*       -1.180000000E+02               0
GRID*             176367               00.0000000000E+008.8000000000E+01+
*       -1.175000000E+02               0
GRID*             176368               00.0000000000E+008.8000000000E+01+
*       -1.172500000E+02               0
GRID*             176369               00.0000000000E+008.8000000000E+01+
*       -1.177500000E+02               0
GRID*             176370               00.0000000000E+008.8000000000E+01+
*       -1.182500000E+02               0
GRID*             176403               00.0000000000E+008.8574025834E+01+
*       -1.186141806E+02               0
GRID*             176404               00.0000000000E+008.8292635376E+01+
*       -1.185288243E+02               0
GRID*             176405               00.0000000000E+008.8833358192E+01+
*       -1.187527920E+02               0
GRID*             172774               00.0000000000E+008.9500000000E+01+
*       -1.170000000E+02               0
GRID*             172775               00.0000000000E+009.0250000000E+01+
*       -1.170000000E+02               0
GRID*             172776               00.0000000000E+008.8750000000E+01+
*       -1.170000000E+02               0
GRID*             153321               0-1.250000000E+008.9500000000E+01+
*       -1.170000000E+02               0
GRID*             176391               00.0000000000E+008.9191341945E+01+
*       -1.175380602E+02               0
GRID*             176392               00.0000000000E+008.8882683889E+01+
*       -1.180761204E+02               0
GRID*             176393               00.0000000000E+008.8595670972E+01+
*       -1.175190301E+02               0
GRID*             176394               00.0000000000E+008.9345670972E+01+
*       -1.172690301E+02               0
GRID*             176395               00.0000000000E+008.9772447858E+01+
*       -1.175922532E+02               0
GRID*             176396               00.0000000000E+008.9294895717E+01+
*       -1.181845064E+02               0
GRID*             176397               00.0000000000E+008.9037012917E+01+
*       -1.178070903E+02               0
GRID*             176398               00.0000000000E+008.8728354862E+01+
*       -1.183451505E+02               0
GRID*             176399               00.0000000000E+008.8441341945E+01+
*       -1.180380602E+02               0
GRID*             176381               0-2.500000000E+008.9191341945E+01+
*       -1.175380602E+02               0
GRID*             176382               0-2.500000000E+008.8882683889E+01+
*       -1.180761204E+02               0
GRID*             176383               0-2.500000000E+008.9345670972E+01+
*       -1.172690301E+02               0
GRID*             176384               0-2.500000000E+008.8595670972E+01+
*       -1.175190301E+02               0
GRID*             176385               0-2.500000000E+008.9772447858E+01+
*       -1.175922532E+02               0
GRID*             176386               0-2.500000000E+008.9294895717E+01+
*       -1.181845064E+02               0
GRID*             176387               0-2.500000000E+008.9037012917E+01+
*       -1.178070903E+02               0
GRID*             176388               0-2.500000000E+008.8728354862E+01+
*       -1.183451505E+02               0
GRID*             176389               0-2.500000000E+008.8441341945E+01+
*       -1.180380602E+02               0
GRID*             176390               0-1.250000000E+008.8574025834E+01+
*       -1.186141806E+02               0
GRID*             176339               0-1.250000000E+008.8000000000E+01+
*       -1.175000000E+02               0
GRID*             176340               0-1.250000000E+008.8000000000E+01+
*       -1.180000000E+02               0
GRID*             176379               0-1.250000000E+008.9191341945E+01+
*       -1.175380602E+02               0
GRID*             176380               0-1.250000000E+008.8882683889E+01+
*       -1.180761204E+02               0
GRID*             174838               0-2.500000000E+008.0839340210E+01+
*       -3.189393311E+02               0
GRID*             173774               0-2.500000000E+007.8900001526E+01+
*       -3.170000000E+02               0
GRID*             173773               0-2.500000000E+008.1900001526E+01+
*       -3.170000000E+02               0
GRID*             174796               0-2.500000000E+008.1900001526E+01+
*       -3.185000000E+02               0
GRID*             173775               00.0000000000E+007.8900001526E+01+
*       -3.170000000E+02               0
GRID*             174839               00.0000000000E+008.0839340210E+01+
*       -3.189393311E+02               0
GRID*             174797               00.0000000000E+008.1900001526E+01+
*       -3.185000000E+02               0
GRID*             173776               00.0000000000E+008.1900001526E+01+
*       -3.170000000E+02               0
GRID*             174821               0-2.500000000E+008.0192893982E+01+
*       -3.182928874E+02               0
GRID*             174822               0-2.500000000E+007.9546447754E+01+
*       -3.176464437E+02               0
GRID*             174823               0-2.500000000E+007.9223224640E+01+
*       -3.173232218E+02               0
GRID*             174824               0-2.500000000E+008.0516117096E+01+
*       -3.186161092E+02               0
GRID*             174825               0-2.500000000E+007.9869670868E+01+
*       -3.179696655E+02               0
GRID*             172571               0-2.500000000E+008.0400001526E+01+
*       -3.170000000E+02               0
GRID*             172572               0-2.500000000E+008.1150001526E+01+
*       -3.170000000E+02               0
GRID*             172573               0-2.500000000E+007.9650001526E+01+
*       -3.170000000E+02               0
GRID*             174826               0-2.500000000E+008.1325982959E+01+
*       -3.186141897E+02               0
GRID*             174827               0-2.500000000E+008.1607364921E+01+
*       -3.185288078E+02               0
GRID*             174828               0-2.500000000E+008.1066650996E+01+
*       -3.187527970E+02               0
GRID*             174779               0-2.500000000E+008.1900001526E+01+
*       -3.180000000E+02               0
GRID*             174780               0-2.500000000E+008.1900001526E+01+
*       -3.175000000E+02               0
GRID*             174781               0-2.500000000E+008.1900001526E+01+
*       -3.182500000E+02               0
GRID*             174782               0-2.500000000E+008.1900001526E+01+
*       -3.177500000E+02               0
GRID*             174783               0-2.500000000E+008.1900001526E+01+
*       -3.172500000E+02               0
GRID*             172574               0-1.250000000E+007.8900001526E+01+
*       -3.170000000E+02               0
GRID*             174829               0-1.250000000E+008.0839340210E+01+
*       -3.189393311E+02               0
GRID*             174784               0-1.250000000E+008.1900001526E+01+
*       -3.185000000E+02               0
GRID*             172575               0-1.250000000E+008.1900001526E+01+
*       -3.170000000E+02               0
GRID*             174830               00.0000000000E+007.9546447754E+01+
*       -3.176464437E+02               0
GRID*             174831               00.0000000000E+008.0192893982E+01+
*       -3.182928874E+02               0
GRID*             174832               00.0000000000E+008.0516117096E+01+
*       -3.186161092E+02               0
GRID*             174833               00.0000000000E+007.9869670868E+01+
*       -3.179696655E+02               0
GRID*             174834               00.0000000000E+007.9223224640E+01+
*       -3.173232218E+02               0
GRID*             172576               00.0000000000E+008.0400001526E+01+
*       -3.170000000E+02               0
GRID*             172577               00.0000000000E+008.1150001526E+01+
*       -3.170000000E+02               0
GRID*             172578               00.0000000000E+007.9650001526E+01+
*       -3.170000000E+02               0
GRID*             174835               00.0000000000E+008.1325982959E+01+
*       -3.186141897E+02               0
GRID*             174836               00.0000000000E+008.1066650996E+01+
*       -3.187527970E+02               0
GRID*             174837               00.0000000000E+008.1607364921E+01+
*       -3.185288078E+02               0
GRID*             174785               00.0000000000E+008.1900001526E+01+
*       -3.180000000E+02               0
GRID*             174786               00.0000000000E+008.1900001526E+01+
*       -3.175000000E+02               0
GRID*             174787               00.0000000000E+008.1900001526E+01+
*       -3.182500000E+02               0
GRID*             174788               00.0000000000E+008.1900001526E+01+
*       -3.177500000E+02               0
GRID*             174789               00.0000000000E+008.1900001526E+01+
*       -3.172500000E+02               0
GRID*             174809               0-1.249999999E+008.0192894096E+01+
*       -3.182928873E+02               0
GRID*             174810               0-1.250000001E+007.9546447640E+01+
*       -3.176464438E+02               0
GRID*             153322               0-1.250000000E+008.0400001526E+01+
*       -3.170000000E+02               0
GRID*             174812               00.0000000000E+008.0708662003E+01+
*       -3.175380632E+02               0
GRID*             174813               00.0000000000E+008.1017322481E+01+
*       -3.180761265E+02               0
GRID*             174814               00.0000000000E+008.0127554879E+01+
*       -3.175922535E+02               0
GRID*             174815               00.0000000000E+008.0554331765E+01+
*       -3.172690316E+02               0
GRID*             174816               00.0000000000E+008.1304331765E+01+
*       -3.175190316E+02               0
GRID*             174817               00.0000000000E+008.1458662003E+01+
*       -3.180380632E+02               0
GRID*             174818               00.0000000000E+008.0862992242E+01+
*       -3.178070949E+02               0
GRID*             174819               00.0000000000E+008.1171652720E+01+
*       -3.183451581E+02               0
GRID*             174820               00.0000000000E+008.0605108231E+01+
*       -3.181845069E+02               0
GRID*             174800               0-2.500000000E+008.0708662003E+01+
*       -3.175380632E+02               0
GRID*             174801               0-2.500000000E+008.1017322481E+01+
*       -3.180761265E+02               0
GRID*             174802               0-2.500000000E+008.0554331765E+01+
*       -3.172690316E+02               0
GRID*             174803               0-2.500000000E+008.0127554879E+01+
*       -3.175922535E+02               0
GRID*             174804               0-2.500000000E+008.1304331765E+01+
*       -3.175190316E+02               0
GRID*             174805               0-2.500000000E+008.1458662003E+01+
*       -3.180380632E+02               0
GRID*             174806               0-2.500000000E+008.0862992242E+01+
*       -3.178070949E+02               0
GRID*             174807               0-2.500000000E+008.1171652720E+01+
*       -3.183451581E+02               0
GRID*             174808               0-2.500000000E+008.0605108231E+01+
*       -3.181845069E+02               0
GRID*             174811               0-1.250000000E+008.1325982959E+01+
*       -3.186141897E+02               0
GRID*             174758               0-1.250000000E+008.1900001526E+01+
*       -3.180000000E+02               0
GRID*             174759               0-1.250000000E+008.1900001526E+01+
*       -3.175000000E+02               0
GRID*             174798               0-1.250000000E+008.0708662003E+01+
*       -3.175380632E+02               0
GRID*             174799               0-1.250000000E+008.1017322481E+01+
*       -3.180761265E+02               0
GRID*             175382               0-2.500000000E+008.2960662842E+01+
*       -2.158934021E+01               0
GRID*             173777               0-2.500000000E+008.4900001526E+01+
*       -1.964999962E+01               0
GRID*             175383               00.0000000000E+008.2960662842E+01+
*       -2.158934021E+01               0
GRID*             173778               00.0000000000E+008.4900001526E+01+
*       -1.964999962E+01               0
GRID*             175376               0-2.500000000E+008.2474026925E+01+
*       -2.126418131E+01               0
GRID*             175377               0-2.500000000E+008.2733357049E+01+
*       -2.140279682E+01               0
GRID*             175378               0-2.500000000E+008.2192637155E+01+
*       -2.117882208E+01               0
GRID*             172855               0-2.500000000E+008.3400001526E+01+
*       -1.964999962E+01               0
GRID*             172856               0-2.500000000E+008.2650001526E+01+
*       -1.964999962E+01               0
GRID*             172857               0-2.500000000E+008.4150001526E+01+
*       -1.964999962E+01               0
GRID*             175354               0-2.500000000E+008.4253555298E+01+
*       -2.029644648E+01               0
GRID*             175355               0-2.500000000E+008.3607109070E+01+
*       -2.094289335E+01               0
GRID*             175356               0-2.500000000E+008.4576778412E+01+
*       -1.997322305E+01               0
GRID*             175357               0-2.500000000E+008.3930332184E+01+
*       -2.061966991E+01               0
GRID*             175358               0-2.500000000E+008.3283885956E+01+
*       -2.126611678E+01               0
GRID*             175359               0-1.250000000E+008.2960662842E+01+
*       -2.158934021E+01               0
GRID*             172579               0-1.250000000E+008.4900001526E+01+
*       -1.964999962E+01               0
GRID*             175379               00.0000000000E+008.2474026925E+01+
*       -2.126418131E+01               0
GRID*             175380               00.0000000000E+008.2733357049E+01+
*       -2.140279682E+01               0
GRID*             175381               00.0000000000E+008.2192637155E+01+
*       -2.117882208E+01               0
GRID*             172858               00.0000000000E+008.3400001526E+01+
*       -1.964999962E+01               0
GRID*             172859               00.0000000000E+008.2650001526E+01+
*       -1.964999962E+01               0
GRID*             172860               00.0000000000E+008.4150001526E+01+
*       -1.964999962E+01               0
GRID*             175360               00.0000000000E+008.4253555298E+01+
*       -2.029644648E+01               0
GRID*             175361               00.0000000000E+008.3607109070E+01+
*       -2.094289335E+01               0
GRID*             175362               00.0000000000E+008.4576778412E+01+
*       -1.997322305E+01               0
GRID*             175363               00.0000000000E+008.3930332184E+01+
*       -2.061966991E+01               0
GRID*             175364               00.0000000000E+008.3283885956E+01+
*       -2.126611678E+01               0
GRID*             175341               0-1.250000001E+008.4253555269E+01+
*       -2.029644645E+01               0
GRID*             175342               0-1.249999999E+008.3607109098E+01+
*       -2.094289337E+01               0
GRID*             153323               0-1.250000000E+008.3400001526E+01+
*       -1.964999962E+01               0
GRID*             175343               00.0000000000E+008.3091343326E+01+
*       -2.018806018E+01               0
GRID*             175344               00.0000000000E+008.2782685125E+01+
*       -2.072612074E+01               0
GRID*             175345               00.0000000000E+008.2495672426E+01+
*       -2.016902990E+01               0
GRID*             175346               00.0000000000E+008.3245672426E+01+
*       -1.991902990E+01               0
GRID*             175347               00.0000000000E+008.3672449312E+01+
*       -2.024225333E+01               0
GRID*             175348               00.0000000000E+008.3194897097E+01+
*       -2.083450704E+01               0
GRID*             175349               00.0000000000E+008.2937014225E+01+
*       -2.045709046E+01               0
GRID*             175350               00.0000000000E+008.2628356025E+01+
*       -2.099515102E+01               0
GRID*             175351               00.0000000000E+008.2341343326E+01+
*       -2.068806018E+01               0
GRID*             175331               0-2.500000000E+008.3091343326E+01+
*       -2.018806018E+01               0
GRID*             175332               0-2.500000000E+008.2782685125E+01+
*       -2.072612074E+01               0
GRID*             175333               0-2.500000000E+008.3245672426E+01+
*       -1.991902990E+01               0
GRID*             175334               0-2.500000000E+008.2495672426E+01+
*       -2.016902990E+01               0
GRID*             175335               0-2.500000000E+008.3672449312E+01+
*       -2.024225333E+01               0
GRID*             175336               0-2.500000000E+008.3194897097E+01+
*       -2.083450704E+01               0
GRID*             175337               0-2.500000000E+008.2937014225E+01+
*       -2.045709046E+01               0
GRID*             175338               0-2.500000000E+008.2628356025E+01+
*       -2.099515102E+01               0
GRID*             175339               0-2.500000000E+008.2341343326E+01+
*       -2.068806018E+01               0
GRID*             175340               0-1.250000000E+008.2474026925E+01+
*       -2.126418131E+01               0
GRID*             175329               0-1.250000000E+008.3091343326E+01+
*       -2.018806018E+01               0
GRID*             175330               0-1.250000000E+008.2782685125E+01+
*       -2.072612074E+01               0
GRID*             175168               0-2.500000000E+001.8674018181E+01+
*       -3.186141918E+02               0
GRID*             175169               0-2.500000000E+001.8933349357E+01+
*       -3.187527985E+02               0
GRID*             175170               0-2.500000000E+001.8392637357E+01+
*       -3.185288101E+02               0
GRID*             172891               0-2.500000000E+001.9600002289E+01+
*       -3.170000000E+02               0
GRID*             172892               0-2.500000000E+002.0350002289E+01+
*       -3.170000000E+02               0
GRID*             172893               0-2.500000000E+001.8850002289E+01+
*       -3.170000000E+02               0
GRID*             175171               00.0000000000E+001.8674018181E+01+
*       -3.186141918E+02               0
GRID*             175172               00.0000000000E+001.8933349357E+01+
*       -3.187527985E+02               0
GRID*             175173               00.0000000000E+001.8392637357E+01+
*       -3.185288101E+02               0
GRID*             172894               00.0000000000E+001.9600002289E+01+
*       -3.170000000E+02               0
GRID*             172895               00.0000000000E+002.0350002289E+01+
*       -3.170000000E+02               0
GRID*             172896               00.0000000000E+001.8850002289E+01+
*       -3.170000000E+02               0
GRID*             153324               0-1.250000000E+001.9600002289E+01+
*       -3.170000000E+02               0
GRID*             175146               00.0000000000E+001.9291340920E+01+
*       -3.175380639E+02               0
GRID*             175147               00.0000000000E+001.8982679550E+01+
*       -3.180761278E+02               0
GRID*             175148               00.0000000000E+001.8695671604E+01+
*       -3.175190320E+02               0
GRID*             175149               00.0000000000E+001.9445671604E+01+
*       -3.172690320E+02               0
GRID*             175150               00.0000000000E+001.9872447854E+01+
*       -3.175922538E+02               0
GRID*             175151               00.0000000000E+001.9394893420E+01+
*       -3.181845076E+02               0
GRID*             175152               00.0000000000E+001.9137010235E+01+
*       -3.178070959E+02               0
GRID*             175153               00.0000000000E+001.8828348866E+01+
*       -3.183451598E+02               0
GRID*             175154               00.0000000000E+001.8541340920E+01+
*       -3.180380639E+02               0
GRID*             175136               0-2.500000000E+001.9291340920E+01+
*       -3.175380639E+02               0
GRID*             175137               0-2.500000000E+001.8982679550E+01+
*       -3.180761278E+02               0
GRID*             175138               0-2.500000000E+001.9445671604E+01+
*       -3.172690320E+02               0
GRID*             175139               0-2.500000000E+001.8695671604E+01+
*       -3.175190320E+02               0
GRID*             175140               0-2.500000000E+001.9872447854E+01+
*       -3.175922538E+02               0
GRID*             175141               0-2.500000000E+001.9394893420E+01+
*       -3.181845076E+02               0
GRID*             175142               0-2.500000000E+001.9137010235E+01+
*       -3.178070959E+02               0
GRID*             175143               0-2.500000000E+001.8828348866E+01+
*       -3.183451598E+02               0
GRID*             175144               0-2.500000000E+001.8541340920E+01+
*       -3.180380639E+02               0
GRID*             175145               0-1.250000000E+001.8674018181E+01+
*       -3.186141918E+02               0
GRID*             175134               0-1.250000000E+001.9291340920E+01+
*       -3.175380639E+02               0
GRID*             175135               0-1.250000000E+001.8982679550E+01+
*       -3.180761278E+02               0
GRID*             172909               0-2.500000000E+001.6599999428E+01+
*       -1.964999962E+01               0
GRID*             172910               0-2.500000000E+001.5849997997E+01+
*       -1.964999962E+01               0
GRID*             172911               0-2.500000000E+001.7350000858E+01+
*       -1.964999962E+01               0
GRID*             175712               0-2.500000000E+001.7525974780E+01+
*       -2.126418014E+01               0
GRID*             175713               0-2.500000000E+001.7807365637E+01+
*       -2.117882152E+01               0
GRID*             175714               0-2.500000000E+001.7266643852E+01+
*       -2.140279621E+01               0
GRID*             172912               00.0000000000E+001.6599999428E+01+
*       -1.964999962E+01               0
GRID*             172913               00.0000000000E+001.5849997997E+01+
*       -1.964999962E+01               0
GRID*             172914               00.0000000000E+001.7350000858E+01+
*       -1.964999962E+01               0
GRID*             175715               00.0000000000E+001.7525974780E+01+
*       -2.126418014E+01               0
GRID*             175716               00.0000000000E+001.7266643852E+01+
*       -2.140279621E+01               0
GRID*             175717               00.0000000000E+001.7807365637E+01+
*       -2.117882152E+01               0
GRID*             153325               0-1.250000000E+001.6599999428E+01+
*       -1.964999962E+01               0
GRID*             175677               00.0000000000E+001.6908657879E+01+
*       -2.018805979E+01               0
GRID*             175678               00.0000000000E+001.7217316330E+01+
*       -2.072611996E+01               0
GRID*             175679               00.0000000000E+001.6327550655E+01+
*       -2.024225314E+01               0
GRID*             175680               00.0000000000E+001.6754328653E+01+
*       -1.991902970E+01               0
GRID*             175681               00.0000000000E+001.7504330084E+01+
*       -2.016902970E+01               0
GRID*             175682               00.0000000000E+001.7658659309E+01+
*       -2.068805979E+01               0
GRID*             175683               00.0000000000E+001.7062987104E+01+
*       -2.045708988E+01               0
GRID*             175684               00.0000000000E+001.7371645555E+01+
*       -2.099515005E+01               0
GRID*             175685               00.0000000000E+001.6805103312E+01+
*       -2.083450666E+01               0
GRID*             175667               0-2.500000000E+001.6908657879E+01+
*       -2.018805979E+01               0
GRID*             175668               0-2.500000000E+001.7217316330E+01+
*       -2.072611996E+01               0
GRID*             175669               0-2.500000000E+001.6754328653E+01+
*       -1.991902970E+01               0
GRID*             175670               0-2.500000000E+001.6327550655E+01+
*       -2.024225314E+01               0
GRID*             175671               0-2.500000000E+001.7504330084E+01+
*       -2.016902970E+01               0
GRID*             175672               0-2.500000000E+001.7658659309E+01+
*       -2.068805979E+01               0
GRID*             175673               0-2.500000000E+001.7062987104E+01+
*       -2.045708988E+01               0
GRID*             175674               0-2.500000000E+001.7371645555E+01+
*       -2.099515005E+01               0
GRID*             175675               0-2.500000000E+001.6805103312E+01+
*       -2.083450666E+01               0
GRID*             175676               0-1.250000000E+001.7525974780E+01+
*       -2.126418014E+01               0
GRID*             175665               0-1.250000000E+001.6908657879E+01+
*       -2.018805979E+01               0
GRID*             175666               0-1.250000000E+001.7217316330E+01+
*       -2.072611996E+01               0
GRID*             174466               0-2.500000000E+001.0551111293E+01+
*       -2.196117732E+02               0
GRID*             174467               0-2.500000000E+001.0700960331E+01+
*       -2.192500033E+02               0
GRID*             174468               0-2.500000000E+001.0809966479E+01+
*       -2.190868608E+02               0
GRID*             174469               0-2.500000000E+001.0614179115E+01+
*       -2.194259771E+02               0
GRID*             174470               0-2.500000000E+001.0512833043E+01+
*       -2.198042116E+02               0
GRID*             174476               00.0000000000E+001.0700960331E+01+
*       -2.192500033E+02               0
GRID*             174477               00.0000000000E+001.0551111293E+01+
*       -2.196117732E+02               0
GRID*             174478               00.0000000000E+001.0809966479E+01+
*       -2.190868608E+02               0
GRID*             174479               00.0000000000E+001.0614179115E+01+
*       -2.194259771E+02               0
GRID*             174480               00.0000000000E+001.0512833043E+01+
*       -2.198042116E+02               0
GRID*             174432               00.0000000000E+009.5170357784E+00+
*       -2.192039244E+02               0
GRID*             174433               00.0000000000E+009.5669855180E+00+
*       -2.184166678E+02               0
GRID*             174434               00.0000000000E+001.0133972943E+01+
*       -2.188333355E+02               0
GRID*             174435               00.0000000000E+001.0034073464E+01+
*       -2.194078488E+02               0
GRID*             174436               00.0000000000E+001.0084023204E+01+
*       -2.191205922E+02               0
GRID*             174437               00.0000000000E+009.8504792307E+00+
*       -2.186250016E+02               0
GRID*             174438               00.0000000000E+009.5420106482E+00+
*       -2.188102961E+02               0
GRID*             174439               00.0000000000E+009.7755546212E+00+
*       -2.193058866E+02               0
GRID*             174440               00.0000000000E+009.5085174123E+00+
*       -2.196019622E+02               0
GRID*             174441               00.0000000000E+009.2585169355E+00+
*       -2.191019622E+02               0
GRID*             174442               00.0000000000E+009.2834918053E+00+
*       -2.182083339E+02               0
GRID*             174443               00.0000000000E+009.6067152372E+00+
*       -2.180315583E+02               0
GRID*             174444               00.0000000000E+001.0213432382E+01+
*       -2.185631165E+02               0
GRID*             174445               00.0000000000E+001.0417466656E+01+
*       -2.190416694E+02               0
GRID*             174446               00.0000000000E+001.0292592307E+01+
*       -2.195098110E+02               0
GRID*             174447               00.0000000000E+001.0017036732E+01+
*       -2.197039244E+02               0
GRID*             174412               0-2.500000000E+009.5170357784E+00+
*       -2.192039244E+02               0
GRID*             174413               0-2.500000000E+001.0034073464E+01+
*       -2.194078488E+02               0
GRID*             174414               0-2.500000000E+009.5669855180E+00+
*       -2.184166678E+02               0
GRID*             174415               0-2.500000000E+001.0133972943E+01+
*       -2.188333355E+02               0
GRID*             174416               0-2.500000000E+009.5420106482E+00+
*       -2.188102961E+02               0
GRID*             174417               0-2.500000000E+009.8504792307E+00+
*       -2.186250016E+02               0
GRID*             174418               0-2.500000000E+001.0084023204E+01+
*       -2.191205922E+02               0
GRID*             174419               0-2.500000000E+009.7755546212E+00+
*       -2.193058866E+02               0
GRID*             174420               0-2.500000000E+009.2585169355E+00+
*       -2.191019622E+02               0
GRID*             174421               0-2.500000000E+009.5085174123E+00+
*       -2.196019622E+02               0
GRID*             174422               0-2.500000000E+009.2834918053E+00+
*       -2.182083339E+02               0
GRID*             174423               0-2.500000000E+009.6067152372E+00+
*       -2.180315583E+02               0
GRID*             174424               0-2.500000000E+001.0213432382E+01+
*       -2.185631165E+02               0
GRID*             174425               0-2.500000000E+001.0417466656E+01+
*       -2.190416694E+02               0
GRID*             174426               0-2.500000000E+001.0292592307E+01+
*       -2.195098110E+02               0
GRID*             174427               0-2.500000000E+001.0017036732E+01+
*       -2.197039244E+02               0
GRID*             174430               0-1.249999664E+001.0700963314E+01+
*       -2.192499984E+02               0
GRID*             174431               0-1.250000337E+001.0551109889E+01+
*       -2.196117788E+02               0
GRID*             174408               0-1.250000000E+001.0034073464E+01+
*       -2.194078488E+02               0
GRID*             174409               0-1.250000000E+001.0133972943E+01+
*       -2.188333355E+02               0
GRID*             174410               0-1.250000000E+009.5669855180E+00+
*       -2.184166678E+02               0
GRID*             174411               0-1.250000000E+009.5170357784E+00+
*       -2.192039244E+02               0
GRID*             173779               0-2.500000000E+001.1999996185E+01+
*       -1.230000000E+02               0
GRID*             176587               0-2.500000000E+001.1999996185E+01+
*       -1.215000000E+02               0
GRID*             173780               00.0000000000E+001.1999996185E+01+
*       -1.230000000E+02               0
GRID*             176588               00.0000000000E+001.1999996185E+01+
*       -1.215000000E+02               0
GRID*             172927               0-2.500000000E+001.0499997139E+01+
*       -1.230000000E+02               0
GRID*             176606               0-2.500000000E+001.1425970412E+01+
*       -1.213858170E+02               0
GRID*             176570               0-2.500000000E+001.1999996185E+01+
*       -1.220000000E+02               0
GRID*             176571               0-2.500000000E+001.1999996185E+01+
*       -1.225000000E+02               0
GRID*             176572               0-2.500000000E+001.1999996185E+01+
*       -1.227500000E+02               0
GRID*             176573               0-2.500000000E+001.1999996185E+01+
*       -1.222500000E+02               0
GRID*             176574               0-2.500000000E+001.1999996185E+01+
*       -1.217500000E+02               0
GRID*             172580               0-1.250000000E+001.1999996185E+01+
*       -1.230000000E+02               0
GRID*             176575               0-1.250000000E+001.1999996185E+01+
*       -1.215000000E+02               0
GRID*             172928               00.0000000000E+001.0499997139E+01+
*       -1.230000000E+02               0
GRID*             176607               00.0000000000E+001.1425970412E+01+
*       -1.213858170E+02               0
GRID*             176576               00.0000000000E+001.1999996185E+01+
*       -1.220000000E+02               0
GRID*             176577               00.0000000000E+001.1999996185E+01+
*       -1.225000000E+02               0
GRID*             176578               00.0000000000E+001.1999996185E+01+
*       -1.227500000E+02               0
GRID*             176579               00.0000000000E+001.1999996185E+01+
*       -1.222500000E+02               0
GRID*             176580               00.0000000000E+001.1999996185E+01+
*       -1.217500000E+02               0
GRID*             176591               00.0000000000E+001.0823220571E+01+
*       -1.224267756E+02               0
GRID*             176592               00.0000000000E+001.1146444003E+01+
*       -1.218535512E+02               0
GRID*             176589               0-2.500000000E+001.0823220571E+01+
*       -1.224267756E+02               0
GRID*             176590               0-2.500000000E+001.1146444003E+01+
*       -1.218535512E+02               0
GRID*             176549               0-1.250000000E+001.1999996185E+01+
*       -1.225000000E+02               0
GRID*             176550               0-1.250000000E+001.1999996185E+01+
*       -1.220000000E+02               0
GRID*             174274               0-2.500000000E+008.9443867988E+01+
*       -2.204065125E+02               0
GRID*             174275               0-2.500000000E+008.9294274822E+01+
*       -2.207581938E+02               0
GRID*             174276               0-2.500000000E+008.9187141837E+01+
*       -2.209168954E+02               0
GRID*             174277               0-2.500000000E+008.9380314398E+01+
*       -2.205871354E+02               0
GRID*             174278               0-2.500000000E+008.9483888439E+01+
*       -2.202192636E+02               0
GRID*             174279               0-2.500000000E+009.1000000000E+01+
*       -2.210252787E+02               0
GRID*             174280               0-2.500000000E+009.1000000000E+01+
*       -2.220126394E+02               0
GRID*             174281               0-2.500000000E+009.1000000000E+01+
*       -2.205315984E+02               0
GRID*             174282               0-2.500000000E+009.1000000000E+01+
*       -2.215189590E+02               0
GRID*             174283               0-2.500000000E+009.1000000000E+01+
*       -2.225063197E+02               0
GRID*             174284               00.0000000000E+008.9294274822E+01+
*       -2.207581938E+02               0
GRID*             174285               00.0000000000E+008.9443867988E+01+
*       -2.204065125E+02               0
GRID*             174286               00.0000000000E+008.9187141837E+01+
*       -2.209168954E+02               0
GRID*             174287               00.0000000000E+008.9380314398E+01+
*       -2.205871354E+02               0
GRID*             174288               00.0000000000E+008.9483888439E+01+
*       -2.202192636E+02               0
GRID*             174289               00.0000000000E+009.1000000000E+01+
*       -2.210252787E+02               0
GRID*             174290               00.0000000000E+009.1000000000E+01+
*       -2.220126394E+02               0
GRID*             174291               00.0000000000E+009.1000000000E+01+
*       -2.225063197E+02               0
GRID*             174292               00.0000000000E+009.1000000000E+01+
*       -2.215189590E+02               0
GRID*             174293               00.0000000000E+009.1000000000E+01+
*       -2.205315984E+02               0
GRID*             174256               0-1.250000000E+009.1000000000E+01+
*       -2.220126394E+02               0
GRID*             174257               0-1.250000000E+009.1000000000E+01+
*       -2.210252787E+02               0
GRID*             174258               00.0000000000E+009.0481289479E+01+
*       -2.208190233E+02               0
GRID*             174259               00.0000000000E+009.0431425017E+01+
*       -2.215944909E+02               0
GRID*             174260               00.0000000000E+008.9862850035E+01+
*       -2.211763424E+02               0
GRID*             174261               00.0000000000E+008.9962578959E+01+
*       -2.206127680E+02               0
GRID*             174262               00.0000000000E+008.9912714497E+01+
*       -2.208945552E+02               0
GRID*             174263               00.0000000000E+009.0147137526E+01+
*       -2.213854166E+02               0
GRID*             174264               00.0000000000E+009.0456357248E+01+
*       -2.212067571E+02               0
GRID*             174265               00.0000000000E+009.0221934219E+01+
*       -2.207158957E+02               0
GRID*             174266               00.0000000000E+009.0490600235E+01+
*       -2.204268914E+02               0
GRID*             174267               00.0000000000E+009.0740644740E+01+
*       -2.209221510E+02               0
GRID*             174268               00.0000000000E+009.0715712509E+01+
*       -2.218035651E+02               0
GRID*             174269               00.0000000000E+009.0392489395E+01+
*       -2.219740211E+02               0
GRID*             174270               00.0000000000E+008.9784978789E+01+
*       -2.214417224E+02               0
GRID*             174271               00.0000000000E+008.9578562544E+01+
*       -2.209672682E+02               0
GRID*             174272               00.0000000000E+008.9703223698E+01+
*       -2.205096403E+02               0
GRID*             174273               00.0000000000E+008.9981200470E+01+
*       -2.203221845E+02               0
GRID*             174238               0-2.500000000E+009.0481289479E+01+
*       -2.208190233E+02               0
GRID*             174239               0-2.500000000E+008.9962578959E+01+
*       -2.206127680E+02               0
GRID*             174240               0-2.500000000E+009.0431425017E+01+
*       -2.215944909E+02               0
GRID*             174241               0-2.500000000E+008.9862850035E+01+
*       -2.211763424E+02               0
GRID*             174242               0-2.500000000E+009.0456357248E+01+
*       -2.212067571E+02               0
GRID*             174243               0-2.500000000E+009.0147137526E+01+
*       -2.213854166E+02               0
GRID*             174244               0-2.500000000E+008.9912714497E+01+
*       -2.208945552E+02               0
GRID*             174245               0-2.500000000E+009.0221934219E+01+
*       -2.207158957E+02               0
GRID*             174246               0-2.500000000E+009.0740644740E+01+
*       -2.209221510E+02               0
GRID*             174247               0-2.500000000E+009.0490600235E+01+
*       -2.204268914E+02               0
GRID*             174248               0-2.500000000E+009.0715712509E+01+
*       -2.218035651E+02               0
GRID*             174249               0-2.500000000E+009.0392489395E+01+
*       -2.219740211E+02               0
GRID*             174250               0-2.500000000E+008.9784978789E+01+
*       -2.214417224E+02               0
GRID*             174251               0-2.500000000E+008.9578562544E+01+
*       -2.209672682E+02               0
GRID*             174252               0-2.500000000E+008.9703223698E+01+
*       -2.205096403E+02               0
GRID*             174253               0-2.500000000E+008.9981200470E+01+
*       -2.203221845E+02               0
GRID*             174254               0-1.249999695E+008.9294272138E+01+
*       -2.207581985E+02               0
GRID*             174255               0-1.250000305E+008.9443869084E+01+
*       -2.204065073E+02               0
GRID*             174234               0-1.250000000E+008.9962578959E+01+
*       -2.206127680E+02               0
GRID*             174235               0-1.250000000E+008.9862850035E+01+
*       -2.211763424E+02               0
GRID*             174236               0-1.250000000E+009.0431425017E+01+
*       -2.215944909E+02               0
GRID*             174237               0-1.250000000E+009.0481289479E+01+
*       -2.208190233E+02               0
GRID*             176147               0-2.500000000E+008.9448887239E+01+
*       -1.203882264E+02               0
GRID*             176148               0-2.500000000E+008.9299042315E+01+
*       -1.207499981E+02               0
GRID*             176149               0-2.500000000E+008.9190030434E+01+
*       -1.209131363E+02               0
GRID*             176150               0-2.500000000E+008.9385817875E+01+
*       -1.205740219E+02               0
GRID*             176151               0-2.500000000E+008.9487165050E+01+
*       -1.201957881E+02               0
GRID*             176152               0-2.500000000E+009.1000000000E+01+
*       -1.210000000E+02               0
GRID*             176153               0-2.500000000E+009.1000000000E+01+
*       -1.220000000E+02               0
GRID*             176154               0-2.500000000E+009.1000000000E+01+
*       -1.205000000E+02               0
GRID*             176155               0-2.500000000E+009.1000000000E+01+
*       -1.215000000E+02               0
GRID*             176156               0-2.500000000E+009.1000000000E+01+
*       -1.225000000E+02               0
GRID*             176157               00.0000000000E+008.9299042315E+01+
*       -1.207499981E+02               0
GRID*             176158               00.0000000000E+008.9448887239E+01+
*       -1.203882264E+02               0
GRID*             176159               00.0000000000E+008.9190030434E+01+
*       -1.209131363E+02               0
GRID*             176160               00.0000000000E+008.9385817875E+01+
*       -1.205740219E+02               0
GRID*             176161               00.0000000000E+008.9487165050E+01+
*       -1.201957881E+02               0
GRID*             176162               00.0000000000E+009.1000000000E+01+
*       -1.210000000E+02               0
GRID*             176163               00.0000000000E+009.1000000000E+01+
*       -1.220000000E+02               0
GRID*             176164               00.0000000000E+009.1000000000E+01+
*       -1.205000000E+02               0
GRID*             176165               00.0000000000E+009.1000000000E+01+
*       -1.215000000E+02               0
GRID*             176166               00.0000000000E+009.1000000000E+01+
*       -1.225000000E+02               0
GRID*             176116               0-1.250000000E+009.1000000000E+01+
*       -1.210000000E+02               0
GRID*             176117               0-1.250000000E+009.1000000000E+01+
*       -1.220000000E+02               0
GRID*             176118               00.0000000000E+009.0482962425E+01+
*       -1.207960755E+02               0
GRID*             176119               00.0000000000E+009.0433014223E+01+
*       -1.215833328E+02               0
GRID*             176120               00.0000000000E+008.9866028447E+01+
*       -1.211666655E+02               0
GRID*             176121               00.0000000000E+008.9965924849E+01+
*       -1.205921510E+02               0
GRID*             176122               00.0000000000E+008.9915976648E+01+
*       -1.208794082E+02               0
GRID*             176123               00.0000000000E+009.0149521335E+01+
*       -1.213749992E+02               0
GRID*             176124               00.0000000000E+009.0457988324E+01+
*       -1.211897041E+02               0
GRID*             176125               00.0000000000E+009.0224443637E+01+
*       -1.206941132E+02               0
GRID*             176126               00.0000000000E+009.0491481212E+01+
*       -1.203980377E+02               0
GRID*             176127               00.0000000000E+009.0741481212E+01+
*       -1.208980377E+02               0
GRID*             176128               00.0000000000E+009.0716507112E+01+
*       -1.217916664E+02               0
GRID*             176129               00.0000000000E+009.0393283998E+01+
*       -1.219684420E+02               0
GRID*             176130               00.0000000000E+008.9786567995E+01+
*       -1.214368840E+02               0
GRID*             176131               00.0000000000E+008.9582535558E+01+
*       -1.209583319E+02               0
GRID*             176132               00.0000000000E+008.9707406061E+01+
*       -1.204901887E+02               0
GRID*             176133               00.0000000000E+008.9982962425E+01+
*       -1.202960755E+02               0
GRID*             176098               0-2.500000000E+009.0482962425E+01+
*       -1.207960755E+02               0
GRID*             176099               0-2.500000000E+008.9965924849E+01+
*       -1.205921510E+02               0
GRID*             176100               0-2.500000000E+009.0433014223E+01+
*       -1.215833328E+02               0
GRID*             176101               0-2.500000000E+008.9866028447E+01+
*       -1.211666655E+02               0
GRID*             176102               0-2.500000000E+009.0457988324E+01+
*       -1.211897041E+02               0
GRID*             176103               0-2.500000000E+009.0149521335E+01+
*       -1.213749992E+02               0
GRID*             176104               0-2.500000000E+008.9915976648E+01+
*       -1.208794082E+02               0
GRID*             176105               0-2.500000000E+009.0224443637E+01+
*       -1.206941132E+02               0
GRID*             176106               0-2.500000000E+009.0741481212E+01+
*       -1.208980377E+02               0
GRID*             176107               0-2.500000000E+009.0491481212E+01+
*       -1.203980377E+02               0
GRID*             176108               0-2.500000000E+009.0716507112E+01+
*       -1.217916664E+02               0
GRID*             176109               0-2.500000000E+009.0393283998E+01+
*       -1.219684420E+02               0
GRID*             176110               0-2.500000000E+008.9786567995E+01+
*       -1.214368840E+02               0
GRID*             176111               0-2.500000000E+008.9582535558E+01+
*       -1.209583319E+02               0
GRID*             176112               0-2.500000000E+008.9707406061E+01+
*       -1.204901887E+02               0
GRID*             176113               0-2.500000000E+008.9982962425E+01+
*       -1.202960755E+02               0
GRID*             176114               0-1.249999664E+008.9299039135E+01+
*       -1.207500028E+02               0
GRID*             176115               0-1.250000337E+008.9448888550E+01+
*       -1.203882209E+02               0
GRID*             176094               0-1.250000000E+008.9965924849E+01+
*       -1.205921510E+02               0
GRID*             176095               0-1.250000000E+008.9866028447E+01+
*       -1.211666655E+02               0
GRID*             176096               0-1.250000000E+009.0433014223E+01+
*       -1.215833328E+02               0
GRID*             176097               0-1.250000000E+009.0482962425E+01+
*       -1.207960755E+02               0
GRID*             176088               0-2.500000000E+008.9060661316E+01+
*       -1.189393387E+02               0
GRID*             176089               0-2.500000000E+008.9500000000E+01+
*       -1.200000000E+02               0
GRID*             173781               0-2.500000000E+009.1000000000E+01+
*       -1.170000000E+02               0
GRID*             176090               0-2.500000000E+009.1000000000E+01+
*       -1.200000000E+02               0
GRID*             176091               00.0000000000E+008.9060661316E+01+
*       -1.189393387E+02               0
GRID*             176092               00.0000000000E+008.9500000000E+01+
*       -1.200000000E+02               0
GRID*             176093               00.0000000000E+009.1000000000E+01+
*       -1.200000000E+02               0
GRID*             173782               00.0000000000E+009.1000000000E+01+
*       -1.170000000E+02               0
GRID*             176045               0-2.500000000E+008.9299041060E+01+
*       -1.192499976E+02               0
GRID*             176046               0-2.500000000E+008.9448887127E+01+
*       -1.196117715E+02               0
GRID*             176047               0-2.500000000E+008.9487165233E+01+
*       -1.198042108E+02               0
GRID*             176048               0-2.500000000E+008.9385816650E+01+
*       -1.194259752E+02               0
GRID*             176049               0-2.500000000E+008.9190031113E+01+
*       -1.190868569E+02               0
GRID*             176050               0-2.500000000E+008.9707107544E+01+
*       -1.182928925E+02               0
GRID*             176051               0-2.500000000E+009.0353553772E+01+
*       -1.176464462E+02               0
GRID*             176052               0-2.500000000E+009.0676776886E+01+
*       -1.173232231E+02               0
GRID*             176053               0-2.500000000E+008.9383884430E+01+
*       -1.186161156E+02               0
GRID*             176054               0-2.500000000E+009.0030330658E+01+
*       -1.179696693E+02               0
GRID*             176055               0-2.500000000E+009.0500000000E+01+
*       -1.200000000E+02               0
GRID*             176056               0-2.500000000E+009.0000000000E+01+
*       -1.200000000E+02               0
GRID*             176057               0-2.500000000E+009.0750000000E+01+
*       -1.200000000E+02               0
GRID*             176058               0-2.500000000E+009.0250000000E+01+
*       -1.200000000E+02               0
GRID*             176059               0-2.500000000E+008.9750000000E+01+
*       -1.200000000E+02               0
GRID*             176060               0-2.500000000E+009.1000000000E+01+
*       -1.180000000E+02               0
GRID*             176061               0-2.500000000E+009.1000000000E+01+
*       -1.190000000E+02               0
GRID*             176062               0-2.500000000E+009.1000000000E+01+
*       -1.175000000E+02               0
GRID*             176063               0-2.500000000E+009.1000000000E+01+
*       -1.185000000E+02               0
GRID*             176064               0-2.500000000E+009.1000000000E+01+
*       -1.195000000E+02               0
GRID*             176065               0-1.250000000E+008.9060661316E+01+
*       -1.189393387E+02               0
GRID*             176066               0-1.250000000E+008.9500000000E+01+
*       -1.200000000E+02               0
GRID*             176067               0-1.250000000E+009.1000000000E+01+
*       -1.200000000E+02               0
GRID*             172581               0-1.250000000E+009.1000000000E+01+
*       -1.170000000E+02               0
GRID*             176068               00.0000000000E+008.9448887127E+01+
*       -1.196117715E+02               0
GRID*             176069               00.0000000000E+008.9299041060E+01+
*       -1.192499976E+02               0
GRID*             176070               00.0000000000E+008.9190031113E+01+
*       -1.190868569E+02               0
GRID*             176071               00.0000000000E+008.9385816650E+01+
*       -1.194259752E+02               0
GRID*             176072               00.0000000000E+008.9487165233E+01+
*       -1.198042108E+02               0
GRID*             176073               00.0000000000E+009.0353553772E+01+
*       -1.176464462E+02               0
GRID*             176074               00.0000000000E+008.9707107544E+01+
*       -1.182928925E+02               0
GRID*             176075               00.0000000000E+008.9383884430E+01+
*       -1.186161156E+02               0
GRID*             176076               00.0000000000E+009.0030330658E+01+
*       -1.179696693E+02               0
GRID*             176077               00.0000000000E+009.0676776886E+01+
*       -1.173232231E+02               0
GRID*             176078               00.0000000000E+009.0500000000E+01+
*       -1.200000000E+02               0
GRID*             176079               00.0000000000E+009.0000000000E+01+
*       -1.200000000E+02               0
GRID*             176080               00.0000000000E+008.9750000000E+01+
*       -1.200000000E+02               0
GRID*             176081               00.0000000000E+009.0250000000E+01+
*       -1.200000000E+02               0
GRID*             176082               00.0000000000E+009.0750000000E+01+
*       -1.200000000E+02               0
GRID*             176083               00.0000000000E+009.1000000000E+01+
*       -1.180000000E+02               0
GRID*             176084               00.0000000000E+009.1000000000E+01+
*       -1.190000000E+02               0
GRID*             176085               00.0000000000E+009.1000000000E+01+
*       -1.195000000E+02               0
GRID*             176086               00.0000000000E+009.1000000000E+01+
*       -1.185000000E+02               0
GRID*             176087               00.0000000000E+009.1000000000E+01+
*       -1.175000000E+02               0
GRID*             176023               0-1.250000001E+008.9707107544E+01+
*       -1.182928925E+02               0
GRID*             176024               0-1.249999999E+009.0353553772E+01+
*       -1.176464462E+02               0
GRID*             176027               0-1.250000000E+009.1000000000E+01+
*       -1.190000000E+02               0
GRID*             176028               0-1.250000000E+009.1000000000E+01+
*       -1.180000000E+02               0
GRID*             176029               00.0000000000E+009.0433013861E+01+
*       -1.184166658E+02               0
GRID*             176030               00.0000000000E+009.0482962405E+01+
*       -1.192039238E+02               0
GRID*             176031               00.0000000000E+008.9965924809E+01+
*       -1.194078476E+02               0
GRID*             176032               00.0000000000E+008.9866027721E+01+
*       -1.188333316E+02               0
GRID*             176033               00.0000000000E+008.9915976265E+01+
*       -1.191205896E+02               0
GRID*             176034               00.0000000000E+009.0224443607E+01+
*       -1.193058857E+02               0
GRID*             176035               00.0000000000E+009.0457988133E+01+
*       -1.188102948E+02               0
GRID*             176036               00.0000000000E+009.0149520791E+01+
*       -1.186249987E+02               0
GRID*             176037               00.0000000000E+009.0393283816E+01+
*       -1.180315560E+02               0
GRID*             176038               00.0000000000E+009.0716506930E+01+
*       -1.182083329E+02               0
GRID*             176039               00.0000000000E+009.0741481202E+01+
*       -1.191019619E+02               0
GRID*             176040               00.0000000000E+009.0491481202E+01+
*       -1.196019619E+02               0
GRID*             176041               00.0000000000E+008.9982962405E+01+
*       -1.197039238E+02               0
GRID*             176042               00.0000000000E+008.9707406011E+01+
*       -1.195098095E+02               0
GRID*             176043               00.0000000000E+008.9582534651E+01+
*       -1.190416645E+02               0
GRID*             176044               00.0000000000E+008.9786567633E+01+
*       -1.185631120E+02               0
GRID*             176005               0-2.500000000E+009.0433013861E+01+
*       -1.184166658E+02               0
GRID*             176006               0-2.500000000E+008.9866027721E+01+
*       -1.188333316E+02               0
GRID*             176007               0-2.500000000E+009.0482962405E+01+
*       -1.192039238E+02               0
GRID*             176008               0-2.500000000E+008.9965924809E+01+
*       -1.194078476E+02               0
GRID*             176009               0-2.500000000E+009.0457988133E+01+
*       -1.188102948E+02               0
GRID*             176010               0-2.500000000E+009.0224443607E+01+
*       -1.193058857E+02               0
GRID*             176011               0-2.500000000E+008.9915976265E+01+
*       -1.191205896E+02               0
GRID*             176012               0-2.500000000E+009.0149520791E+01+
*       -1.186249987E+02               0
GRID*             176013               0-2.500000000E+009.0716506930E+01+
*       -1.182083329E+02               0
GRID*             176014               0-2.500000000E+009.0393283816E+01+
*       -1.180315560E+02               0
GRID*             176015               0-2.500000000E+009.0741481202E+01+
*       -1.191019619E+02               0
GRID*             176016               0-2.500000000E+009.0491481202E+01+
*       -1.196019619E+02               0
GRID*             176017               0-2.500000000E+008.9982962405E+01+
*       -1.197039238E+02               0
GRID*             176018               0-2.500000000E+008.9707406011E+01+
*       -1.195098095E+02               0
GRID*             176019               0-2.500000000E+008.9582534651E+01+
*       -1.190416645E+02               0
GRID*             176020               0-2.500000000E+008.9786567633E+01+
*       -1.185631120E+02               0
GRID*             176021               0-1.250000336E+008.9299038142E+01+
*       -1.192499927E+02               0
GRID*             176022               0-1.249999663E+008.9448888627E+01+
*       -1.196117770E+02               0
GRID*             176025               0-1.250000000E+009.0000000000E+01+
*       -1.200000000E+02               0
GRID*             176026               0-1.250000000E+009.0500000000E+01+
*       -1.200000000E+02               0
GRID*             176001               0-1.250000000E+008.9866027721E+01+
*       -1.188333316E+02               0
GRID*             176002               0-1.250000000E+008.9965924809E+01+
*       -1.194078476E+02               0
GRID*             176003               0-1.250000000E+009.0482962405E+01+
*       -1.192039238E+02               0
GRID*             176004               0-1.250000000E+009.0433013861E+01+
*       -1.184166658E+02               0
GRID*             174232               0-2.500000000E+008.9060661316E+01+
*       -2.210606537E+02               0
GRID*             173784               0-2.500000000E+009.1000000000E+01+
*       -2.230000000E+02               0
GRID*             174233               00.0000000000E+008.9060661316E+01+
*       -2.210606537E+02               0
GRID*             173783               00.0000000000E+009.1000000000E+01+
*       -2.230000000E+02               0
GRID*             174226               0-2.500000000E+008.8574028162E+01+
*       -2.213858184E+02               0
GRID*             174227               0-2.500000000E+008.8292636247E+01+
*       -2.214711755E+02               0
GRID*             174228               0-2.500000000E+008.8833361096E+01+
*       -2.212472061E+02               0
GRID*             172783               0-2.500000000E+008.9500000000E+01+
*       -2.230000000E+02               0
GRID*             172784               0-2.500000000E+009.0250000000E+01+
*       -2.230000000E+02               0
GRID*             172785               0-2.500000000E+008.8750000000E+01+
*       -2.230000000E+02               0
GRID*             174215               0-2.500000000E+009.0353553772E+01+
*       -2.223535512E+02               0
GRID*             174216               0-2.500000000E+008.9707107544E+01+
*       -2.217071025E+02               0
GRID*             174217               0-2.500000000E+009.0676776886E+01+
*       -2.226767756E+02               0
GRID*             174218               0-2.500000000E+008.9383884430E+01+
*       -2.213838781E+02               0
GRID*             174219               0-2.500000000E+009.0030330658E+01+
*       -2.220303268E+02               0
GRID*             174220               0-1.250000000E+008.9060661316E+01+
*       -2.210606537E+02               0
GRID*             172582               0-1.250000000E+009.1000000000E+01+
*       -2.230000000E+02               0
GRID*             174229               00.0000000000E+008.8574028162E+01+
*       -2.213858184E+02               0
GRID*             174230               00.0000000000E+008.8292636247E+01+
*       -2.214711755E+02               0
GRID*             174231               00.0000000000E+008.8833361096E+01+
*       -2.212472061E+02               0
GRID*             172786               00.0000000000E+008.9500000000E+01+
*       -2.230000000E+02               0
GRID*             172787               00.0000000000E+009.0250000000E+01+
*       -2.230000000E+02               0
GRID*             172788               00.0000000000E+008.8750000000E+01+
*       -2.230000000E+02               0
GRID*             174221               00.0000000000E+008.9707107544E+01+
*       -2.217071025E+02               0
GRID*             174222               00.0000000000E+009.0353553772E+01+
*       -2.223535512E+02               0
GRID*             174223               00.0000000000E+009.0676776886E+01+
*       -2.226767756E+02               0
GRID*             174224               00.0000000000E+009.0030330658E+01+
*       -2.220303268E+02               0
GRID*             174225               00.0000000000E+008.9383884430E+01+
*       -2.213838781E+02               0
GRID*             174204               0-1.250000001E+009.0353553658E+01+
*       -2.223535513E+02               0
GRID*             174205               0-1.249999999E+008.9707107658E+01+
*       -2.217071023E+02               0
GRID*             153326               0-1.250000000E+008.9500000000E+01+
*       -2.230000000E+02               0
GRID*             174206               00.0000000000E+008.9191342721E+01+
*       -2.224619395E+02               0
GRID*             174207               00.0000000000E+008.8882685442E+01+
*       -2.219238789E+02               0
GRID*             174208               00.0000000000E+008.9772448246E+01+
*       -2.224077454E+02               0
GRID*             174209               00.0000000000E+008.9345671360E+01+
*       -2.227309697E+02               0
GRID*             174210               00.0000000000E+008.8595671360E+01+
*       -2.224809697E+02               0
GRID*             174211               00.0000000000E+008.8441342721E+01+
*       -2.219619395E+02               0
GRID*             174212               00.0000000000E+008.9037014081E+01+
*       -2.221929092E+02               0
GRID*             174213               00.0000000000E+008.8728356802E+01+
*       -2.216548487E+02               0
GRID*             174214               00.0000000000E+008.9294896493E+01+
*       -2.218154907E+02               0
GRID*             174194               0-2.500000000E+008.9191342721E+01+
*       -2.224619395E+02               0
GRID*             174195               0-2.500000000E+008.8882685442E+01+
*       -2.219238789E+02               0
GRID*             174196               0-2.500000000E+008.9345671360E+01+
*       -2.227309697E+02               0
GRID*             174197               0-2.500000000E+008.9772448246E+01+
*       -2.224077454E+02               0
GRID*             174198               0-2.500000000E+008.8595671360E+01+
*       -2.224809697E+02               0
GRID*             174199               0-2.500000000E+008.8441342721E+01+
*       -2.219619395E+02               0
GRID*             174200               0-2.500000000E+008.9037014081E+01+
*       -2.221929092E+02               0
GRID*             174201               0-2.500000000E+008.8728356802E+01+
*       -2.216548487E+02               0
GRID*             174202               0-2.500000000E+008.9294896493E+01+
*       -2.218154907E+02               0
GRID*             174203               0-1.250000000E+008.8574028162E+01+
*       -2.213858184E+02               0
GRID*             174192               0-1.250000000E+008.9191342721E+01+
*       -2.224619395E+02               0
GRID*             174193               0-1.250000000E+008.8882685442E+01+
*       -2.219238789E+02               0
GRID*             173785               0-2.500000000E+008.8000000000E+01+
*       -2.170000000E+02               0
GRID*             174022               0-2.500000000E+008.8000000000E+01+
*       -2.185000000E+02               0
GRID*             174023               00.0000000000E+008.8000000000E+01+
*       -2.185000000E+02               0
GRID*             173786               00.0000000000E+008.8000000000E+01+
*       -2.170000000E+02               0
GRID*             174005               0-2.500000000E+008.8000000000E+01+
*       -2.175000000E+02               0
GRID*             174006               0-2.500000000E+008.8000000000E+01+
*       -2.180000000E+02               0
GRID*             174007               0-2.500000000E+008.8000000000E+01+
*       -2.172500000E+02               0
GRID*             174008               0-2.500000000E+008.8000000000E+01+
*       -2.182500000E+02               0
GRID*             174009               0-2.500000000E+008.8000000000E+01+
*       -2.177500000E+02               0
GRID*             174016               0-2.500000000E+008.8574028162E+01+
*       -2.186141816E+02               0
GRID*             174017               0-2.500000000E+008.8833361096E+01+
*       -2.187527939E+02               0
GRID*             174018               0-2.500000000E+008.8292636247E+01+
*       -2.185288245E+02               0
GRID*             172759               0-2.500000000E+008.9500000000E+01+
*       -2.170000000E+02               0
GRID*             172760               0-2.500000000E+008.8750000000E+01+
*       -2.170000000E+02               0
GRID*             172761               0-2.500000000E+009.0250000000E+01+
*       -2.170000000E+02               0
GRID*             174010               0-1.250000000E+008.8000000000E+01+
*       -2.185000000E+02               0
GRID*             172583               0-1.250000000E+008.8000000000E+01+
*       -2.170000000E+02               0
GRID*             174011               00.0000000000E+008.8000000000E+01+
*       -2.175000000E+02               0
GRID*             174012               00.0000000000E+008.8000000000E+01+
*       -2.180000000E+02               0
GRID*             174013               00.0000000000E+008.8000000000E+01+
*       -2.172500000E+02               0
GRID*             174014               00.0000000000E+008.8000000000E+01+
*       -2.177500000E+02               0
GRID*             174015               00.0000000000E+008.8000000000E+01+
*       -2.182500000E+02               0
GRID*             174019               00.0000000000E+008.8574028162E+01+
*       -2.186141816E+02               0
GRID*             174020               00.0000000000E+008.8292636247E+01+
*       -2.185288245E+02               0
GRID*             174021               00.0000000000E+008.8833361096E+01+
*       -2.187527939E+02               0
GRID*             172762               00.0000000000E+008.9500000000E+01+
*       -2.170000000E+02               0
GRID*             172763               00.0000000000E+008.8750000000E+01+
*       -2.170000000E+02               0
GRID*             172764               00.0000000000E+009.0250000000E+01+
*       -2.170000000E+02               0
GRID*             153327               0-1.250000000E+008.9500000000E+01+
*       -2.170000000E+02               0
GRID*             173996               00.0000000000E+008.9191342721E+01+
*       -2.175380605E+02               0
GRID*             173997               00.0000000000E+008.8882685442E+01+
*       -2.180761211E+02               0
GRID*             173998               00.0000000000E+008.8595671360E+01+
*       -2.175190303E+02               0
GRID*             173999               00.0000000000E+008.9345671360E+01+
*       -2.172690303E+02               0
GRID*             174000               00.0000000000E+008.9772448246E+01+
*       -2.175922546E+02               0
GRID*             174001               00.0000000000E+008.9294896493E+01+
*       -2.181845093E+02               0
GRID*             174002               00.0000000000E+008.9037014081E+01+
*       -2.178070908E+02               0
GRID*             174003               00.0000000000E+008.8728356802E+01+
*       -2.183451513E+02               0
GRID*             174004               00.0000000000E+008.8441342721E+01+
*       -2.180380605E+02               0
GRID*             173984               0-2.500000000E+008.9191342721E+01+
*       -2.175380605E+02               0
GRID*             173985               0-2.500000000E+008.8882685442E+01+
*       -2.180761211E+02               0
GRID*             173986               0-2.500000000E+008.9345671360E+01+
*       -2.172690303E+02               0
GRID*             173987               0-2.500000000E+008.8595671360E+01+
*       -2.175190303E+02               0
GRID*             173988               0-2.500000000E+008.9772448246E+01+
*       -2.175922546E+02               0
GRID*             173989               0-2.500000000E+008.9294896493E+01+
*       -2.181845093E+02               0
GRID*             173990               0-2.500000000E+008.9037014081E+01+
*       -2.178070908E+02               0
GRID*             173991               0-2.500000000E+008.8728356802E+01+
*       -2.183451513E+02               0
GRID*             173992               0-2.500000000E+008.8441342721E+01+
*       -2.180380605E+02               0
GRID*             173995               0-1.250000000E+008.8574028162E+01+
*       -2.186141816E+02               0
GRID*             173993               0-1.250000000E+008.8000000000E+01+
*       -2.175000000E+02               0
GRID*             173994               0-1.250000000E+008.8000000000E+01+
*       -2.180000000E+02               0
GRID*             173982               0-1.250000000E+008.9191342721E+01+
*       -2.175380605E+02               0
GRID*             173983               0-1.250000000E+008.8882685442E+01+
*       -2.180761211E+02               0
GRID*             176209               0-2.500000000E+008.8000000000E+01+
*       -1.215000000E+02               0
GRID*             173788               0-2.500000000E+008.8000000000E+01+
*       -1.230000000E+02               0
GRID*             176167               0-2.500000000E+008.9060661316E+01+
*       -1.210606537E+02               0
GRID*             173787               0-2.500000000E+009.1000000000E+01+
*       -1.230000000E+02               0
GRID*             173789               00.0000000000E+008.8000000000E+01+
*       -1.230000000E+02               0
GRID*             176210               00.0000000000E+008.8000000000E+01+
*       -1.215000000E+02               0
GRID*             176168               00.0000000000E+008.9060661316E+01+
*       -1.210606537E+02               0
GRID*             173790               00.0000000000E+009.1000000000E+01+
*       -1.230000000E+02               0
GRID*             176192               0-2.500000000E+008.8000000000E+01+
*       -1.220000000E+02               0
GRID*             176193               0-2.500000000E+008.8000000000E+01+
*       -1.225000000E+02               0
GRID*             176194               0-2.500000000E+008.8000000000E+01+
*       -1.227500000E+02               0
GRID*             176195               0-2.500000000E+008.8000000000E+01+
*       -1.222500000E+02               0
GRID*             176196               0-2.500000000E+008.8000000000E+01+
*       -1.217500000E+02               0
GRID*             176197               0-2.500000000E+008.8574028202E+01+
*       -1.213858184E+02               0
GRID*             176198               0-2.500000000E+008.8292636633E+01+
*       -1.214711754E+02               0
GRID*             176199               0-2.500000000E+008.8833361388E+01+
*       -1.212472059E+02               0
GRID*             172584               0-2.500000000E+008.9500000000E+01+
*       -1.230000000E+02               0
GRID*             172585               0-2.500000000E+009.0250000000E+01+
*       -1.230000000E+02               0
GRID*             172586               0-2.500000000E+008.8750000000E+01+
*       -1.230000000E+02               0
GRID*             176136               0-2.500000000E+009.0353553772E+01+
*       -1.223535512E+02               0
GRID*             176137               0-2.500000000E+008.9707107544E+01+
*       -1.217071025E+02               0
GRID*             176138               0-2.500000000E+009.0676776886E+01+
*       -1.226767756E+02               0
GRID*             176139               0-2.500000000E+009.0030330658E+01+
*       -1.220303268E+02               0
GRID*             176140               0-2.500000000E+008.9383884430E+01+
*       -1.213838781E+02               0
GRID*             172587               0-1.250000000E+008.8000000000E+01+
*       -1.230000000E+02               0
GRID*             176200               0-1.250000000E+008.8000000000E+01+
*       -1.215000000E+02               0
GRID*             176141               0-1.250000000E+008.9060661316E+01+
*       -1.210606537E+02               0
GRID*             172588               0-1.250000000E+009.1000000000E+01+
*       -1.230000000E+02               0
GRID*             176201               00.0000000000E+008.8000000000E+01+
*       -1.225000000E+02               0
GRID*             176202               00.0000000000E+008.8000000000E+01+
*       -1.220000000E+02               0
GRID*             176203               00.0000000000E+008.8000000000E+01+
*       -1.227500000E+02               0
GRID*             176204               00.0000000000E+008.8000000000E+01+
*       -1.222500000E+02               0
GRID*             176205               00.0000000000E+008.8000000000E+01+
*       -1.217500000E+02               0
GRID*             176206               00.0000000000E+008.8574028202E+01+
*       -1.213858184E+02               0
GRID*             176207               00.0000000000E+008.8292636633E+01+
*       -1.214711754E+02               0
GRID*             176208               00.0000000000E+008.8833361388E+01+
*       -1.212472059E+02               0
GRID*             172589               00.0000000000E+008.9500000000E+01+
*       -1.230000000E+02               0
GRID*             172590               00.0000000000E+009.0250000000E+01+
*       -1.230000000E+02               0
GRID*             172591               00.0000000000E+008.8750000000E+01+
*       -1.230000000E+02               0
GRID*             176142               00.0000000000E+009.0353553772E+01+
*       -1.223535512E+02               0
GRID*             176143               00.0000000000E+008.9707107544E+01+
*       -1.217071025E+02               0
GRID*             176144               00.0000000000E+009.0676776886E+01+
*       -1.226767756E+02               0
GRID*             176145               00.0000000000E+009.0030330658E+01+
*       -1.220303268E+02               0
GRID*             176146               00.0000000000E+008.9383884430E+01+
*       -1.213838781E+02               0
GRID*             176134               0-1.250000001E+008.9707107658E+01+
*       -1.217071023E+02               0
GRID*             176135               0-1.249999999E+009.0353553658E+01+
*       -1.223535513E+02               0
GRID*             153328               0-1.250000000E+008.9500000000E+01+
*       -1.230000000E+02               0
GRID*             176183               00.0000000000E+008.9191342734E+01+
*       -1.224619395E+02               0
GRID*             176184               00.0000000000E+008.8882685468E+01+
*       -1.219238789E+02               0
GRID*             176185               00.0000000000E+008.9772448253E+01+
*       -1.224077453E+02               0
GRID*             176186               00.0000000000E+008.9345671367E+01+
*       -1.227309697E+02               0
GRID*             176187               00.0000000000E+008.8595671367E+01+
*       -1.224809697E+02               0
GRID*             176188               00.0000000000E+008.8441342734E+01+
*       -1.219619395E+02               0
GRID*             176189               00.0000000000E+008.9037014101E+01+
*       -1.221929092E+02               0
GRID*             176190               00.0000000000E+008.8728356835E+01+
*       -1.216548487E+02               0
GRID*             176191               00.0000000000E+008.9294896506E+01+
*       -1.218154907E+02               0
GRID*             176171               0-2.500000000E+008.9191342734E+01+
*       -1.224619395E+02               0
GRID*             176172               0-2.500000000E+008.8882685468E+01+
*       -1.219238789E+02               0
GRID*             176173               0-2.500000000E+008.9345671367E+01+
*       -1.227309697E+02               0
GRID*             176174               0-2.500000000E+008.9772448253E+01+
*       -1.224077453E+02               0
GRID*             176175               0-2.500000000E+008.8595671367E+01+
*       -1.224809697E+02               0
GRID*             176176               0-2.500000000E+008.8441342734E+01+
*       -1.219619395E+02               0
GRID*             176177               0-2.500000000E+008.9037014101E+01+
*       -1.221929092E+02               0
GRID*             176178               0-2.500000000E+008.8728356835E+01+
*       -1.216548487E+02               0
GRID*             176179               0-2.500000000E+008.9294896506E+01+
*       -1.218154907E+02               0
GRID*             176182               0-1.250000000E+008.8574028202E+01+
*       -1.213858184E+02               0
GRID*             176180               0-1.250000000E+008.8000000000E+01+
*       -1.225000000E+02               0
GRID*             176181               0-1.250000000E+008.8000000000E+01+
*       -1.220000000E+02               0
GRID*             176169               0-1.250000000E+008.9191342734E+01+
*       -1.224619395E+02               0
GRID*             176170               0-1.250000000E+008.8882685468E+01+
*       -1.219238789E+02               0
GRID*             174148               0-2.500000000E+008.6939338684E+01+
*       -2.210606537E+02               0
GRID*             173791               0-2.500000000E+008.5000000000E+01+
*       -2.230000000E+02               0
GRID*             173792               0-2.500000000E+008.8000000000E+01+
*       -2.230000000E+02               0
GRID*             174190               0-2.500000000E+008.8000000000E+01+
*       -2.215000000E+02               0
GRID*             173793               00.0000000000E+008.5000000000E+01+
*       -2.230000000E+02               0
GRID*             174149               00.0000000000E+008.6939338684E+01+
*       -2.210606537E+02               0
GRID*             173794               00.0000000000E+008.8000000000E+01+
*       -2.230000000E+02               0
GRID*             174191               00.0000000000E+008.8000000000E+01+
*       -2.215000000E+02               0
GRID*             174131               0-2.500000000E+008.6292892456E+01+
*       -2.217071025E+02               0
GRID*             174132               0-2.500000000E+008.5646446228E+01+
*       -2.223535512E+02               0
GRID*             174133               0-2.500000000E+008.5323223114E+01+
*       -2.226767756E+02               0
GRID*             174134               0-2.500000000E+008.5969669342E+01+
*       -2.220303268E+02               0
GRID*             174135               0-2.500000000E+008.6616115570E+01+
*       -2.213838781E+02               0
GRID*             172592               0-2.500000000E+008.6500000000E+01+
*       -2.230000000E+02               0
GRID*             172593               0-2.500000000E+008.7250000000E+01+
*       -2.230000000E+02               0
GRID*             172594               0-2.500000000E+008.5750000000E+01+
*       -2.230000000E+02               0
GRID*             174173               0-2.500000000E+008.7425971838E+01+
*       -2.213858184E+02               0
GRID*             174174               0-2.500000000E+008.7166638904E+01+
*       -2.212472061E+02               0
GRID*             174175               0-2.500000000E+008.7707363753E+01+
*       -2.214711755E+02               0
GRID*             174176               0-2.500000000E+008.8000000000E+01+
*       -2.225000000E+02               0
GRID*             174177               0-2.500000000E+008.8000000000E+01+
*       -2.220000000E+02               0
GRID*             174178               0-2.500000000E+008.8000000000E+01+
*       -2.227500000E+02               0
GRID*             174179               0-2.500000000E+008.8000000000E+01+
*       -2.217500000E+02               0
GRID*             174180               0-2.500000000E+008.8000000000E+01+
*       -2.222500000E+02               0
GRID*             172595               0-1.250000000E+008.5000000000E+01+
*       -2.230000000E+02               0
GRID*             174136               0-1.250000000E+008.6939338684E+01+
*       -2.210606537E+02               0
GRID*             172596               0-1.250000000E+008.8000000000E+01+
*       -2.230000000E+02               0
GRID*             174181               0-1.250000000E+008.8000000000E+01+
*       -2.215000000E+02               0
GRID*             174137               00.0000000000E+008.5646446228E+01+
*       -2.223535512E+02               0
GRID*             174138               00.0000000000E+008.6292892456E+01+
*       -2.217071025E+02               0
GRID*             174139               00.0000000000E+008.5323223114E+01+
*       -2.226767756E+02               0
GRID*             174140               00.0000000000E+008.5969669342E+01+
*       -2.220303268E+02               0
GRID*             174141               00.0000000000E+008.6616115570E+01+
*       -2.213838781E+02               0
GRID*             172597               00.0000000000E+008.6500000000E+01+
*       -2.230000000E+02               0
GRID*             172598               00.0000000000E+008.7250000000E+01+
*       -2.230000000E+02               0
GRID*             172599               00.0000000000E+008.5750000000E+01+
*       -2.230000000E+02               0
GRID*             174182               00.0000000000E+008.7425971838E+01+
*       -2.213858184E+02               0
GRID*             174183               00.0000000000E+008.7166638904E+01+
*       -2.212472061E+02               0
GRID*             174184               00.0000000000E+008.7707363753E+01+
*       -2.214711755E+02               0
GRID*             174185               00.0000000000E+008.8000000000E+01+
*       -2.225000000E+02               0
GRID*             174186               00.0000000000E+008.8000000000E+01+
*       -2.220000000E+02               0
GRID*             174187               00.0000000000E+008.8000000000E+01+
*       -2.227500000E+02               0
GRID*             174188               00.0000000000E+008.8000000000E+01+
*       -2.222500000E+02               0
GRID*             174189               00.0000000000E+008.8000000000E+01+
*       -2.217500000E+02               0
GRID*             174110               0-1.250000001E+008.5646446342E+01+
*       -2.223535513E+02               0
GRID*             174111               0-1.249999999E+008.6292892342E+01+
*       -2.217071023E+02               0
GRID*             153329               0-1.250000000E+008.6500000000E+01+
*       -2.230000000E+02               0
GRID*             174164               00.0000000000E+008.6808657279E+01+
*       -2.224619395E+02               0
GRID*             174165               00.0000000000E+008.7117314558E+01+
*       -2.219238789E+02               0
GRID*             174166               00.0000000000E+008.7404328640E+01+
*       -2.224809697E+02               0
GRID*             174167               00.0000000000E+008.6654328640E+01+
*       -2.227309697E+02               0
GRID*             174168               00.0000000000E+008.6227551754E+01+
*       -2.224077454E+02               0
GRID*             174169               00.0000000000E+008.6705103507E+01+
*       -2.218154907E+02               0
GRID*             174170               00.0000000000E+008.6962985919E+01+
*       -2.221929092E+02               0
GRID*             174171               00.0000000000E+008.7271643198E+01+
*       -2.216548487E+02               0
GRID*             174172               00.0000000000E+008.7558657279E+01+
*       -2.219619395E+02               0
GRID*             174152               0-2.500000000E+008.6808657279E+01+
*       -2.224619395E+02               0
GRID*             174153               0-2.500000000E+008.7117314558E+01+
*       -2.219238789E+02               0
GRID*             174154               0-2.500000000E+008.6654328640E+01+
*       -2.227309697E+02               0
GRID*             174155               0-2.500000000E+008.7404328640E+01+
*       -2.224809697E+02               0
GRID*             174156               0-2.500000000E+008.6227551754E+01+
*       -2.224077454E+02               0
GRID*             174157               0-2.500000000E+008.6705103507E+01+
*       -2.218154907E+02               0
GRID*             174158               0-2.500000000E+008.6962985919E+01+
*       -2.221929092E+02               0
GRID*             174159               0-2.500000000E+008.7271643198E+01+
*       -2.216548487E+02               0
GRID*             174160               0-2.500000000E+008.7558657279E+01+
*       -2.219619395E+02               0
GRID*             174161               0-1.250000000E+008.7425971838E+01+
*       -2.213858184E+02               0
GRID*             174162               0-1.250000000E+008.8000000000E+01+
*       -2.225000000E+02               0
GRID*             174163               0-1.250000000E+008.8000000000E+01+
*       -2.220000000E+02               0
GRID*             174150               0-1.250000000E+008.6808657279E+01+
*       -2.224619395E+02               0
GRID*             174151               0-1.250000000E+008.7117314558E+01+
*       -2.219238789E+02               0
GRID*             172789               0-2.500000000E+008.6500000000E+01+
*       -2.170000000E+02               0
GRID*             172790               0-2.500000000E+008.7250000000E+01+
*       -2.170000000E+02               0
GRID*             172791               0-2.500000000E+008.5750000000E+01+
*       -2.170000000E+02               0
GRID*             174058               0-2.500000000E+008.7425971838E+01+
*       -2.186141816E+02               0
GRID*             174059               0-2.500000000E+008.7707363753E+01+
*       -2.185288245E+02               0
GRID*             174060               0-2.500000000E+008.7166638904E+01+
*       -2.187527939E+02               0
GRID*             172792               00.0000000000E+008.6500000000E+01+
*       -2.170000000E+02               0
GRID*             172793               00.0000000000E+008.7250000000E+01+
*       -2.170000000E+02               0
GRID*             172794               00.0000000000E+008.5750000000E+01+
*       -2.170000000E+02               0
GRID*             174061               00.0000000000E+008.7425971838E+01+
*       -2.186141816E+02               0
GRID*             174062               00.0000000000E+008.7166638904E+01+
*       -2.187527939E+02               0
GRID*             174063               00.0000000000E+008.7707363753E+01+
*       -2.185288245E+02               0
GRID*             153330               0-1.250000000E+008.6500000000E+01+
*       -2.170000000E+02               0
GRID*             174036               00.0000000000E+008.6808657279E+01+
*       -2.175380605E+02               0
GRID*             174037               00.0000000000E+008.7117314558E+01+
*       -2.180761211E+02               0
GRID*             174038               00.0000000000E+008.6227551754E+01+
*       -2.175922546E+02               0
GRID*             174039               00.0000000000E+008.6654328640E+01+
*       -2.172690303E+02               0
GRID*             174040               00.0000000000E+008.7404328640E+01+
*       -2.175190303E+02               0
GRID*             174041               00.0000000000E+008.7558657279E+01+
*       -2.180380605E+02               0
GRID*             174042               00.0000000000E+008.6962985919E+01+
*       -2.178070908E+02               0
GRID*             174043               00.0000000000E+008.7271643198E+01+
*       -2.183451513E+02               0
GRID*             174044               00.0000000000E+008.6705103507E+01+
*       -2.181845093E+02               0
GRID*             174026               0-2.500000000E+008.6808657279E+01+
*       -2.175380605E+02               0
GRID*             174027               0-2.500000000E+008.7117314558E+01+
*       -2.180761211E+02               0
GRID*             174028               0-2.500000000E+008.6654328640E+01+
*       -2.172690303E+02               0
GRID*             174029               0-2.500000000E+008.6227551754E+01+
*       -2.175922546E+02               0
GRID*             174030               0-2.500000000E+008.7404328640E+01+
*       -2.175190303E+02               0
GRID*             174031               0-2.500000000E+008.7558657279E+01+
*       -2.180380605E+02               0
GRID*             174032               0-2.500000000E+008.6962985919E+01+
*       -2.178070908E+02               0
GRID*             174033               0-2.500000000E+008.7271643198E+01+
*       -2.183451513E+02               0
GRID*             174034               0-2.500000000E+008.6705103507E+01+
*       -2.181845093E+02               0
GRID*             174035               0-1.250000000E+008.7425971838E+01+
*       -2.186141816E+02               0
GRID*             174024               0-1.250000000E+008.6808657279E+01+
*       -2.175380605E+02               0
GRID*             174025               0-1.250000000E+008.7117314558E+01+
*       -2.180761211E+02               0
GRID*             173795               0-2.500000000E+008.5000000000E+01+
*       -1.230000000E+02               0
GRID*             176251               0-2.500000000E+008.6939338684E+01+
*       -1.210606537E+02               0
GRID*             173796               00.0000000000E+008.5000000000E+01+
*       -1.230000000E+02               0
GRID*             176252               00.0000000000E+008.6939338684E+01+
*       -1.210606537E+02               0
GRID*             176234               0-2.500000000E+008.5646446228E+01+
*       -1.223535512E+02               0
GRID*             176235               0-2.500000000E+008.6292892456E+01+
*       -1.217071025E+02               0
GRID*             176236               0-2.500000000E+008.5323223114E+01+
*       -1.226767756E+02               0
GRID*             176237               0-2.500000000E+008.5969669342E+01+
*       -1.220303268E+02               0
GRID*             176238               0-2.500000000E+008.6616115570E+01+
*       -1.213838781E+02               0
GRID*             172795               0-2.500000000E+008.6500000000E+01+
*       -1.230000000E+02               0
GRID*             172796               0-2.500000000E+008.5750000000E+01+
*       -1.230000000E+02               0
GRID*             172797               0-2.500000000E+008.7250000000E+01+
*       -1.230000000E+02               0
GRID*             176245               0-2.500000000E+008.7425971798E+01+
*       -1.213858184E+02               0
GRID*             176246               0-2.500000000E+008.7166638612E+01+
*       -1.212472059E+02               0
GRID*             176247               0-2.500000000E+008.7707363367E+01+
*       -1.214711754E+02               0
GRID*             172600               0-1.250000000E+008.5000000000E+01+
*       -1.230000000E+02               0
GRID*             176239               0-1.250000000E+008.6939338684E+01+
*       -1.210606537E+02               0
GRID*             176240               00.0000000000E+008.6292892456E+01+
*       -1.217071025E+02               0
GRID*             176241               00.0000000000E+008.5646446228E+01+
*       -1.223535512E+02               0
GRID*             176242               00.0000000000E+008.6616115570E+01+
*       -1.213838781E+02               0
GRID*             176243               00.0000000000E+008.5969669342E+01+
*       -1.220303268E+02               0
GRID*             176244               00.0000000000E+008.5323223114E+01+
*       -1.226767756E+02               0
GRID*             172798               00.0000000000E+008.6500000000E+01+
*       -1.230000000E+02               0
GRID*             172799               00.0000000000E+008.5750000000E+01+
*       -1.230000000E+02               0
GRID*             172800               00.0000000000E+008.7250000000E+01+
*       -1.230000000E+02               0
GRID*             176248               00.0000000000E+008.7425971798E+01+
*       -1.213858184E+02               0
GRID*             176249               00.0000000000E+008.7707363367E+01+
*       -1.214711754E+02               0
GRID*             176250               00.0000000000E+008.7166638612E+01+
*       -1.212472059E+02               0
GRID*             176222               0-1.249999999E+008.6292892342E+01+
*       -1.217071023E+02               0
GRID*             176223               0-1.250000001E+008.5646446342E+01+
*       -1.223535513E+02               0
GRID*             153331               0-1.250000000E+008.6500000000E+01+
*       -1.230000000E+02               0
GRID*             176225               00.0000000000E+008.6808657266E+01+
*       -1.224619395E+02               0
GRID*             176226               00.0000000000E+008.7117314532E+01+
*       -1.219238789E+02               0
GRID*             176227               00.0000000000E+008.7404328633E+01+
*       -1.224809697E+02               0
GRID*             176228               00.0000000000E+008.6654328633E+01+
*       -1.227309697E+02               0
GRID*             176229               00.0000000000E+008.6227551747E+01+
*       -1.224077453E+02               0
GRID*             176230               00.0000000000E+008.6705103494E+01+
*       -1.218154907E+02               0
GRID*             176231               00.0000000000E+008.6962985899E+01+
*       -1.221929092E+02               0
GRID*             176232               00.0000000000E+008.7271643165E+01+
*       -1.216548487E+02               0
GRID*             176233               00.0000000000E+008.7558657266E+01+
*       -1.219619395E+02               0
GRID*             176213               0-2.500000000E+008.6808657266E+01+
*       -1.224619395E+02               0
GRID*             176214               0-2.500000000E+008.7117314532E+01+
*       -1.219238789E+02               0
GRID*             176215               0-2.500000000E+008.6654328633E+01+
*       -1.227309697E+02               0
GRID*             176216               0-2.500000000E+008.7404328633E+01+
*       -1.224809697E+02               0
GRID*             176217               0-2.500000000E+008.6227551747E+01+
*       -1.224077453E+02               0
GRID*             176218               0-2.500000000E+008.6705103494E+01+
*       -1.218154907E+02               0
GRID*             176219               0-2.500000000E+008.6962985899E+01+
*       -1.221929092E+02               0
GRID*             176220               0-2.500000000E+008.7271643165E+01+
*       -1.216548487E+02               0
GRID*             176221               0-2.500000000E+008.7558657266E+01+
*       -1.219619395E+02               0
GRID*             176224               0-1.250000000E+008.7425971798E+01+
*       -1.213858184E+02               0
GRID*             176211               0-1.250000000E+008.6808657266E+01+
*       -1.224619395E+02               0
GRID*             176212               0-1.250000000E+008.7117314532E+01+
*       -1.219238789E+02               0
GRID*             172801               0-2.500000000E+008.6500000000E+01+
*       -1.170000000E+02               0
GRID*             172802               0-2.500000000E+008.5750000000E+01+
*       -1.170000000E+02               0
GRID*             172803               0-2.500000000E+008.7250000000E+01+
*       -1.170000000E+02               0
GRID*             176371               0-2.500000000E+008.7425974166E+01+
*       -1.186141806E+02               0
GRID*             176372               0-2.500000000E+008.7707364624E+01+
*       -1.185288243E+02               0
GRID*             176373               0-2.500000000E+008.7166641808E+01+
*       -1.187527920E+02               0
GRID*             172804               00.0000000000E+008.6500000000E+01+
*       -1.170000000E+02               0
GRID*             172805               00.0000000000E+008.5750000000E+01+
*       -1.170000000E+02               0
GRID*             172806               00.0000000000E+008.7250000000E+01+
*       -1.170000000E+02               0
GRID*             176374               00.0000000000E+008.7425974166E+01+
*       -1.186141806E+02               0
GRID*             176375               00.0000000000E+008.7707364624E+01+
*       -1.185288243E+02               0
GRID*             176376               00.0000000000E+008.7166641808E+01+
*       -1.187527920E+02               0
GRID*             153332               0-1.250000000E+008.6500000000E+01+
*       -1.170000000E+02               0
GRID*             176351               00.0000000000E+008.6808658055E+01+
*       -1.175380602E+02               0
GRID*             176352               00.0000000000E+008.7117316111E+01+
*       -1.180761204E+02               0
GRID*             176353               00.0000000000E+008.6227552142E+01+
*       -1.175922532E+02               0
GRID*             176354               00.0000000000E+008.6654329028E+01+
*       -1.172690301E+02               0
GRID*             176355               00.0000000000E+008.7404329028E+01+
*       -1.175190301E+02               0
GRID*             176356               00.0000000000E+008.7558658055E+01+
*       -1.180380602E+02               0
GRID*             176357               00.0000000000E+008.6962987083E+01+
*       -1.178070903E+02               0
GRID*             176358               00.0000000000E+008.7271645138E+01+
*       -1.183451505E+02               0
GRID*             176359               00.0000000000E+008.6705104283E+01+
*       -1.181845064E+02               0
GRID*             176341               0-2.500000000E+008.6808658055E+01+
*       -1.175380602E+02               0
GRID*             176342               0-2.500000000E+008.7117316111E+01+
*       -1.180761204E+02               0
GRID*             176343               0-2.500000000E+008.6654329028E+01+
*       -1.172690301E+02               0
GRID*             176344               0-2.500000000E+008.6227552142E+01+
*       -1.175922532E+02               0
GRID*             176345               0-2.500000000E+008.7404329028E+01+
*       -1.175190301E+02               0
GRID*             176346               0-2.500000000E+008.7558658055E+01+
*       -1.180380602E+02               0
GRID*             176347               0-2.500000000E+008.6962987083E+01+
*       -1.178070903E+02               0
GRID*             176348               0-2.500000000E+008.7271645138E+01+
*       -1.183451505E+02               0
GRID*             176349               0-2.500000000E+008.6705104283E+01+
*       -1.181845064E+02               0
GRID*             176350               0-1.250000000E+008.7425974166E+01+
*       -1.186141806E+02               0
GRID*             176337               0-1.250000000E+008.6808658055E+01+
*       -1.175380602E+02               0
GRID*             176338               0-1.250000000E+008.7117316111E+01+
*       -1.180761204E+02               0
GRID*             172765               0-2.500000000E+008.5000000000E+01+
*       -2.215000000E+02               0
GRID*             172766               0-2.500000000E+008.5000000000E+01+
*       -2.222500000E+02               0
GRID*             172767               0-2.500000000E+008.5000000000E+01+
*       -2.207500000E+02               0
GRID*             174142               0-2.500000000E+008.6615999639E+01+
*       -2.205784052E+02               0
GRID*             174143               0-2.500000000E+008.6530228815E+01+
*       -2.202996120E+02               0
GRID*             174144               0-2.500000000E+008.6754110877E+01+
*       -2.208353251E+02               0
GRID*             172768               00.0000000000E+008.5000000000E+01+
*       -2.215000000E+02               0
GRID*             172769               00.0000000000E+008.5000000000E+01+
*       -2.222500000E+02               0
GRID*             172770               00.0000000000E+008.5000000000E+01+
*       -2.207500000E+02               0
GRID*             174145               00.0000000000E+008.6615999639E+01+
*       -2.205784052E+02               0
GRID*             174146               00.0000000000E+008.6530228815E+01+
*       -2.202996120E+02               0
GRID*             174147               00.0000000000E+008.6754110877E+01+
*       -2.208353251E+02               0
GRID*             153333               0-1.250000000E+008.5000000000E+01+
*       -2.215000000E+02               0
GRID*             174122               00.0000000000E+008.5538666546E+01+
*       -2.211928017E+02               0
GRID*             174123               00.0000000000E+008.6077333093E+01+
*       -2.208856035E+02               0
GRID*             174124               00.0000000000E+008.5592556387E+01+
*       -2.217731765E+02               0
GRID*             174125               00.0000000000E+008.5269333273E+01+
*       -2.213464009E+02               0
GRID*             174126               00.0000000000E+008.5519338360E+01+
*       -2.205979827E+02               0
GRID*             174127               00.0000000000E+008.6038676719E+01+
*       -2.204459654E+02               0
GRID*             174128               00.0000000000E+008.5807999820E+01+
*       -2.210392026E+02               0
GRID*             174129               00.0000000000E+008.6346666366E+01+
*       -2.207320044E+02               0
GRID*             174130               00.0000000000E+008.6185112775E+01+
*       -2.212963530E+02               0
GRID*             174112               0-2.500000000E+008.5538666546E+01+
*       -2.211928017E+02               0
GRID*             174113               0-2.500000000E+008.6077333093E+01+
*       -2.208856035E+02               0
GRID*             174114               0-2.500000000E+008.5269333273E+01+
*       -2.213464009E+02               0
GRID*             174115               0-2.500000000E+008.5592556387E+01+
*       -2.217731765E+02               0
GRID*             174116               0-2.500000000E+008.5519338360E+01+
*       -2.205979827E+02               0
GRID*             174117               0-2.500000000E+008.6038676719E+01+
*       -2.204459654E+02               0
GRID*             174118               0-2.500000000E+008.5807999820E+01+
*       -2.210392026E+02               0
GRID*             174119               0-2.500000000E+008.6346666366E+01+
*       -2.207320044E+02               0
GRID*             174120               0-2.500000000E+008.6185112775E+01+
*       -2.212963530E+02               0
GRID*             174121               0-1.250000000E+008.6615999639E+01+
*       -2.205784052E+02               0
GRID*             174108               0-1.250000000E+008.5538666546E+01+
*       -2.211928017E+02               0
GRID*             174109               0-1.250000000E+008.6077333093E+01+
*       -2.208856035E+02               0
GRID*             173797               0-2.500000000E+008.5000000000E+01+
*       -2.170000000E+02               0
GRID*             173798               0-2.500000000E+008.5000000000E+01+
*       -2.200000000E+02               0
GRID*             174106               0-2.500000000E+008.6500030518E+01+
*       -2.200094910E+02               0
GRID*             174064               0-2.500000000E+008.6939338684E+01+
*       -2.189393463E+02               0
GRID*             173799               00.0000000000E+008.5000000000E+01+
*       -2.200000000E+02               0
GRID*             173800               00.0000000000E+008.5000000000E+01+
*       -2.170000000E+02               0
GRID*             174107               00.0000000000E+008.6500030518E+01+
*       -2.200094910E+02               0
GRID*             174065               00.0000000000E+008.6939338684E+01+
*       -2.189393463E+02               0
GRID*             172601               0-2.500000000E+008.5000000000E+01+
*       -2.185000000E+02               0
GRID*             172602               0-2.500000000E+008.5000000000E+01+
*       -2.177500000E+02               0
GRID*             172603               0-2.500000000E+008.5000000000E+01+
*       -2.192500000E+02               0
GRID*             174089               0-2.500000000E+008.5500010173E+01+
*       -2.200031637E+02               0
GRID*             174090               0-2.500000000E+008.6000020345E+01+
*       -2.200063273E+02               0
GRID*             174091               0-2.500000000E+008.5250005086E+01+
*       -2.200015818E+02               0
GRID*             174092               0-2.500000000E+008.6250025431E+01+
*       -2.200079091E+02               0
GRID*             174093               0-2.500000000E+008.5750015259E+01+
*       -2.200047455E+02               0
GRID*             174047               0-2.500000000E+008.6292892456E+01+
*       -2.182928975E+02               0
GRID*             174048               0-2.500000000E+008.5646446228E+01+
*       -2.176464488E+02               0
GRID*             174049               0-2.500000000E+008.5323223114E+01+
*       -2.173232244E+02               0
GRID*             174050               0-2.500000000E+008.6616115570E+01+
*       -2.186161219E+02               0
GRID*             174051               0-2.500000000E+008.5969669342E+01+
*       -2.179696732E+02               0
GRID*             174094               0-2.500000000E+008.6612370954E+01+
*       -2.194303647E+02               0
GRID*             174095               0-2.500000000E+008.6751473391E+01+
*       -2.191686197E+02               0
GRID*             174096               0-2.500000000E+008.6527448554E+01+
*       -2.197143506E+02               0
GRID*             172604               0-1.250000000E+008.5000000000E+01+
*       -2.200000000E+02               0
GRID*             172605               0-1.250000000E+008.5000000000E+01+
*       -2.170000000E+02               0
GRID*             174097               0-1.250000000E+008.6500030518E+01+
*       -2.200094910E+02               0
GRID*             174052               0-1.250000000E+008.6939338684E+01+
*       -2.189393463E+02               0
GRID*             172606               00.0000000000E+008.5000000000E+01+
*       -2.185000000E+02               0
GRID*             172607               00.0000000000E+008.5000000000E+01+
*       -2.177500000E+02               0
GRID*             172608               00.0000000000E+008.5000000000E+01+
*       -2.192500000E+02               0
GRID*             174098               00.0000000000E+008.6000020345E+01+
*       -2.200063273E+02               0
GRID*             174099               00.0000000000E+008.5500010173E+01+
*       -2.200031637E+02               0
GRID*             174100               00.0000000000E+008.6250025431E+01+
*       -2.200079091E+02               0
GRID*             174101               00.0000000000E+008.5750015259E+01+
*       -2.200047455E+02               0
GRID*             174102               00.0000000000E+008.5250005086E+01+
*       -2.200015818E+02               0
GRID*             174053               00.0000000000E+008.5646446228E+01+
*       -2.176464488E+02               0
GRID*             174054               00.0000000000E+008.6292892456E+01+
*       -2.182928975E+02               0
GRID*             174055               00.0000000000E+008.5323223114E+01+
*       -2.173232244E+02               0
GRID*             174056               00.0000000000E+008.6616115570E+01+
*       -2.186161219E+02               0
GRID*             174057               00.0000000000E+008.5969669342E+01+
*       -2.179696732E+02               0
GRID*             174103               00.0000000000E+008.6612370954E+01+
*       -2.194303647E+02               0
GRID*             174104               00.0000000000E+008.6527448554E+01+
*       -2.197143506E+02               0
GRID*             174105               00.0000000000E+008.6751473391E+01+
*       -2.191686197E+02               0
GRID*             174045               0-1.250000001E+008.6292892342E+01+
*       -2.182928977E+02               0
GRID*             174046               0-1.249999999E+008.5646446342E+01+
*       -2.176464487E+02               0
GRID*             153334               0-1.250000000E+008.5000000000E+01+
*       -2.185000000E+02               0
GRID*             174080               00.0000000000E+008.5537456985E+01+
*       -2.188101216E+02               0
GRID*             174081               00.0000000000E+008.6074913969E+01+
*       -2.191202432E+02               0
GRID*             174082               00.0000000000E+008.5518733579E+01+
*       -2.194066426E+02               0
GRID*             174083               00.0000000000E+008.5268728492E+01+
*       -2.186550608E+02               0
GRID*             174084               00.0000000000E+008.5591951606E+01+
*       -2.182282852E+02               0
GRID*             174085               00.0000000000E+008.6183903213E+01+
*       -2.187065703E+02               0
GRID*             174086               00.0000000000E+008.5806185477E+01+
*       -2.189651824E+02               0
GRID*             174087               00.0000000000E+008.6343642461E+01+
*       -2.192753039E+02               0
GRID*             174088               00.0000000000E+008.6037467157E+01+
*       -2.195632852E+02               0
GRID*             174068               0-2.500000000E+008.5537456985E+01+
*       -2.188101216E+02               0
GRID*             174069               0-2.500000000E+008.6074913969E+01+
*       -2.191202432E+02               0
GRID*             174070               0-2.500000000E+008.5268728492E+01+
*       -2.186550608E+02               0
GRID*             174071               0-2.500000000E+008.5518733579E+01+
*       -2.194066426E+02               0
GRID*             174072               0-2.500000000E+008.5591951606E+01+
*       -2.182282852E+02               0
GRID*             174073               0-2.500000000E+008.6183903213E+01+
*       -2.187065703E+02               0
GRID*             174074               0-2.500000000E+008.5806185477E+01+
*       -2.189651824E+02               0
GRID*             174075               0-2.500000000E+008.6343642461E+01+
*       -2.192753039E+02               0
GRID*             174076               0-2.500000000E+008.6037467157E+01+
*       -2.195632852E+02               0
GRID*             174079               0-1.250000000E+008.6612370954E+01+
*       -2.194303647E+02               0
GRID*             174077               0-1.250000000E+008.6000020345E+01+
*       -2.200063273E+02               0
GRID*             174078               0-1.250000000E+008.5500010178E+01+
*       -2.200031627E+02               0
GRID*             174066               0-1.250000000E+008.5537456985E+01+
*       -2.188101216E+02               0
GRID*             174067               0-1.250000000E+008.6074913969E+01+
*       -2.191202432E+02               0
GRID*             172777               0-2.500000000E+008.5000000000E+01+
*       -1.215000000E+02               0
GRID*             172778               0-2.500000000E+008.5000000000E+01+
*       -1.207500000E+02               0
GRID*             172779               0-2.500000000E+008.5000000000E+01+
*       -1.222500000E+02               0
GRID*             176287               0-2.500000000E+008.6614182125E+01+
*       -1.205740219E+02               0
GRID*             176288               0-2.500000000E+008.6528823998E+01+
*       -1.202926338E+02               0
GRID*             176289               0-2.500000000E+008.6752792876E+01+
*       -1.208333519E+02               0
GRID*             172780               00.0000000000E+008.5000000000E+01+
*       -1.215000000E+02               0
GRID*             172781               00.0000000000E+008.5000000000E+01+
*       -1.207500000E+02               0
GRID*             172782               00.0000000000E+008.5000000000E+01+
*       -1.222500000E+02               0
GRID*             176290               00.0000000000E+008.6614182125E+01+
*       -1.205740219E+02               0
GRID*             176291               00.0000000000E+008.6752792876E+01+
*       -1.208333519E+02               0
GRID*             176292               00.0000000000E+008.6528823998E+01+
*       -1.202926338E+02               0
GRID*             153335               0-1.250000000E+008.5000000000E+01+
*       -1.215000000E+02               0
GRID*             176265               00.0000000000E+008.5538060708E+01+
*       -1.211913406E+02               0
GRID*             176266               00.0000000000E+008.6076121417E+01+
*       -1.208826812E+02               0
GRID*             176267               00.0000000000E+008.5592253468E+01+
*       -1.217724459E+02               0
GRID*             176268               00.0000000000E+008.5269030354E+01+
*       -1.213456703E+02               0
GRID*             176269               00.0000000000E+008.5519030354E+01+
*       -1.205956703E+02               0
GRID*             176270               00.0000000000E+008.6038060708E+01+
*       -1.204413406E+02               0
GRID*             176271               00.0000000000E+008.5807091063E+01+
*       -1.210370109E+02               0
GRID*             176272               00.0000000000E+008.6345151771E+01+
*       -1.207283515E+02               0
GRID*             176273               00.0000000000E+008.6184506936E+01+
*       -1.212948918E+02               0
GRID*             176255               0-2.500000000E+008.5538060708E+01+
*       -1.211913406E+02               0
GRID*             176256               0-2.500000000E+008.6076121417E+01+
*       -1.208826812E+02               0
GRID*             176257               0-2.500000000E+008.5269030354E+01+
*       -1.213456703E+02               0
GRID*             176258               0-2.500000000E+008.5592253468E+01+
*       -1.217724459E+02               0
GRID*             176259               0-2.500000000E+008.5519030354E+01+
*       -1.205956703E+02               0
GRID*             176260               0-2.500000000E+008.6038060708E+01+
*       -1.204413406E+02               0
GRID*             176261               0-2.500000000E+008.5807091063E+01+
*       -1.210370109E+02               0
GRID*             176262               0-2.500000000E+008.6345151771E+01+
*       -1.207283515E+02               0
GRID*             176263               0-2.500000000E+008.6184506936E+01+
*       -1.212948918E+02               0
GRID*             176264               0-1.250000000E+008.6614182125E+01+
*       -1.205740219E+02               0
GRID*             176253               0-1.250000000E+008.5538060708E+01+
*       -1.211913406E+02               0
GRID*             176254               0-1.250000000E+008.6076121417E+01+
*       -1.208826812E+02               0
GRID*             173801               0-2.500000000E+008.5000000000E+01+
*       -1.200000000E+02               0
GRID*             173802               0-2.500000000E+008.5000000000E+01+
*       -1.170000000E+02               0
GRID*             176293               0-2.500000000E+008.6500000000E+01+
*       -1.200000000E+02               0
GRID*             176335               0-2.500000000E+008.6939338684E+01+
*       -1.189393387E+02               0
GRID*             173803               00.0000000000E+008.5000000000E+01+
*       -1.200000000E+02               0
GRID*             173804               00.0000000000E+008.5000000000E+01+
*       -1.170000000E+02               0
GRID*             176294               00.0000000000E+008.6500000000E+01+
*       -1.200000000E+02               0
GRID*             176336               00.0000000000E+008.6939338684E+01+
*       -1.189393387E+02               0
GRID*             172609               0-2.500000000E+008.5000000000E+01+
*       -1.185000000E+02               0
GRID*             172610               0-2.500000000E+008.5000000000E+01+
*       -1.177500000E+02               0
GRID*             172611               0-2.500000000E+008.5000000000E+01+
*       -1.192500000E+02               0
GRID*             176276               0-2.500000000E+008.6000000000E+01+
*       -1.200000000E+02               0
GRID*             176277               0-2.500000000E+008.5500000000E+01+
*       -1.200000000E+02               0
GRID*             176278               0-2.500000000E+008.5250000000E+01+
*       -1.200000000E+02               0
GRID*             176279               0-2.500000000E+008.5750000000E+01+
*       -1.200000000E+02               0
GRID*             176280               0-2.500000000E+008.6250000000E+01+
*       -1.200000000E+02               0
GRID*             176318               0-2.500000000E+008.6292892456E+01+
*       -1.182928925E+02               0
GRID*             176319               0-2.500000000E+008.5646446228E+01+
*       -1.176464462E+02               0
GRID*             176320               0-2.500000000E+008.5323223114E+01+
*       -1.173232231E+02               0
GRID*             176321               0-2.500000000E+008.5969669342E+01+
*       -1.179696693E+02               0
GRID*             176322               0-2.500000000E+008.6616115570E+01+
*       -1.186161156E+02               0
GRID*             176323               0-2.500000000E+008.6614183350E+01+
*       -1.194259752E+02               0
GRID*             176324               0-2.500000000E+008.6752791946E+01+
*       -1.191666419E+02               0
GRID*             176325               0-2.500000000E+008.6528822851E+01+
*       -1.197073643E+02               0
GRID*             172612               0-1.250000000E+008.5000000000E+01+
*       -1.200000000E+02               0
GRID*             172613               0-1.250000000E+008.5000000000E+01+
*       -1.170000000E+02               0
GRID*             176281               0-1.250000000E+008.6500000000E+01+
*       -1.200000000E+02               0
GRID*             176326               0-1.250000000E+008.6939338684E+01+
*       -1.189393387E+02               0
GRID*             172614               00.0000000000E+008.5000000000E+01+
*       -1.185000000E+02               0
GRID*             172615               00.0000000000E+008.5000000000E+01+
*       -1.177500000E+02               0
GRID*             172616               00.0000000000E+008.5000000000E+01+
*       -1.192500000E+02               0
GRID*             176282               00.0000000000E+008.6000000000E+01+
*       -1.200000000E+02               0
GRID*             176283               00.0000000000E+008.5500000000E+01+
*       -1.200000000E+02               0
GRID*             176284               00.0000000000E+008.5250000000E+01+
*       -1.200000000E+02               0
GRID*             176285               00.0000000000E+008.5750000000E+01+
*       -1.200000000E+02               0
GRID*             176286               00.0000000000E+008.6250000000E+01+
*       -1.200000000E+02               0
GRID*             176327               00.0000000000E+008.6292892456E+01+
*       -1.182928925E+02               0
GRID*             176328               00.0000000000E+008.5646446228E+01+
*       -1.176464462E+02               0
GRID*             176329               00.0000000000E+008.5323223114E+01+
*       -1.173232231E+02               0
GRID*             176330               00.0000000000E+008.5969669342E+01+
*       -1.179696693E+02               0
GRID*             176331               00.0000000000E+008.6616115570E+01+
*       -1.186161156E+02               0
GRID*             176332               00.0000000000E+008.6614183350E+01+
*       -1.194259752E+02               0
GRID*             176333               00.0000000000E+008.6752791946E+01+
*       -1.191666419E+02               0
GRID*             176334               00.0000000000E+008.6528822851E+01+
*       -1.197073643E+02               0
GRID*             176306               0-1.249999999E+008.5646446228E+01+
*       -1.176464462E+02               0
GRID*             176307               0-1.250000001E+008.6292892456E+01+
*       -1.182928925E+02               0
GRID*             153336               0-1.250000000E+008.5000000000E+01+
*       -1.185000000E+02               0
GRID*             176309               00.0000000000E+008.5538061117E+01+
*       -1.188086584E+02               0
GRID*             176310               00.0000000000E+008.6076122233E+01+
*       -1.191173168E+02               0
GRID*             176311               00.0000000000E+008.5519030558E+01+
*       -1.194043292E+02               0
GRID*             176312               00.0000000000E+008.5269030558E+01+
*       -1.186543292E+02               0
GRID*             176313               00.0000000000E+008.5592253672E+01+
*       -1.182275523E+02               0
GRID*             176314               00.0000000000E+008.6184507345E+01+
*       -1.187051046E+02               0
GRID*             176315               00.0000000000E+008.5807091675E+01+
*       -1.189629876E+02               0
GRID*             176316               00.0000000000E+008.6345152792E+01+
*       -1.192716460E+02               0
GRID*             176317               00.0000000000E+008.6038061117E+01+
*       -1.195586584E+02               0
GRID*             176297               0-2.500000000E+008.5538061117E+01+
*       -1.188086584E+02               0
GRID*             176298               0-2.500000000E+008.6076122233E+01+
*       -1.191173168E+02               0
GRID*             176299               0-2.500000000E+008.5269030558E+01+
*       -1.186543292E+02               0
GRID*             176300               0-2.500000000E+008.5519030558E+01+
*       -1.194043292E+02               0
GRID*             176301               0-2.500000000E+008.5592253672E+01+
*       -1.182275523E+02               0
GRID*             176302               0-2.500000000E+008.6184507345E+01+
*       -1.187051046E+02               0
GRID*             176303               0-2.500000000E+008.5807091675E+01+
*       -1.189629876E+02               0
GRID*             176304               0-2.500000000E+008.6345152792E+01+
*       -1.192716460E+02               0
GRID*             176305               0-2.500000000E+008.6038061117E+01+
*       -1.195586584E+02               0
GRID*             176308               0-1.250000000E+008.6614183350E+01+
*       -1.194259752E+02               0
GRID*             176274               0-1.250000000E+008.5500000000E+01+
*       -1.200000000E+02               0
GRID*             176275               0-1.250000000E+008.6000000000E+01+
*       -1.200000000E+02               0
GRID*             176295               0-1.250000000E+008.5538061117E+01+
*       -1.188086584E+02               0
GRID*             176296               0-1.250000000E+008.6076122233E+01+
*       -1.191173168E+02               0
GRID*             174710               0-2.500000000E+008.3400001526E+01+
*       -3.200000000E+02               0
GRID*             174711               0-2.500000000E+008.2960662842E+01+
*       -3.210606689E+02               0
GRID*             173805               0-2.500000000E+008.4900001526E+01+
*       -3.230000000E+02               0
GRID*             173806               0-2.500000000E+008.4900001526E+01+
*       -3.200000000E+02               0
GRID*             174712               00.0000000000E+008.2960662842E+01+
*       -3.210606689E+02               0
GRID*             174713               00.0000000000E+008.3400001526E+01+
*       -3.200000000E+02               0
GRID*             173807               00.0000000000E+008.4900001526E+01+
*       -3.230000000E+02               0
GRID*             173808               00.0000000000E+008.4900001526E+01+
*       -3.200000000E+02               0
GRID*             174682               0-2.500000000E+008.3285816068E+01+
*       -3.205740267E+02               0
GRID*             174683               0-2.500000000E+008.3147203698E+01+
*       -3.208333594E+02               0
GRID*             174684               0-2.500000000E+008.3371176949E+01+
*       -3.202926367E+02               0
GRID*             174685               0-2.500000000E+008.4253555298E+01+
*       -3.223535563E+02               0
GRID*             174686               0-2.500000000E+008.3607109070E+01+
*       -3.217071126E+02               0
GRID*             174687               0-2.500000000E+008.4576778412E+01+
*       -3.226767782E+02               0
GRID*             174688               0-2.500000000E+008.3930332184E+01+
*       -3.220303345E+02               0
GRID*             174689               0-2.500000000E+008.3283885956E+01+
*       -3.213838908E+02               0
GRID*             174690               0-2.500000000E+008.4400001526E+01+
*       -3.200000000E+02               0
GRID*             174691               0-2.500000000E+008.3900001526E+01+
*       -3.200000000E+02               0
GRID*             174692               0-2.500000000E+008.4650001526E+01+
*       -3.200000000E+02               0
GRID*             174693               0-2.500000000E+008.3650001526E+01+
*       -3.200000000E+02               0
GRID*             174694               0-2.500000000E+008.4150001526E+01+
*       -3.200000000E+02               0
GRID*             172617               0-2.500000000E+008.4900001526E+01+
*       -3.215000000E+02               0
GRID*             172618               0-2.500000000E+008.4900001526E+01+
*       -3.207500000E+02               0
GRID*             172619               0-2.500000000E+008.4900001526E+01+
*       -3.222500000E+02               0
GRID*             174695               0-1.250000000E+008.2960662842E+01+
*       -3.210606689E+02               0
GRID*             174696               0-1.250000000E+008.3400001526E+01+
*       -3.200000000E+02               0
GRID*             172620               0-1.250000000E+008.4900001526E+01+
*       -3.230000000E+02               0
GRID*             172621               0-1.250000000E+008.4900001526E+01+
*       -3.200000000E+02               0
GRID*             174697               00.0000000000E+008.3285816068E+01+
*       -3.205740267E+02               0
GRID*             174698               00.0000000000E+008.3371176949E+01+
*       -3.202926367E+02               0
GRID*             174699               00.0000000000E+008.3147203698E+01+
*       -3.208333594E+02               0
GRID*             174700               00.0000000000E+008.3607109070E+01+
*       -3.217071126E+02               0
GRID*             174701               00.0000000000E+008.4253555298E+01+
*       -3.223535563E+02               0
GRID*             174702               00.0000000000E+008.3283885956E+01+
*       -3.213838908E+02               0
GRID*             174703               00.0000000000E+008.3930332184E+01+
*       -3.220303345E+02               0
GRID*             174704               00.0000000000E+008.4576778412E+01+
*       -3.226767782E+02               0
GRID*             174705               00.0000000000E+008.3900001526E+01+
*       -3.200000000E+02               0
GRID*             174706               00.0000000000E+008.4400001526E+01+
*       -3.200000000E+02               0
GRID*             174707               00.0000000000E+008.3650001526E+01+
*       -3.200000000E+02               0
GRID*             174708               00.0000000000E+008.4150001526E+01+
*       -3.200000000E+02               0
GRID*             174709               00.0000000000E+008.4650001526E+01+
*       -3.200000000E+02               0
GRID*             172622               00.0000000000E+008.4900001526E+01+
*       -3.215000000E+02               0
GRID*             172623               00.0000000000E+008.4900001526E+01+
*       -3.207500000E+02               0
GRID*             172624               00.0000000000E+008.4900001526E+01+
*       -3.222500000E+02               0
GRID*             174669               0-1.250000001E+008.3607108956E+01+
*       -3.217071127E+02               0
GRID*             174670               0-1.249999999E+008.4253555412E+01+
*       -3.223535562E+02               0
GRID*             153337               0-1.250000000E+008.4900001526E+01+
*       -3.215000000E+02               0
GRID*             174673               00.0000000000E+008.4361939707E+01+
*       -3.211913422E+02               0
GRID*             174674               00.0000000000E+008.3823877887E+01+
*       -3.208826845E+02               0
GRID*             174675               00.0000000000E+008.4380970616E+01+
*       -3.205956711E+02               0
GRID*             174676               00.0000000000E+008.4630970616E+01+
*       -3.213456711E+02               0
GRID*             174677               00.0000000000E+008.4307747502E+01+
*       -3.217724493E+02               0
GRID*             174678               00.0000000000E+008.3715493478E+01+
*       -3.212948986E+02               0
GRID*             174679               00.0000000000E+008.4092908797E+01+
*       -3.210370134E+02               0
GRID*             174680               00.0000000000E+008.3554846977E+01+
*       -3.207283556E+02               0
GRID*             174681               00.0000000000E+008.3861939707E+01+
*       -3.204413422E+02               0
GRID*             174659               0-2.500000000E+008.4361939707E+01+
*       -3.211913422E+02               0
GRID*             174660               0-2.500000000E+008.3823877887E+01+
*       -3.208826845E+02               0
GRID*             174661               0-2.500000000E+008.4630970616E+01+
*       -3.213456711E+02               0
GRID*             174662               0-2.500000000E+008.4380970616E+01+
*       -3.205956711E+02               0
GRID*             174663               0-2.500000000E+008.4307747502E+01+
*       -3.217724493E+02               0
GRID*             174664               0-2.500000000E+008.3715493478E+01+
*       -3.212948986E+02               0
GRID*             174665               0-2.500000000E+008.4092908797E+01+
*       -3.210370134E+02               0
GRID*             174666               0-2.500000000E+008.3554846977E+01+
*       -3.207283556E+02               0
GRID*             174667               0-2.500000000E+008.3861939707E+01+
*       -3.204413422E+02               0
GRID*             174668               0-1.250000000E+008.3285816068E+01+
*       -3.205740267E+02               0
GRID*             174671               0-1.250000000E+008.3900001526E+01+
*       -3.200000000E+02               0
GRID*             174672               0-1.250000000E+008.4400001526E+01+
*       -3.200000000E+02               0
GRID*             174657               0-1.250000000E+008.4361939707E+01+
*       -3.211913422E+02               0
GRID*             174658               0-1.250000000E+008.3823877887E+01+
*       -3.208826845E+02               0
GRID*             174748               0-2.500000000E+008.3285818313E+01+
*       -3.194259724E+02               0
GRID*             174749               0-2.500000000E+008.3371176937E+01+
*       -3.197073632E+02               0
GRID*             174750               0-2.500000000E+008.3147203731E+01+
*       -3.191666407E+02               0
GRID*             172813               0-2.500000000E+008.4900001526E+01+
*       -3.185000000E+02               0
GRID*             172814               0-2.500000000E+008.4900001526E+01+
*       -3.177500000E+02               0
GRID*             172815               0-2.500000000E+008.4900001526E+01+
*       -3.192500000E+02               0
GRID*             174751               00.0000000000E+008.3285818313E+01+
*       -3.194259724E+02               0
GRID*             174752               00.0000000000E+008.3147203731E+01+
*       -3.191666407E+02               0
GRID*             174753               00.0000000000E+008.3371176937E+01+
*       -3.197073632E+02               0
GRID*             172816               00.0000000000E+008.4900001526E+01+
*       -3.185000000E+02               0
GRID*             172817               00.0000000000E+008.4900001526E+01+
*       -3.177500000E+02               0
GRID*             172818               00.0000000000E+008.4900001526E+01+
*       -3.192500000E+02               0
GRID*             153338               0-1.250000000E+008.4900001526E+01+
*       -3.185000000E+02               0
GRID*             174726               00.0000000000E+008.4361940455E+01+
*       -3.188086575E+02               0
GRID*             174727               00.0000000000E+008.3823879384E+01+
*       -3.191173149E+02               0
GRID*             174728               00.0000000000E+008.4307747876E+01+
*       -3.182275506E+02               0
GRID*             174729               00.0000000000E+008.4630970990E+01+
*       -3.186543287E+02               0
GRID*             174730               00.0000000000E+008.4380970990E+01+
*       -3.194043287E+02               0
GRID*             174731               00.0000000000E+008.3861940455E+01+
*       -3.195586575E+02               0
GRID*             174732               00.0000000000E+008.4092909919E+01+
*       -3.189629862E+02               0
GRID*             174733               00.0000000000E+008.3554848849E+01+
*       -3.192716436E+02               0
GRID*             174734               00.0000000000E+008.3715494227E+01+
*       -3.187051011E+02               0
GRID*             174716               0-2.500000000E+008.4361940455E+01+
*       -3.188086575E+02               0
GRID*             174717               0-2.500000000E+008.3823879384E+01+
*       -3.191173149E+02               0
GRID*             174718               0-2.500000000E+008.4630970990E+01+
*       -3.186543287E+02               0
GRID*             174719               0-2.500000000E+008.4307747876E+01+
*       -3.182275506E+02               0
GRID*             174720               0-2.500000000E+008.4380970990E+01+
*       -3.194043287E+02               0
GRID*             174721               0-2.500000000E+008.3861940455E+01+
*       -3.195586575E+02               0
GRID*             174722               0-2.500000000E+008.4092909919E+01+
*       -3.189629862E+02               0
GRID*             174723               0-2.500000000E+008.3554848849E+01+
*       -3.192716436E+02               0
GRID*             174724               0-2.500000000E+008.3715494227E+01+
*       -3.187051011E+02               0
GRID*             174725               0-1.250000000E+008.3285818313E+01+
*       -3.194259724E+02               0
GRID*             174714               0-1.250000000E+008.4361940455E+01+
*       -3.188086575E+02               0
GRID*             174715               0-1.250000000E+008.3823879384E+01+
*       -3.191173149E+02               0
GRID*             175636               0-2.500000000E+008.3400001526E+01+
*       -2.264999962E+01               0
GRID*             175594               0-2.500000000E+008.2960662842E+01+
*       -2.371065903E+01               0
GRID*             173809               0-2.500000000E+008.4900001526E+01+
*       -2.564999962E+01               0
GRID*             173810               0-2.500000000E+008.4900001526E+01+
*       -2.264999962E+01               0
GRID*             175595               00.0000000000E+008.2960662842E+01+
*       -2.371065903E+01               0
GRID*             175637               00.0000000000E+008.3400001526E+01+
*       -2.264999962E+01               0
GRID*             173811               00.0000000000E+008.4900001526E+01+
*       -2.564999962E+01               0
GRID*             173812               00.0000000000E+008.4900001526E+01+
*       -2.264999962E+01               0
GRID*             175619               0-2.500000000E+008.3285820650E+01+
*       -2.322402417E+01               0
GRID*             175620               0-2.500000000E+008.3147205014E+01+
*       -2.348335318E+01               0
GRID*             175621               0-2.500000000E+008.3371177680E+01+
*       -2.294263455E+01               0
GRID*             175577               0-2.500000000E+008.3607109070E+01+
*       -2.435710589E+01               0
GRID*             175578               0-2.500000000E+008.4253555298E+01+
*       -2.500355275E+01               0
GRID*             175579               0-2.500000000E+008.3283885956E+01+
*       -2.403388246E+01               0
GRID*             175580               0-2.500000000E+008.3930332184E+01+
*       -2.468032932E+01               0
GRID*             175581               0-2.500000000E+008.4576778412E+01+
*       -2.532677619E+01               0
GRID*             175622               0-2.500000000E+008.4400001526E+01+
*       -2.264999962E+01               0
GRID*             175623               0-2.500000000E+008.3900001526E+01+
*       -2.264999962E+01               0
GRID*             175624               0-2.500000000E+008.4650001526E+01+
*       -2.264999962E+01               0
GRID*             175625               0-2.500000000E+008.3650001526E+01+
*       -2.264999962E+01               0
GRID*             175626               0-2.500000000E+008.4150001526E+01+
*       -2.264999962E+01               0
GRID*             172625               0-2.500000000E+008.4900001526E+01+
*       -2.414999962E+01               0
GRID*             172626               0-2.500000000E+008.4900001526E+01+
*       -2.489999962E+01               0
GRID*             172627               0-2.500000000E+008.4900001526E+01+
*       -2.339999962E+01               0
GRID*             175582               0-1.250000000E+008.2960662842E+01+
*       -2.371065903E+01               0
GRID*             175627               0-1.250000000E+008.3400001526E+01+
*       -2.264999962E+01               0
GRID*             172628               0-1.250000000E+008.4900001526E+01+
*       -2.564999962E+01               0
GRID*             172629               0-1.250000000E+008.4900001526E+01+
*       -2.264999962E+01               0
GRID*             175628               00.0000000000E+008.3285820650E+01+
*       -2.322402417E+01               0
GRID*             175629               00.0000000000E+008.3147205014E+01+
*       -2.348335318E+01               0
GRID*             175630               00.0000000000E+008.3371177680E+01+
*       -2.294263455E+01               0
GRID*             175583               00.0000000000E+008.4253555298E+01+
*       -2.500355275E+01               0
GRID*             175584               00.0000000000E+008.3607109070E+01+
*       -2.435710589E+01               0
GRID*             175585               00.0000000000E+008.3283885956E+01+
*       -2.403388246E+01               0
GRID*             175586               00.0000000000E+008.3930332184E+01+
*       -2.468032932E+01               0
GRID*             175587               00.0000000000E+008.4576778412E+01+
*       -2.532677619E+01               0
GRID*             175631               00.0000000000E+008.3900001526E+01+
*       -2.264999962E+01               0
GRID*             175632               00.0000000000E+008.4400001526E+01+
*       -2.264999962E+01               0
GRID*             175633               00.0000000000E+008.4650001526E+01+
*       -2.264999962E+01               0
GRID*             175634               00.0000000000E+008.4150001526E+01+
*       -2.264999962E+01               0
GRID*             175635               00.0000000000E+008.3650001526E+01+
*       -2.264999962E+01               0
GRID*             172630               00.0000000000E+008.4900001526E+01+
*       -2.414999962E+01               0
GRID*             172631               00.0000000000E+008.4900001526E+01+
*       -2.489999962E+01               0
GRID*             172632               00.0000000000E+008.4900001526E+01+
*       -2.339999962E+01               0
GRID*             175556               0-1.250000001E+008.3607109098E+01+
*       -2.435710586E+01               0
GRID*             175557               0-1.249999999E+008.4253555269E+01+
*       -2.500355278E+01               0
GRID*             153339               0-1.250000000E+008.4900001526E+01+
*       -2.414999962E+01               0
GRID*             175610               00.0000000000E+008.4361941234E+01+
*       -2.384134114E+01               0
GRID*             175611               00.0000000000E+008.3823880942E+01+
*       -2.353268266E+01               0
GRID*             175612               00.0000000000E+008.4380971380E+01+
*       -2.324567038E+01               0
GRID*             175613               00.0000000000E+008.4630971380E+01+
*       -2.399567038E+01               0
GRID*             175614               00.0000000000E+008.4307748266E+01+
*       -2.442244695E+01               0
GRID*             175615               00.0000000000E+008.3715495006E+01+
*       -2.394489427E+01               0
GRID*             175616               00.0000000000E+008.4092911088E+01+
*       -2.368701190E+01               0
GRID*             175617               00.0000000000E+008.3554850796E+01+
*       -2.337835342E+01               0
GRID*             175618               00.0000000000E+008.3861941234E+01+
*       -2.309134114E+01               0
GRID*             175598               0-2.500000000E+008.4361941234E+01+
*       -2.384134114E+01               0
GRID*             175599               0-2.500000000E+008.3823880942E+01+
*       -2.353268266E+01               0
GRID*             175600               0-2.500000000E+008.4630971380E+01+
*       -2.399567038E+01               0
GRID*             175601               0-2.500000000E+008.4380971380E+01+
*       -2.324567038E+01               0
GRID*             175602               0-2.500000000E+008.4307748266E+01+
*       -2.442244695E+01               0
GRID*             175603               0-2.500000000E+008.3715495006E+01+
*       -2.394489427E+01               0
GRID*             175604               0-2.500000000E+008.4092911088E+01+
*       -2.368701190E+01               0
GRID*             175605               0-2.500000000E+008.3554850796E+01+
*       -2.337835342E+01               0
GRID*             175606               0-2.500000000E+008.3861941234E+01+
*       -2.309134114E+01               0
GRID*             175607               0-1.250000000E+008.3285820650E+01+
*       -2.322402417E+01               0
GRID*             175608               0-1.250000000E+008.4400001526E+01+
*       -2.264999962E+01               0
GRID*             175609               0-1.250000000E+008.3900001526E+01+
*       -2.264999962E+01               0
GRID*             175596               0-1.250000000E+008.4361941234E+01+
*       -2.384134114E+01               0
GRID*             175597               0-1.250000000E+008.3823880942E+01+
*       -2.353268266E+01               0
GRID*             175659               0-2.500000000E+008.3285819996E+01+
*       -2.207597539E+01               0
GRID*             175660               0-2.500000000E+008.3371177689E+01+
*       -2.235736473E+01               0
GRID*             175661               0-2.500000000E+008.3147204138E+01+
*       -2.181664665E+01               0
GRID*             172837               0-2.500000000E+008.4900001526E+01+
*       -2.114999962E+01               0
GRID*             172838               0-2.500000000E+008.4900001526E+01+
*       -2.189999962E+01               0
GRID*             172839               0-2.500000000E+008.4900001526E+01+
*       -2.039999962E+01               0
GRID*             175662               00.0000000000E+008.3285819996E+01+
*       -2.207597539E+01               0
GRID*             175663               00.0000000000E+008.3147204138E+01+
*       -2.181664665E+01               0
GRID*             175664               00.0000000000E+008.3371177689E+01+
*       -2.235736473E+01               0
GRID*             172840               00.0000000000E+008.4900001526E+01+
*       -2.114999962E+01               0
GRID*             172841               00.0000000000E+008.4900001526E+01+
*       -2.189999962E+01               0
GRID*             172842               00.0000000000E+008.4900001526E+01+
*       -2.039999962E+01               0
GRID*             153340               0-1.250000000E+008.4900001526E+01+
*       -2.114999962E+01               0
GRID*             175650               00.0000000000E+008.4361941016E+01+
*       -2.145865821E+01               0
GRID*             175651               00.0000000000E+008.3823880506E+01+
*       -2.176731680E+01               0
GRID*             175652               00.0000000000E+008.4307748157E+01+
*       -2.087755235E+01               0
GRID*             175653               00.0000000000E+008.4630971271E+01+
*       -2.130432891E+01               0
GRID*             175654               00.0000000000E+008.4380971271E+01+
*       -2.205432891E+01               0
GRID*             175655               00.0000000000E+008.3861941016E+01+
*       -2.220865821E+01               0
GRID*             175656               00.0000000000E+008.4092910761E+01+
*       -2.161298750E+01               0
GRID*             175657               00.0000000000E+008.3554850251E+01+
*       -2.192164610E+01               0
GRID*             175658               00.0000000000E+008.3715494788E+01+
*       -2.135510507E+01               0
GRID*             175640               0-2.500000000E+008.4361941016E+01+
*       -2.145865821E+01               0
GRID*             175641               0-2.500000000E+008.3823880506E+01+
*       -2.176731680E+01               0
GRID*             175642               0-2.500000000E+008.4630971271E+01+
*       -2.130432891E+01               0
GRID*             175643               0-2.500000000E+008.4307748157E+01+
*       -2.087755235E+01               0
GRID*             175644               0-2.500000000E+008.4380971271E+01+
*       -2.205432891E+01               0
GRID*             175645               0-2.500000000E+008.3861941016E+01+
*       -2.220865821E+01               0
GRID*             175646               0-2.500000000E+008.4092910761E+01+
*       -2.161298750E+01               0
GRID*             175647               0-2.500000000E+008.3554850251E+01+
*       -2.192164610E+01               0
GRID*             175648               0-2.500000000E+008.3715494788E+01+
*       -2.135510507E+01               0
GRID*             175649               0-1.250000000E+008.3285819996E+01+
*       -2.207597539E+01               0
GRID*             175638               0-1.250000000E+008.4361941016E+01+
*       -2.145865821E+01               0
GRID*             175639               0-1.250000000E+008.3823880506E+01+
*       -2.176731680E+01               0
GRID*             174987               0-2.500000000E+008.2474018947E+01+
*       -3.213858076E+02               0
GRID*             174988               0-2.500000000E+008.2192637645E+01+
*       -3.214711908E+02               0
GRID*             174989               0-2.500000000E+008.2733349746E+01+
*       -3.212471994E+02               0
GRID*             172843               0-2.500000000E+008.3400001526E+01+
*       -3.230000000E+02               0
GRID*             172844               0-2.500000000E+008.2650001526E+01+
*       -3.230000000E+02               0
GRID*             172845               0-2.500000000E+008.4150001526E+01+
*       -3.230000000E+02               0
GRID*             174990               00.0000000000E+008.2474018947E+01+
*       -3.213858076E+02               0
GRID*             174991               00.0000000000E+008.2192637645E+01+
*       -3.214711908E+02               0
GRID*             174992               00.0000000000E+008.2733349746E+01+
*       -3.212471994E+02               0
GRID*             172846               00.0000000000E+008.3400001526E+01+
*       -3.230000000E+02               0
GRID*             172847               00.0000000000E+008.2650001526E+01+
*       -3.230000000E+02               0
GRID*             172848               00.0000000000E+008.4150001526E+01+
*       -3.230000000E+02               0
GRID*             153341               0-1.250000000E+008.3400001526E+01+
*       -3.230000000E+02               0
GRID*             174978               00.0000000000E+008.3091340666E+01+
*       -3.224619359E+02               0
GRID*             174979               00.0000000000E+008.2782679806E+01+
*       -3.219238717E+02               0
GRID*             174980               00.0000000000E+008.3672447982E+01+
*       -3.224077461E+02               0
GRID*             174981               00.0000000000E+008.3245671096E+01+
*       -3.227309679E+02               0
GRID*             174982               00.0000000000E+008.2495671096E+01+
*       -3.224809679E+02               0
GRID*             174983               00.0000000000E+008.2341340666E+01+
*       -3.219619359E+02               0
GRID*             174984               00.0000000000E+008.2937010236E+01+
*       -3.221929038E+02               0
GRID*             174985               00.0000000000E+008.2628349376E+01+
*       -3.216548397E+02               0
GRID*             174986               00.0000000000E+008.3194894438E+01+
*       -3.218154922E+02               0
GRID*             174968               0-2.500000000E+008.3091340666E+01+
*       -3.224619359E+02               0
GRID*             174969               0-2.500000000E+008.2782679806E+01+
*       -3.219238717E+02               0
GRID*             174970               0-2.500000000E+008.3245671096E+01+
*       -3.227309679E+02               0
GRID*             174971               0-2.500000000E+008.3672447982E+01+
*       -3.224077461E+02               0
GRID*             174972               0-2.500000000E+008.2495671096E+01+
*       -3.224809679E+02               0
GRID*             174973               0-2.500000000E+008.2341340666E+01+
*       -3.219619359E+02               0
GRID*             174974               0-2.500000000E+008.2937010236E+01+
*       -3.221929038E+02               0
GRID*             174975               0-2.500000000E+008.2628349376E+01+
*       -3.216548397E+02               0
GRID*             174976               0-2.500000000E+008.3194894438E+01+
*       -3.218154922E+02               0
GRID*             174977               0-1.250000000E+008.2474018947E+01+
*       -3.213858076E+02               0
GRID*             174966               0-1.250000000E+008.3091340666E+01+
*       -3.224619359E+02               0
GRID*             174967               0-1.250000000E+008.2782679806E+01+
*       -3.219238717E+02               0
GRID*             174754               0-2.500000000E+008.2960662842E+01+
*       -3.189393311E+02               0
GRID*             173813               0-2.500000000E+008.4900001526E+01+
*       -3.170000000E+02               0
GRID*             174755               00.0000000000E+008.2960662842E+01+
*       -3.189393311E+02               0
GRID*             173814               00.0000000000E+008.4900001526E+01+
*       -3.170000000E+02               0
GRID*             174790               0-2.500000000E+008.2474018783E+01+
*       -3.186141923E+02               0
GRID*             174791               0-2.500000000E+008.2733349819E+01+
*       -3.187528006E+02               0
GRID*             174792               0-2.500000000E+008.2192637559E+01+
*       -3.185288092E+02               0
GRID*             172849               0-2.500000000E+008.3400001526E+01+
*       -3.170000000E+02               0
GRID*             172850               0-2.500000000E+008.4150001526E+01+
*       -3.170000000E+02               0
GRID*             172851               0-2.500000000E+008.2650001526E+01+
*       -3.170000000E+02               0
GRID*             174737               0-2.500000000E+008.4253555298E+01+
*       -3.176464437E+02               0
GRID*             174738               0-2.500000000E+008.3607109070E+01+
*       -3.182928874E+02               0
GRID*             174739               0-2.500000000E+008.4576778412E+01+
*       -3.173232218E+02               0
GRID*             174740               0-2.500000000E+008.3283885956E+01+
*       -3.186161092E+02               0
GRID*             174741               0-2.500000000E+008.3930332184E+01+
*       -3.179696655E+02               0
GRID*             174742               0-1.250000000E+008.2960662842E+01+
*       -3.189393311E+02               0
GRID*             172633               0-1.250000000E+008.4900001526E+01+
*       -3.170000000E+02               0
GRID*             174793               00.0000000000E+008.2474018783E+01+
*       -3.186141923E+02               0
GRID*             174794               00.0000000000E+008.2733349819E+01+
*       -3.187528006E+02               0
GRID*             174795               00.0000000000E+008.2192637559E+01+
*       -3.185288092E+02               0
GRID*             172852               00.0000000000E+008.3400001526E+01+
*       -3.170000000E+02               0
GRID*             172853               00.0000000000E+008.4150001526E+01+
*       -3.170000000E+02               0
GRID*             172854               00.0000000000E+008.2650001526E+01+
*       -3.170000000E+02               0
GRID*             174743               00.0000000000E+008.4253555298E+01+
*       -3.176464437E+02               0
GRID*             174744               00.0000000000E+008.3607109070E+01+
*       -3.182928874E+02               0
GRID*             174745               00.0000000000E+008.4576778412E+01+
*       -3.173232218E+02               0
GRID*             174746               00.0000000000E+008.3283885956E+01+
*       -3.186161092E+02               0
GRID*             174747               00.0000000000E+008.3930332184E+01+
*       -3.179696655E+02               0
GRID*             174735               0-1.249999999E+008.3607108956E+01+
*       -3.182928873E+02               0
GRID*             174736               0-1.250000001E+008.4253555412E+01+
*       -3.176464438E+02               0
GRID*             153342               0-1.250000000E+008.3400001526E+01+
*       -3.170000000E+02               0
GRID*             174770               00.0000000000E+008.3091340612E+01+
*       -3.175380641E+02               0
GRID*             174771               00.0000000000E+008.2782679698E+01+
*       -3.180761282E+02               0
GRID*             174772               00.0000000000E+008.2495671069E+01+
*       -3.175190321E+02               0
GRID*             174773               00.0000000000E+008.3245671069E+01+
*       -3.172690321E+02               0
GRID*             174774               00.0000000000E+008.3672447955E+01+
*       -3.175922539E+02               0
GRID*             174775               00.0000000000E+008.3194894384E+01+
*       -3.181845078E+02               0
GRID*             174776               00.0000000000E+008.2937010155E+01+
*       -3.178070962E+02               0
GRID*             174777               00.0000000000E+008.2628349241E+01+
*       -3.183451603E+02               0
GRID*             174778               00.0000000000E+008.2341340612E+01+
*       -3.180380641E+02               0
GRID*             174760               0-2.500000000E+008.3091340612E+01+
*       -3.175380641E+02               0
GRID*             174761               0-2.500000000E+008.2782679698E+01+
*       -3.180761282E+02               0
GRID*             174762               0-2.500000000E+008.3245671069E+01+
*       -3.172690321E+02               0
GRID*             174763               0-2.500000000E+008.2495671069E+01+
*       -3.175190321E+02               0
GRID*             174764               0-2.500000000E+008.3672447955E+01+
*       -3.175922539E+02               0
GRID*             174765               0-2.500000000E+008.3194894384E+01+
*       -3.181845078E+02               0
GRID*             174766               0-2.500000000E+008.2937010155E+01+
*       -3.178070962E+02               0
GRID*             174767               0-2.500000000E+008.2628349241E+01+
*       -3.183451603E+02               0
GRID*             174768               0-2.500000000E+008.2341340612E+01+
*       -3.180380641E+02               0
GRID*             174769               0-1.250000000E+008.2474018783E+01+
*       -3.186141923E+02               0
GRID*             174756               0-1.250000000E+008.3091340612E+01+
*       -3.175380641E+02               0
GRID*             174757               0-1.250000000E+008.2782679698E+01+
*       -3.180761282E+02               0
GRID*             175552               0-2.500000000E+008.1900001526E+01+
*       -2.414999962E+01               0
GRID*             173816               0-2.500000000E+008.1900001526E+01+
*       -2.564999962E+01               0
GRID*             173815               00.0000000000E+008.1900001526E+01+
*       -2.564999962E+01               0
GRID*             175553               00.0000000000E+008.1900001526E+01+
*       -2.414999962E+01               0
GRID*             175535               0-2.500000000E+008.1900001526E+01+
*       -2.464999962E+01               0
GRID*             175536               0-2.500000000E+008.1900001526E+01+
*       -2.514999962E+01               0
GRID*             175537               0-2.500000000E+008.1900001526E+01+
*       -2.539999962E+01               0
GRID*             175538               0-2.500000000E+008.1900001526E+01+
*       -2.489999962E+01               0
GRID*             175539               0-2.500000000E+008.1900001526E+01+
*       -2.439999962E+01               0
GRID*             175588               0-2.500000000E+008.2474026985E+01+
*       -2.403581791E+01               0
GRID*             175589               0-2.500000000E+008.2192637275E+01+
*       -2.412117714E+01               0
GRID*             175590               0-2.500000000E+008.2733357068E+01+
*       -2.389720241E+01               0
GRID*             172825               0-2.500000000E+008.3400001526E+01+
*       -2.564999962E+01               0
GRID*             172826               0-2.500000000E+008.2650001526E+01+
*       -2.564999962E+01               0
GRID*             172827               0-2.500000000E+008.4150001526E+01+
*       -2.564999962E+01               0
GRID*             172634               0-1.250000000E+008.1900001526E+01+
*       -2.564999962E+01               0
GRID*             175540               0-1.250000000E+008.1900001526E+01+
*       -2.414999962E+01               0
GRID*             175541               00.0000000000E+008.1900001526E+01+
*       -2.514999962E+01               0
GRID*             175542               00.0000000000E+008.1900001526E+01+
*       -2.464999962E+01               0
GRID*             175543               00.0000000000E+008.1900001526E+01+
*       -2.539999962E+01               0
GRID*             175544               00.0000000000E+008.1900001526E+01+
*       -2.489999962E+01               0
GRID*             175545               00.0000000000E+008.1900001526E+01+
*       -2.439999962E+01               0
GRID*             175591               00.0000000000E+008.2474026985E+01+
*       -2.403581791E+01               0
GRID*             175592               00.0000000000E+008.2192637275E+01+
*       -2.412117714E+01               0
GRID*             175593               00.0000000000E+008.2733357068E+01+
*       -2.389720241E+01               0
GRID*             172828               00.0000000000E+008.3400001526E+01+
*       -2.564999962E+01               0
GRID*             172829               00.0000000000E+008.2650001526E+01+
*       -2.564999962E+01               0
GRID*             172830               00.0000000000E+008.4150001526E+01+
*       -2.564999962E+01               0
GRID*             153343               0-1.250000000E+008.3400001526E+01+
*       -2.564999962E+01               0
GRID*             175568               00.0000000000E+008.3091343346E+01+
*       -2.511193905E+01               0
GRID*             175569               00.0000000000E+008.2782685165E+01+
*       -2.457387848E+01               0
GRID*             175570               00.0000000000E+008.3672449322E+01+
*       -2.505774590E+01               0
GRID*             175571               00.0000000000E+008.3245672436E+01+
*       -2.538096933E+01               0
GRID*             175572               00.0000000000E+008.2495672436E+01+
*       -2.513096933E+01               0
GRID*             175573               00.0000000000E+008.2341343346E+01+
*       -2.461193905E+01               0
GRID*             175574               00.0000000000E+008.2937014256E+01+
*       -2.484290876E+01               0
GRID*             175575               00.0000000000E+008.2628356075E+01+
*       -2.430484819E+01               0
GRID*             175576               00.0000000000E+008.3194897118E+01+
*       -2.446549218E+01               0
GRID*             175558               0-2.500000000E+008.3091343346E+01+
*       -2.511193905E+01               0
GRID*             175559               0-2.500000000E+008.2782685165E+01+
*       -2.457387848E+01               0
GRID*             175560               0-2.500000000E+008.3245672436E+01+
*       -2.538096933E+01               0
GRID*             175561               0-2.500000000E+008.3672449322E+01+
*       -2.505774590E+01               0
GRID*             175562               0-2.500000000E+008.2495672436E+01+
*       -2.513096933E+01               0
GRID*             175563               0-2.500000000E+008.2341343346E+01+
*       -2.461193905E+01               0
GRID*             175564               0-2.500000000E+008.2937014256E+01+
*       -2.484290876E+01               0
GRID*             175565               0-2.500000000E+008.2628356075E+01+
*       -2.430484819E+01               0
GRID*             175566               0-2.500000000E+008.3194897118E+01+
*       -2.446549218E+01               0
GRID*             175567               0-1.250000000E+008.2474026985E+01+
*       -2.403581791E+01               0
GRID*             175514               0-1.250000000E+008.1900001526E+01+
*       -2.514999962E+01               0
GRID*             175515               0-1.250000000E+008.1900001526E+01+
*       -2.464999962E+01               0
GRID*             175554               0-1.250000000E+008.3091343346E+01+
*       -2.511193905E+01               0
GRID*             175555               0-1.250000000E+008.2782685165E+01+
*       -2.457387848E+01               0
GRID*             173817               0-2.500000000E+008.1900001526E+01+
*       -3.230000000E+02               0
GRID*             174964               0-2.500000000E+008.1900001526E+01+
*       -3.215000000E+02               0
GRID*             173818               00.0000000000E+008.1900001526E+01+
*       -3.230000000E+02               0
GRID*             174965               00.0000000000E+008.1900001526E+01+
*       -3.215000000E+02               0
GRID*             172819               0-2.500000000E+008.0400001526E+01+
*       -3.230000000E+02               0
GRID*             172820               0-2.500000000E+008.1150001526E+01+
*       -3.230000000E+02               0
GRID*             172821               0-2.500000000E+007.9650001526E+01+
*       -3.230000000E+02               0
GRID*             174958               0-2.500000000E+008.1325982795E+01+
*       -3.213858102E+02               0
GRID*             174959               0-2.500000000E+008.1066651069E+01+
*       -3.212472030E+02               0
GRID*             174960               0-2.500000000E+008.1607364834E+01+
*       -3.214711922E+02               0
GRID*             174947               0-2.500000000E+008.1900001526E+01+
*       -3.225000000E+02               0
GRID*             174948               0-2.500000000E+008.1900001526E+01+
*       -3.220000000E+02               0
GRID*             174949               0-2.500000000E+008.1900001526E+01+
*       -3.227500000E+02               0
GRID*             174950               0-2.500000000E+008.1900001526E+01+
*       -3.217500000E+02               0
GRID*             174951               0-2.500000000E+008.1900001526E+01+
*       -3.222500000E+02               0
GRID*             172635               0-1.250000000E+008.1900001526E+01+
*       -3.230000000E+02               0
GRID*             174952               0-1.250000000E+008.1900001526E+01+
*       -3.215000000E+02               0
GRID*             172822               00.0000000000E+008.0400001526E+01+
*       -3.230000000E+02               0
GRID*             172823               00.0000000000E+008.1150001526E+01+
*       -3.230000000E+02               0
GRID*             172824               00.0000000000E+007.9650001526E+01+
*       -3.230000000E+02               0
GRID*             174961               00.0000000000E+008.1325982795E+01+
*       -3.213858102E+02               0
GRID*             174962               00.0000000000E+008.1607364834E+01+
*       -3.214711922E+02               0
GRID*             174963               00.0000000000E+008.1066651069E+01+
*       -3.212472030E+02               0
GRID*             174953               00.0000000000E+008.1900001526E+01+
*       -3.225000000E+02               0
GRID*             174954               00.0000000000E+008.1900001526E+01+
*       -3.220000000E+02               0
GRID*             174955               00.0000000000E+008.1900001526E+01+
*       -3.227500000E+02               0
GRID*             174956               00.0000000000E+008.1900001526E+01+
*       -3.222500000E+02               0
GRID*             174957               00.0000000000E+008.1900001526E+01+
*       -3.217500000E+02               0
GRID*             153344               0-1.250000000E+008.0400001526E+01+
*       -3.230000000E+02               0
GRID*             174938               00.0000000000E+008.0708661949E+01+
*       -3.224619367E+02               0
GRID*             174939               00.0000000000E+008.1017322372E+01+
*       -3.219238735E+02               0
GRID*             174940               00.0000000000E+008.1304331737E+01+
*       -3.224809684E+02               0
GRID*             174941               00.0000000000E+008.0554331737E+01+
*       -3.227309684E+02               0
GRID*             174942               00.0000000000E+008.0127554852E+01+
*       -3.224077465E+02               0
GRID*             174943               00.0000000000E+008.0605108177E+01+
*       -3.218154931E+02               0
GRID*             174944               00.0000000000E+008.0862992161E+01+
*       -3.221929051E+02               0
GRID*             174945               00.0000000000E+008.1171652584E+01+
*       -3.216548419E+02               0
GRID*             174946               00.0000000000E+008.1458661949E+01+
*       -3.219619367E+02               0
GRID*             174926               0-2.500000000E+008.0708661949E+01+
*       -3.224619367E+02               0
GRID*             174927               0-2.500000000E+008.1017322372E+01+
*       -3.219238735E+02               0
GRID*             174928               0-2.500000000E+008.0554331737E+01+
*       -3.227309684E+02               0
GRID*             174929               0-2.500000000E+008.1304331737E+01+
*       -3.224809684E+02               0
GRID*             174930               0-2.500000000E+008.0127554852E+01+
*       -3.224077465E+02               0
GRID*             174931               0-2.500000000E+008.0605108177E+01+
*       -3.218154931E+02               0
GRID*             174932               0-2.500000000E+008.0862992161E+01+
*       -3.221929051E+02               0
GRID*             174933               0-2.500000000E+008.1171652584E+01+
*       -3.216548419E+02               0
GRID*             174934               0-2.500000000E+008.1458661949E+01+
*       -3.219619367E+02               0
GRID*             174935               0-1.250000000E+008.1325982795E+01+
*       -3.213858102E+02               0
GRID*             174936               0-1.250000000E+008.1900001526E+01+
*       -3.225000000E+02               0
GRID*             174937               0-1.250000000E+008.1900001526E+01+
*       -3.220000000E+02               0
GRID*             174924               0-1.250000000E+008.0708661949E+01+
*       -3.224619367E+02               0
GRID*             174925               0-1.250000000E+008.1017322372E+01+
*       -3.219238735E+02               0
GRID*             172861               0-2.500000000E+008.0400001526E+01+
*       -2.564999962E+01               0
GRID*             172862               0-2.500000000E+007.9650001526E+01+
*       -2.564999962E+01               0
GRID*             172863               0-2.500000000E+008.1150001526E+01+
*       -2.564999962E+01               0
GRID*             175546               0-2.500000000E+008.1325975429E+01+
*       -2.403581889E+01               0
GRID*             175547               0-2.500000000E+008.1066644462E+01+
*       -2.389720458E+01               0
GRID*             175548               0-2.500000000E+008.1607365334E+01+
*       -2.412117857E+01               0
GRID*             172864               00.0000000000E+008.0400001526E+01+
*       -2.564999962E+01               0
GRID*             172865               00.0000000000E+007.9650001526E+01+
*       -2.564999962E+01               0
GRID*             172866               00.0000000000E+008.1150001526E+01+
*       -2.564999962E+01               0
GRID*             175549               00.0000000000E+008.1325975429E+01+
*       -2.403581889E+01               0
GRID*             175550               00.0000000000E+008.1607365334E+01+
*       -2.412117857E+01               0
GRID*             175551               00.0000000000E+008.1066644462E+01+
*       -2.389720458E+01               0
GRID*             153345               0-1.250000000E+008.0400001526E+01+
*       -2.564999962E+01               0
GRID*             175526               00.0000000000E+008.0708659494E+01+
*       -2.511193938E+01               0
GRID*             175527               00.0000000000E+008.1017317461E+01+
*       -2.457387914E+01               0
GRID*             175528               00.0000000000E+008.1304330510E+01+
*       -2.513096950E+01               0
GRID*             175529               00.0000000000E+008.0554330510E+01+
*       -2.538096950E+01               0
GRID*             175530               00.0000000000E+008.0127553624E+01+
*       -2.505774607E+01               0
GRID*             175531               00.0000000000E+008.0605105722E+01+
*       -2.446549251E+01               0
GRID*             175532               00.0000000000E+008.0862988477E+01+
*       -2.484290926E+01               0
GRID*             175533               00.0000000000E+008.1171646445E+01+
*       -2.430484902E+01               0
GRID*             175534               00.0000000000E+008.1458659494E+01+
*       -2.461193938E+01               0
GRID*             175516               0-2.500000000E+008.0708659494E+01+
*       -2.511193938E+01               0
GRID*             175517               0-2.500000000E+008.1017317461E+01+
*       -2.457387914E+01               0
GRID*             175518               0-2.500000000E+008.0554330510E+01+
*       -2.538096950E+01               0
GRID*             175519               0-2.500000000E+008.1304330510E+01+
*       -2.513096950E+01               0
GRID*             175520               0-2.500000000E+008.0127553624E+01+
*       -2.505774607E+01               0
GRID*             175521               0-2.500000000E+008.0605105722E+01+
*       -2.446549251E+01               0
GRID*             175522               0-2.500000000E+008.0862988477E+01+
*       -2.484290926E+01               0
GRID*             175523               0-2.500000000E+008.1171646445E+01+
*       -2.430484902E+01               0
GRID*             175524               0-2.500000000E+008.1458659494E+01+
*       -2.461193938E+01               0
GRID*             175525               0-1.250000000E+008.1325975429E+01+
*       -2.403581889E+01               0
GRID*             175512               0-1.250000000E+008.0708659494E+01+
*       -2.511193938E+01               0
GRID*             175513               0-1.250000000E+008.1017317461E+01+
*       -2.457387914E+01               0
GRID*             173819               0-2.500000000E+007.8900001526E+01+
*       -1.964999962E+01               0
GRID*             175426               0-2.500000000E+008.0839340210E+01+
*       -2.158934021E+01               0
GRID*             173820               0-2.500000000E+008.1900001526E+01+
*       -1.964999962E+01               0
GRID*             175384               0-2.500000000E+008.1900001526E+01+
*       -2.114999962E+01               0
GRID*             173821               00.0000000000E+007.8900001526E+01+
*       -1.964999962E+01               0
GRID*             175427               00.0000000000E+008.0839340210E+01+
*       -2.158934021E+01               0
GRID*             175385               00.0000000000E+008.1900001526E+01+
*       -2.114999962E+01               0
GRID*             173822               00.0000000000E+008.1900001526E+01+
*       -1.964999962E+01               0
GRID*             175409               0-2.500000000E+007.9546447754E+01+
*       -2.029644648E+01               0
GRID*             175410               0-2.500000000E+008.0192893982E+01+
*       -2.094289335E+01               0
GRID*             175411               0-2.500000000E+007.9223224640E+01+
*       -1.997322305E+01               0
GRID*             175412               0-2.500000000E+008.0516117096E+01+
*       -2.126611678E+01               0
GRID*             175413               0-2.500000000E+007.9869670868E+01+
*       -2.061966991E+01               0
GRID*             172636               0-2.500000000E+008.0400001526E+01+
*       -1.964999962E+01               0
GRID*             172637               0-2.500000000E+008.1150001526E+01+
*       -1.964999962E+01               0
GRID*             172638               0-2.500000000E+007.9650001526E+01+
*       -1.964999962E+01               0
GRID*             175414               0-2.500000000E+008.1325975487E+01+
*       -2.126418032E+01               0
GRID*             175415               0-2.500000000E+008.1607365729E+01+
*       -2.117882250E+01               0
GRID*             175416               0-2.500000000E+008.1066644480E+01+
*       -2.140279464E+01               0
GRID*             175365               0-2.500000000E+008.1900001526E+01+
*       -2.064999962E+01               0
GRID*             175366               0-2.500000000E+008.1900001526E+01+
*       -2.014999962E+01               0
GRID*             175367               0-2.500000000E+008.1900001526E+01+
*       -1.989999962E+01               0
GRID*             175368               0-2.500000000E+008.1900001526E+01+
*       -2.089999962E+01               0
GRID*             175369               0-2.500000000E+008.1900001526E+01+
*       -2.039999962E+01               0
GRID*             172639               0-1.250000000E+007.8900001526E+01+
*       -1.964999962E+01               0
GRID*             175417               0-1.250000000E+008.0839340210E+01+
*       -2.158934021E+01               0
GRID*             175370               0-1.250000000E+008.1900001526E+01+
*       -2.114999962E+01               0
GRID*             172640               0-1.250000000E+008.1900001526E+01+
*       -1.964999962E+01               0
GRID*             175418               00.0000000000E+008.0192893982E+01+
*       -2.094289335E+01               0
GRID*             175419               00.0000000000E+007.9546447754E+01+
*       -2.029644648E+01               0
GRID*             175420               00.0000000000E+008.0516117096E+01+
*       -2.126611678E+01               0
GRID*             175421               00.0000000000E+007.9869670868E+01+
*       -2.061966991E+01               0
GRID*             175422               00.0000000000E+007.9223224640E+01+
*       -1.997322305E+01               0
GRID*             172641               00.0000000000E+008.0400001526E+01+
*       -1.964999962E+01               0
GRID*             172642               00.0000000000E+008.1150001526E+01+
*       -1.964999962E+01               0
GRID*             172643               00.0000000000E+007.9650001526E+01+
*       -1.964999962E+01               0
GRID*             175423               00.0000000000E+008.1325975487E+01+
*       -2.126418032E+01               0
GRID*             175424               00.0000000000E+008.1607365729E+01+
*       -2.117882250E+01               0
GRID*             175425               00.0000000000E+008.1066644480E+01+
*       -2.140279464E+01               0
GRID*             175371               00.0000000000E+008.1900001526E+01+
*       -2.014999962E+01               0
GRID*             175372               00.0000000000E+008.1900001526E+01+
*       -2.064999962E+01               0
GRID*             175373               00.0000000000E+008.1900001526E+01+
*       -1.989999962E+01               0
GRID*             175374               00.0000000000E+008.1900001526E+01+
*       -2.089999962E+01               0
GRID*             175375               00.0000000000E+008.1900001526E+01+
*       -2.039999962E+01               0
GRID*             175397               0-1.249999999E+008.0192893953E+01+
*       -2.094289337E+01               0
GRID*             175398               0-1.250000001E+007.9546447782E+01+
*       -2.029644645E+01               0
GRID*             153346               0-1.250000000E+008.0400001526E+01+
*       -1.964999962E+01               0
GRID*             175400               00.0000000000E+008.0708659513E+01+
*       -2.018805985E+01               0
GRID*             175401               00.0000000000E+008.1017317500E+01+
*       -2.072612009E+01               0
GRID*             175402               00.0000000000E+008.0127553633E+01+
*       -2.024225317E+01               0
GRID*             175403               00.0000000000E+008.0554330519E+01+
*       -1.991902974E+01               0
GRID*             175404               00.0000000000E+008.1304330519E+01+
*       -2.016902974E+01               0
GRID*             175405               00.0000000000E+008.1458659513E+01+
*       -2.068805985E+01               0
GRID*             175406               00.0000000000E+008.0862988507E+01+
*       -2.045708997E+01               0
GRID*             175407               00.0000000000E+008.1171646494E+01+
*       -2.099515020E+01               0
GRID*             175408               00.0000000000E+008.0605105741E+01+
*       -2.083450672E+01               0
GRID*             175388               0-2.500000000E+008.0708659513E+01+
*       -2.018805985E+01               0
GRID*             175389               0-2.500000000E+008.1017317500E+01+
*       -2.072612009E+01               0
GRID*             175390               0-2.500000000E+008.0554330519E+01+
*       -1.991902974E+01               0
GRID*             175391               0-2.500000000E+008.0127553633E+01+
*       -2.024225317E+01               0
GRID*             175392               0-2.500000000E+008.1304330519E+01+
*       -2.016902974E+01               0
GRID*             175393               0-2.500000000E+008.1458659513E+01+
*       -2.068805985E+01               0
GRID*             175394               0-2.500000000E+008.0862988507E+01+
*       -2.045708997E+01               0
GRID*             175395               0-2.500000000E+008.1171646494E+01+
*       -2.099515020E+01               0
GRID*             175396               0-2.500000000E+008.0605105741E+01+
*       -2.083450672E+01               0
GRID*             175399               0-1.250000000E+008.1325975487E+01+
*       -2.126418032E+01               0
GRID*             175352               0-1.250000000E+008.1900001526E+01+
*       -2.064999962E+01               0
GRID*             175353               0-1.250000000E+008.1900001526E+01+
*       -2.014999962E+01               0
GRID*             175386               0-1.250000000E+008.0708659513E+01+
*       -2.018805985E+01               0
GRID*             175387               0-1.250000000E+008.1017317500E+01+
*       -2.072612009E+01               0
GRID*             173823               0-2.500000000E+007.8900001526E+01+
*       -3.200000000E+02               0
GRID*             173824               0-2.500000000E+007.8900001526E+01+
*       -3.230000000E+02               0
GRID*             174880               0-2.500000000E+008.0400001526E+01+
*       -3.200000000E+02               0
GRID*             174922               0-2.500000000E+008.0839340210E+01+
*       -3.210606689E+02               0
GRID*             173825               00.0000000000E+007.8900001526E+01+
*       -3.230000000E+02               0
GRID*             173826               00.0000000000E+007.8900001526E+01+
*       -3.200000000E+02               0
GRID*             174881               00.0000000000E+008.0400001526E+01+
*       -3.200000000E+02               0
GRID*             174923               00.0000000000E+008.0839340210E+01+
*       -3.210606689E+02               0
GRID*             172644               0-2.500000000E+007.8900001526E+01+
*       -3.215000000E+02               0
GRID*             172645               0-2.500000000E+007.8900001526E+01+
*       -3.222500000E+02               0
GRID*             172646               0-2.500000000E+007.8900001526E+01+
*       -3.207500000E+02               0
GRID*             174863               0-2.500000000E+007.9900001526E+01+
*       -3.200000000E+02               0
GRID*             174864               0-2.500000000E+007.9400001526E+01+
*       -3.200000000E+02               0
GRID*             174865               0-2.500000000E+007.9150001526E+01+
*       -3.200000000E+02               0
GRID*             174866               0-2.500000000E+007.9650001526E+01+
*       -3.200000000E+02               0
GRID*             174867               0-2.500000000E+008.0150001526E+01+
*       -3.200000000E+02               0
GRID*             174905               0-2.500000000E+008.0192893982E+01+
*       -3.217071126E+02               0
GRID*             174906               0-2.500000000E+007.9546447754E+01+
*       -3.223535563E+02               0
GRID*             174907               0-2.500000000E+007.9223224640E+01+
*       -3.226767782E+02               0
GRID*             174908               0-2.500000000E+008.0516117096E+01+
*       -3.213838908E+02               0
GRID*             174909               0-2.500000000E+007.9869670868E+01+
*       -3.220303345E+02               0
GRID*             174910               0-2.500000000E+008.0514180558E+01+
*       -3.205740296E+02               0
GRID*             174911               0-2.500000000E+008.0428826086E+01+
*       -3.202926366E+02               0
GRID*             174912               0-2.500000000E+008.0652794206E+01+
*       -3.208333631E+02               0
GRID*             172647               0-1.250000000E+007.8900001526E+01+
*       -3.230000000E+02               0
GRID*             172648               0-1.250000000E+007.8900001526E+01+
*       -3.200000000E+02               0
GRID*             174868               0-1.250000000E+008.0400001526E+01+
*       -3.200000000E+02               0
GRID*             174913               0-1.250000000E+008.0839340210E+01+
*       -3.210606689E+02               0
GRID*             172649               00.0000000000E+007.8900001526E+01+
*       -3.215000000E+02               0
GRID*             172650               00.0000000000E+007.8900001526E+01+
*       -3.222500000E+02               0
GRID*             172651               00.0000000000E+007.8900001526E+01+
*       -3.207500000E+02               0
GRID*             174869               00.0000000000E+007.9400001526E+01+
*       -3.200000000E+02               0
GRID*             174870               00.0000000000E+007.9900001526E+01+
*       -3.200000000E+02               0
GRID*             174871               00.0000000000E+007.9150001526E+01+
*       -3.200000000E+02               0
GRID*             174872               00.0000000000E+007.9650001526E+01+
*       -3.200000000E+02               0
GRID*             174873               00.0000000000E+008.0150001526E+01+
*       -3.200000000E+02               0
GRID*             174914               00.0000000000E+008.0192893982E+01+
*       -3.217071126E+02               0
GRID*             174915               00.0000000000E+007.9546447754E+01+
*       -3.223535563E+02               0
GRID*             174916               00.0000000000E+007.9223224640E+01+
*       -3.226767782E+02               0
GRID*             174917               00.0000000000E+007.9869670868E+01+
*       -3.220303345E+02               0
GRID*             174918               00.0000000000E+008.0516117096E+01+
*       -3.213838908E+02               0
GRID*             174919               00.0000000000E+008.0514180558E+01+
*       -3.205740296E+02               0
GRID*             174920               00.0000000000E+008.0652794206E+01+
*       -3.208333631E+02               0
GRID*             174921               00.0000000000E+008.0428826086E+01+
*       -3.202926366E+02               0
GRID*             174893               0-1.249999999E+007.9546447640E+01+
*       -3.223535562E+02               0
GRID*             174894               0-1.250000001E+008.0192894096E+01+
*       -3.217071127E+02               0
GRID*             153347               0-1.250000000E+007.8900001526E+01+
*       -3.215000000E+02               0
GRID*             174896               00.0000000000E+007.9438061203E+01+
*       -3.211913432E+02               0
GRID*             174897               00.0000000000E+007.9976120881E+01+
*       -3.208826864E+02               0
GRID*             174898               00.0000000000E+007.9492254479E+01+
*       -3.217724498E+02               0
GRID*             174899               00.0000000000E+007.9169031365E+01+
*       -3.213456716E+02               0
GRID*             174900               00.0000000000E+007.9419031365E+01+
*       -3.205956716E+02               0
GRID*             174901               00.0000000000E+007.9938061203E+01+
*       -3.204413432E+02               0
GRID*             174902               00.0000000000E+007.9707091042E+01+
*       -3.210370148E+02               0
GRID*             174903               00.0000000000E+008.0245150720E+01+
*       -3.207283580E+02               0
GRID*             174904               00.0000000000E+008.0084507431E+01+
*       -3.212948995E+02               0
GRID*             174884               0-2.500000000E+007.9438061203E+01+
*       -3.211913432E+02               0
GRID*             174885               0-2.500000000E+007.9976120881E+01+
*       -3.208826864E+02               0
GRID*             174886               0-2.500000000E+007.9169031365E+01+
*       -3.213456716E+02               0
GRID*             174887               0-2.500000000E+007.9492254479E+01+
*       -3.217724498E+02               0
GRID*             174888               0-2.500000000E+007.9419031365E+01+
*       -3.205956716E+02               0
GRID*             174889               0-2.500000000E+007.9938061203E+01+
*       -3.204413432E+02               0
GRID*             174890               0-2.500000000E+007.9707091042E+01+
*       -3.210370148E+02               0
GRID*             174891               0-2.500000000E+008.0245150720E+01+
*       -3.207283580E+02               0
GRID*             174892               0-2.500000000E+008.0084507431E+01+
*       -3.212948995E+02               0
GRID*             174895               0-1.250000000E+008.0514180558E+01+
*       -3.205740296E+02               0
GRID*             174842               0-1.250000000E+007.9400001526E+01+
*       -3.200000000E+02               0
GRID*             174843               0-1.250000000E+007.9900001526E+01+
*       -3.200000000E+02               0
GRID*             174882               0-1.250000000E+007.9438061203E+01+
*       -3.211913432E+02               0
GRID*             174883               0-1.250000000E+007.9976120881E+01+
*       -3.208826864E+02               0
GRID*             172807               0-2.500000000E+007.8900001526E+01+
*       -3.185000000E+02               0
GRID*             172808               0-2.500000000E+007.8900001526E+01+
*       -3.177500000E+02               0
GRID*             172809               0-2.500000000E+007.8900001526E+01+
*       -3.192500000E+02               0
GRID*             174874               0-2.500000000E+008.0514184826E+01+
*       -3.194259722E+02               0
GRID*             174875               0-2.500000000E+008.0652794269E+01+
*       -3.191666368E+02               0
GRID*             174876               0-2.500000000E+008.0428826064E+01+
*       -3.197073635E+02               0
GRID*             172810               00.0000000000E+007.8900001526E+01+
*       -3.185000000E+02               0
GRID*             172811               00.0000000000E+007.8900001526E+01+
*       -3.177500000E+02               0
GRID*             172812               00.0000000000E+007.8900001526E+01+
*       -3.192500000E+02               0
GRID*             174877               00.0000000000E+008.0514184826E+01+
*       -3.194259722E+02               0
GRID*             174878               00.0000000000E+008.0652794269E+01+
*       -3.191666368E+02               0
GRID*             174879               00.0000000000E+008.0428826064E+01+
*       -3.197073635E+02               0
GRID*             153348               0-1.250000000E+007.8900001526E+01+
*       -3.185000000E+02               0
GRID*             174854               00.0000000000E+007.9438062626E+01+
*       -3.188086574E+02               0
GRID*             174855               00.0000000000E+007.9976123726E+01+
*       -3.191173148E+02               0
GRID*             174856               00.0000000000E+007.9419032076E+01+
*       -3.194043287E+02               0
GRID*             174857               00.0000000000E+007.9169032076E+01+
*       -3.186543287E+02               0
GRID*             174858               00.0000000000E+007.9492255190E+01+
*       -3.182275505E+02               0
GRID*             174859               00.0000000000E+008.0084508854E+01+
*       -3.187051011E+02               0
GRID*             174860               00.0000000000E+007.9707093176E+01+
*       -3.189629861E+02               0
GRID*             174861               00.0000000000E+008.0245154276E+01+
*       -3.192716435E+02               0
GRID*             174862               00.0000000000E+007.9938062626E+01+
*       -3.195586574E+02               0
GRID*             174844               0-2.500000000E+007.9438062626E+01+
*       -3.188086574E+02               0
GRID*             174845               0-2.500000000E+007.9976123726E+01+
*       -3.191173148E+02               0
GRID*             174846               0-2.500000000E+007.9169032076E+01+
*       -3.186543287E+02               0
GRID*             174847               0-2.500000000E+007.9419032076E+01+
*       -3.194043287E+02               0
GRID*             174848               0-2.500000000E+007.9492255190E+01+
*       -3.182275505E+02               0
GRID*             174849               0-2.500000000E+008.0084508854E+01+
*       -3.187051011E+02               0
GRID*             174850               0-2.500000000E+007.9707093176E+01+
*       -3.189629861E+02               0
GRID*             174851               0-2.500000000E+008.0245154276E+01+
*       -3.192716435E+02               0
GRID*             174852               0-2.500000000E+007.9938062626E+01+
*       -3.195586574E+02               0
GRID*             174853               0-1.250000000E+008.0514184826E+01+
*       -3.194259722E+02               0
GRID*             174840               0-1.250000000E+007.9438062626E+01+
*       -3.188086574E+02               0
GRID*             174841               0-1.250000000E+007.9976123726E+01+
*       -3.191173148E+02               0
GRID*             173827               0-2.500000000E+007.8900001526E+01+
*       -2.264999962E+01               0
GRID*             173828               0-2.500000000E+007.8900001526E+01+
*       -2.564999962E+01               0
GRID*             175468               0-2.500000000E+008.0400001526E+01+
*       -2.264999962E+01               0
GRID*             175510               0-2.500000000E+008.0839340210E+01+
*       -2.371065903E+01               0
GRID*             173829               00.0000000000E+007.8900001526E+01+
*       -2.564999962E+01               0
GRID*             173830               00.0000000000E+007.8900001526E+01+
*       -2.264999962E+01               0
GRID*             175469               00.0000000000E+008.0400001526E+01+
*       -2.264999962E+01               0
GRID*             175511               00.0000000000E+008.0839340210E+01+
*       -2.371065903E+01               0
GRID*             172652               0-2.500000000E+007.8900001526E+01+
*       -2.414999962E+01               0
GRID*             172653               0-2.500000000E+007.8900001526E+01+
*       -2.339999962E+01               0
GRID*             172654               0-2.500000000E+007.8900001526E+01+
*       -2.489999962E+01               0
GRID*             175451               0-2.500000000E+007.9900001526E+01+
*       -2.264999962E+01               0
GRID*             175452               0-2.500000000E+007.9400001526E+01+
*       -2.264999962E+01               0
GRID*             175453               0-2.500000000E+007.9150001526E+01+
*       -2.264999962E+01               0
GRID*             175454               0-2.500000000E+007.9650001526E+01+
*       -2.264999962E+01               0
GRID*             175455               0-2.500000000E+008.0150001526E+01+
*       -2.264999962E+01               0
GRID*             175493               0-2.500000000E+008.0192893982E+01+
*       -2.435710589E+01               0
GRID*             175494               0-2.500000000E+007.9546447754E+01+
*       -2.500355275E+01               0
GRID*             175495               0-2.500000000E+007.9223224640E+01+
*       -2.532677619E+01               0
GRID*             175496               0-2.500000000E+008.0516117096E+01+
*       -2.403388246E+01               0
GRID*             175497               0-2.500000000E+007.9869670868E+01+
*       -2.468032932E+01               0
GRID*             175498               0-2.500000000E+008.0514182521E+01+
*       -2.322402446E+01               0
GRID*             175499               0-2.500000000E+008.0428825402E+01+
*       -2.294263470E+01               0
GRID*             175500               0-2.500000000E+008.0652794617E+01+
*       -2.348335567E+01               0
GRID*             172655               0-1.250000000E+007.8900001526E+01+
*       -2.564999962E+01               0
GRID*             172656               0-1.250000000E+007.8900001526E+01+
*       -2.264999962E+01               0
GRID*             175456               0-1.250000000E+008.0400001526E+01+
*       -2.264999962E+01               0
GRID*             175501               0-1.250000000E+008.0839340210E+01+
*       -2.371065903E+01               0
GRID*             172657               00.0000000000E+007.8900001526E+01+
*       -2.414999962E+01               0
GRID*             172658               00.0000000000E+007.8900001526E+01+
*       -2.339999962E+01               0
GRID*             172659               00.0000000000E+007.8900001526E+01+
*       -2.489999962E+01               0
GRID*             175457               00.0000000000E+007.9400001526E+01+
*       -2.264999962E+01               0
GRID*             175458               00.0000000000E+007.9900001526E+01+
*       -2.264999962E+01               0
GRID*             175459               00.0000000000E+007.9150001526E+01+
*       -2.264999962E+01               0
GRID*             175460               00.0000000000E+007.9650001526E+01+
*       -2.264999962E+01               0
GRID*             175461               00.0000000000E+008.0150001526E+01+
*       -2.264999962E+01               0
GRID*             175502               00.0000000000E+008.0192893982E+01+
*       -2.435710589E+01               0
GRID*             175503               00.0000000000E+007.9546447754E+01+
*       -2.500355275E+01               0
GRID*             175504               00.0000000000E+007.9223224640E+01+
*       -2.532677619E+01               0
GRID*             175505               00.0000000000E+007.9869670868E+01+
*       -2.468032932E+01               0
GRID*             175506               00.0000000000E+008.0516117096E+01+
*       -2.403388246E+01               0
GRID*             175507               00.0000000000E+008.0514182521E+01+
*       -2.322402446E+01               0
GRID*             175508               00.0000000000E+008.0652794617E+01+
*       -2.348335567E+01               0
GRID*             175509               00.0000000000E+008.0428825402E+01+
*       -2.294263470E+01               0
GRID*             175481               0-1.249999999E+007.9546447782E+01+
*       -2.500355278E+01               0
GRID*             175482               0-1.250000001E+008.0192893953E+01+
*       -2.435710586E+01               0
GRID*             153349               0-1.250000000E+007.8900001526E+01+
*       -2.414999962E+01               0
GRID*             175484               00.0000000000E+007.9438061858E+01+
*       -2.384134123E+01               0
GRID*             175485               00.0000000000E+007.9976122189E+01+
*       -2.353268285E+01               0
GRID*             175486               00.0000000000E+007.9492254806E+01+
*       -2.442244699E+01               0
GRID*             175487               00.0000000000E+007.9169031692E+01+
*       -2.399567043E+01               0
GRID*             175488               00.0000000000E+007.9419031692E+01+
*       -2.324567043E+01               0
GRID*             175489               00.0000000000E+007.9938061858E+01+
*       -2.309134123E+01               0
GRID*             175490               00.0000000000E+007.9707092023E+01+
*       -2.368701204E+01               0
GRID*             175491               00.0000000000E+008.0245152355E+01+
*       -2.337835365E+01               0
GRID*             175492               00.0000000000E+008.0084508086E+01+
*       -2.394489437E+01               0
GRID*             175472               0-2.500000000E+007.9438061858E+01+
*       -2.384134123E+01               0
GRID*             175473               0-2.500000000E+007.9976122189E+01+
*       -2.353268285E+01               0
GRID*             175474               0-2.500000000E+007.9169031692E+01+
*       -2.399567043E+01               0
GRID*             175475               0-2.500000000E+007.9492254806E+01+
*       -2.442244699E+01               0
GRID*             175476               0-2.500000000E+007.9419031692E+01+
*       -2.324567043E+01               0
GRID*             175477               0-2.500000000E+007.9938061858E+01+
*       -2.309134123E+01               0
GRID*             175478               0-2.500000000E+007.9707092023E+01+
*       -2.368701204E+01               0
GRID*             175479               0-2.500000000E+008.0245152355E+01+
*       -2.337835365E+01               0
GRID*             175480               0-2.500000000E+008.0084508086E+01+
*       -2.394489437E+01               0
GRID*             175483               0-1.250000000E+008.0514182521E+01+
*       -2.322402446E+01               0
GRID*             175430               0-1.250000000E+007.9400001526E+01+
*       -2.264999962E+01               0
GRID*             175431               0-1.250000000E+007.9900001526E+01+
*       -2.264999962E+01               0
GRID*             175470               0-1.250000000E+007.9438061858E+01+
*       -2.384134123E+01               0
GRID*             175471               0-1.250000000E+007.9976122189E+01+
*       -2.353268285E+01               0
GRID*             172831               0-2.500000000E+007.8900001526E+01+
*       -2.114999962E+01               0
GRID*             172832               0-2.500000000E+007.8900001526E+01+
*       -2.039999962E+01               0
GRID*             172833               0-2.500000000E+007.8900001526E+01+
*       -2.189999962E+01               0
GRID*             175462               0-2.500000000E+008.0514183172E+01+
*       -2.207597511E+01               0
GRID*             175463               0-2.500000000E+008.0652794577E+01+
*       -2.181664363E+01               0
GRID*             175464               0-2.500000000E+008.0428825393E+01+
*       -2.235736458E+01               0
GRID*             172834               00.0000000000E+007.8900001526E+01+
*       -2.114999962E+01               0
GRID*             172835               00.0000000000E+007.8900001526E+01+
*       -2.039999962E+01               0
GRID*             172836               00.0000000000E+007.8900001526E+01+
*       -2.189999962E+01               0
GRID*             175465               00.0000000000E+008.0514183172E+01+
*       -2.207597511E+01               0
GRID*             175466               00.0000000000E+008.0428825393E+01+
*       -2.235736458E+01               0
GRID*             175467               00.0000000000E+008.0652794577E+01+
*       -2.181664363E+01               0
GRID*             153350               0-1.250000000E+007.8900001526E+01+
*       -2.114999962E+01               0
GRID*             175442               00.0000000000E+007.9438062075E+01+
*       -2.145865812E+01               0
GRID*             175443               00.0000000000E+007.9976122623E+01+
*       -2.176731661E+01               0
GRID*             175444               00.0000000000E+007.9419031800E+01+
*       -2.205432887E+01               0
GRID*             175445               00.0000000000E+007.9169031800E+01+
*       -2.130432887E+01               0
GRID*             175446               00.0000000000E+007.9492254914E+01+
*       -2.087755230E+01               0
GRID*             175447               00.0000000000E+008.0084508303E+01+
*       -2.135510498E+01               0
GRID*             175448               00.0000000000E+007.9707092349E+01+
*       -2.161298736E+01               0
GRID*             175449               00.0000000000E+008.0245152898E+01+
*       -2.192164586E+01               0
GRID*             175450               00.0000000000E+007.9938062075E+01+
*       -2.220865812E+01               0
GRID*             175432               0-2.500000000E+007.9438062075E+01+
*       -2.145865812E+01               0
GRID*             175433               0-2.500000000E+007.9976122623E+01+
*       -2.176731661E+01               0
GRID*             175434               0-2.500000000E+007.9169031800E+01+
*       -2.130432887E+01               0
GRID*             175435               0-2.500000000E+007.9419031800E+01+
*       -2.205432887E+01               0
GRID*             175436               0-2.500000000E+007.9492254914E+01+
*       -2.087755230E+01               0
GRID*             175437               0-2.500000000E+008.0084508303E+01+
*       -2.135510498E+01               0
GRID*             175438               0-2.500000000E+007.9707092349E+01+
*       -2.161298736E+01               0
GRID*             175439               0-2.500000000E+008.0245152898E+01+
*       -2.192164586E+01               0
GRID*             175440               0-2.500000000E+007.9938062075E+01+
*       -2.220865812E+01               0
GRID*             175441               0-1.250000000E+008.0514183172E+01+
*       -2.207597511E+01               0
GRID*             175428               0-1.250000000E+007.9438062075E+01+
*       -2.145865812E+01               0
GRID*             175429               0-1.250000000E+007.9976122623E+01+
*       -2.176731661E+01               0
GRID*             175252               0-2.500000000E+001.9485817970E+01+
*       -3.205740286E+02               0
GRID*             175253               0-2.500000000E+001.9347204691E+01+
*       -3.208333619E+02               0
GRID*             175254               0-2.500000000E+001.9571177579E+01+
*       -3.202926374E+02               0
GRID*             172867               0-2.500000000E+002.1100002289E+01+
*       -3.215000000E+02               0
GRID*             172868               0-2.500000000E+002.1100002289E+01+
*       -3.207500000E+02               0
GRID*             172869               0-2.500000000E+002.1100002289E+01+
*       -3.222500000E+02               0
GRID*             175255               00.0000000000E+001.9485817970E+01+
*       -3.205740286E+02               0
GRID*             175256               00.0000000000E+001.9347204691E+01+
*       -3.208333619E+02               0
GRID*             175257               00.0000000000E+001.9571177579E+01+
*       -3.202926374E+02               0
GRID*             172870               00.0000000000E+002.1100002289E+01+
*       -3.215000000E+02               0
GRID*             172871               00.0000000000E+002.1100002289E+01+
*       -3.207500000E+02               0
GRID*             172872               00.0000000000E+002.1100002289E+01+
*       -3.222500000E+02               0
GRID*             153351               0-1.250000000E+002.1100002289E+01+
*       -3.215000000E+02               0
GRID*             175230               00.0000000000E+002.0561940849E+01+
*       -3.211913429E+02               0
GRID*             175231               00.0000000000E+002.0023879410E+01+
*       -3.208826857E+02               0
GRID*             175232               00.0000000000E+002.0580970933E+01+
*       -3.205956714E+02               0
GRID*             175233               00.0000000000E+002.0830971569E+01+
*       -3.213456714E+02               0
GRID*             175234               00.0000000000E+002.0507747819E+01+
*       -3.217724496E+02               0
GRID*             175235               00.0000000000E+001.9915493350E+01+
*       -3.212948992E+02               0
GRID*             175236               00.0000000000E+002.0292910130E+01+
*       -3.210370143E+02               0
GRID*             175237               00.0000000000E+001.9754848690E+01+
*       -3.207283572E+02               0
GRID*             175238               00.0000000000E+002.0061939578E+01+
*       -3.204413429E+02               0
GRID*             175220               0-2.500000000E+002.0561940849E+01+
*       -3.211913429E+02               0
GRID*             175221               0-2.500000000E+002.0023879410E+01+
*       -3.208826857E+02               0
GRID*             175222               0-2.500000000E+002.0830971569E+01+
*       -3.213456714E+02               0
GRID*             175223               0-2.500000000E+002.0580970933E+01+
*       -3.205956714E+02               0
GRID*             175224               0-2.500000000E+002.0507747819E+01+
*       -3.217724496E+02               0
GRID*             175225               0-2.500000000E+001.9915493350E+01+
*       -3.212948992E+02               0
GRID*             175226               0-2.500000000E+002.0292910130E+01+
*       -3.210370143E+02               0
GRID*             175227               0-2.500000000E+001.9754848690E+01+
*       -3.207283572E+02               0
GRID*             175228               0-2.500000000E+002.0061939578E+01+
*       -3.204413429E+02               0
GRID*             175229               0-1.250000000E+001.9485817970E+01+
*       -3.205740286E+02               0
GRID*             175218               0-1.250000000E+002.0561940849E+01+
*       -3.211913429E+02               0
GRID*             175219               0-1.250000000E+002.0023879410E+01+
*       -3.208826857E+02               0
GRID*             175174               0-2.500000000E+001.9160659790E+01+
*       -3.189393311E+02               0
GRID*             175216               0-2.500000000E+001.9599998474E+01+
*       -3.200000000E+02               0
GRID*             173831               0-2.500000000E+002.1100002289E+01+
*       -3.170000000E+02               0
GRID*             173832               0-2.500000000E+002.1100002289E+01+
*       -3.200000000E+02               0
GRID*             175175               00.0000000000E+001.9160659790E+01+
*       -3.189393311E+02               0
GRID*             175217               00.0000000000E+001.9599998474E+01+
*       -3.200000000E+02               0
GRID*             173833               00.0000000000E+002.1100002289E+01+
*       -3.200000000E+02               0
GRID*             173834               00.0000000000E+002.1100002289E+01+
*       -3.170000000E+02               0
GRID*             175199               0-2.500000000E+001.9485816959E+01+
*       -3.194259719E+02               0
GRID*             175200               0-2.500000000E+001.9571177584E+01+
*       -3.197073627E+02               0
GRID*             175201               0-2.500000000E+001.9347204676E+01+
*       -3.191666381E+02               0
GRID*             175157               0-2.500000000E+001.9807107290E+01+
*       -3.182928874E+02               0
GRID*             175158               0-2.500000000E+002.0453554789E+01+
*       -3.176464437E+02               0
GRID*             175159               0-2.500000000E+002.0776778539E+01+
*       -3.173232218E+02               0
GRID*             175160               0-2.500000000E+002.0130331039E+01+
*       -3.179696655E+02               0
GRID*             175161               0-2.500000000E+001.9483883540E+01+
*       -3.186161092E+02               0
GRID*             175202               0-2.500000000E+002.0099999746E+01+
*       -3.200000000E+02               0
GRID*             175203               0-2.500000000E+002.0600001017E+01+
*       -3.200000000E+02               0
GRID*             175204               0-2.500000000E+002.0850001653E+01+
*       -3.200000000E+02               0
GRID*             175205               0-2.500000000E+002.0350000381E+01+
*       -3.200000000E+02               0
GRID*             175206               0-2.500000000E+001.9849999110E+01+
*       -3.200000000E+02               0
GRID*             172660               0-2.500000000E+002.1100002289E+01+
*       -3.185000000E+02               0
GRID*             172661               0-2.500000000E+002.1100002289E+01+
*       -3.177500000E+02               0
GRID*             172662               0-2.500000000E+002.1100002289E+01+
*       -3.192500000E+02               0
GRID*             175162               0-1.250000000E+001.9160659790E+01+
*       -3.189393311E+02               0
GRID*             175207               0-1.250000000E+001.9599998474E+01+
*       -3.200000000E+02               0
GRID*             172663               0-1.250000000E+002.1100002289E+01+
*       -3.200000000E+02               0
GRID*             172664               0-1.250000000E+002.1100002289E+01+
*       -3.170000000E+02               0
GRID*             175208               00.0000000000E+001.9485816959E+01+
*       -3.194259719E+02               0
GRID*             175209               00.0000000000E+001.9571177584E+01+
*       -3.197073627E+02               0
GRID*             175210               00.0000000000E+001.9347204676E+01+
*       -3.191666381E+02               0
GRID*             175163               00.0000000000E+001.9807107290E+01+
*       -3.182928874E+02               0
GRID*             175164               00.0000000000E+002.0453554789E+01+
*       -3.176464437E+02               0
GRID*             175165               00.0000000000E+002.0776778539E+01+
*       -3.173232218E+02               0
GRID*             175166               00.0000000000E+002.0130331039E+01+
*       -3.179696655E+02               0
GRID*             175167               00.0000000000E+001.9483883540E+01+
*       -3.186161092E+02               0
GRID*             175211               00.0000000000E+002.0099999746E+01+
*       -3.200000000E+02               0
GRID*             175212               00.0000000000E+002.0600001017E+01+
*       -3.200000000E+02               0
GRID*             175213               00.0000000000E+002.0850001653E+01+
*       -3.200000000E+02               0
GRID*             175214               00.0000000000E+002.0350000381E+01+
*       -3.200000000E+02               0
GRID*             175215               00.0000000000E+001.9849999110E+01+
*       -3.200000000E+02               0
GRID*             172665               00.0000000000E+002.1100002289E+01+
*       -3.185000000E+02               0
GRID*             172666               00.0000000000E+002.1100002289E+01+
*       -3.177500000E+02               0
GRID*             172667               00.0000000000E+002.1100002289E+01+
*       -3.192500000E+02               0
GRID*             175155               0-1.249999999E+002.0453554961E+01+
*       -3.176464439E+02               0
GRID*             175156               0-1.250000001E+001.9807107118E+01+
*       -3.182928872E+02               0
GRID*             153352               0-1.250000000E+002.1100002289E+01+
*       -3.185000000E+02               0
GRID*             175190               00.0000000000E+002.0561940512E+01+
*       -3.188086573E+02               0
GRID*             175191               00.0000000000E+002.0023878736E+01+
*       -3.191173146E+02               0
GRID*             175192               00.0000000000E+002.0507747651E+01+
*       -3.182275505E+02               0
GRID*             175193               00.0000000000E+002.0830971400E+01+
*       -3.186543286E+02               0
GRID*             175194               00.0000000000E+002.0580970765E+01+
*       -3.194043286E+02               0
GRID*             175195               00.0000000000E+002.0061939241E+01+
*       -3.195586573E+02               0
GRID*             175196               00.0000000000E+002.0292909624E+01+
*       -3.189629859E+02               0
GRID*             175197               00.0000000000E+001.9754847847E+01+
*       -3.192716432E+02               0
GRID*             175198               00.0000000000E+001.9915493013E+01+
*       -3.187051010E+02               0
GRID*             175178               0-2.500000000E+002.0561940512E+01+
*       -3.188086573E+02               0
GRID*             175179               0-2.500000000E+002.0023878736E+01+
*       -3.191173146E+02               0
GRID*             175180               0-2.500000000E+002.0830971400E+01+
*       -3.186543286E+02               0
GRID*             175181               0-2.500000000E+002.0507747651E+01+
*       -3.182275505E+02               0
GRID*             175182               0-2.500000000E+002.0580970765E+01+
*       -3.194043286E+02               0
GRID*             175183               0-2.500000000E+002.0061939241E+01+
*       -3.195586573E+02               0
GRID*             175184               0-2.500000000E+002.0292909624E+01+
*       -3.189629859E+02               0
GRID*             175185               0-2.500000000E+001.9754847847E+01+
*       -3.192716432E+02               0
GRID*             175186               0-2.500000000E+001.9915493013E+01+
*       -3.187051010E+02               0
GRID*             175187               0-1.250000000E+001.9485816959E+01+
*       -3.194259719E+02               0
GRID*             175188               0-1.250000000E+002.0600001017E+01+
*       -3.200000000E+02               0
GRID*             175189               0-1.250000000E+002.0099999746E+01+
*       -3.200000000E+02               0
GRID*             175176               0-1.250000000E+002.0561940512E+01+
*       -3.188086573E+02               0
GRID*             175177               0-1.250000000E+002.0023878736E+01+
*       -3.191173146E+02               0
GRID*             175804               0-2.500000000E+001.9599998474E+01+
*       -2.264999962E+01               0
GRID*             175846               0-2.500000000E+001.9160659790E+01+
*       -2.371065903E+01               0
GRID*             173835               0-2.500000000E+002.1100002289E+01+
*       -2.564999962E+01               0
GRID*             173836               0-2.500000000E+002.1100002289E+01+
*       -2.264999962E+01               0
GRID*             175847               00.0000000000E+001.9160659790E+01+
*       -2.371065903E+01               0
GRID*             175805               00.0000000000E+001.9599998474E+01+
*       -2.264999962E+01               0
GRID*             173837               00.0000000000E+002.1100002289E+01+
*       -2.564999962E+01               0
GRID*             173838               00.0000000000E+002.1100002289E+01+
*       -2.264999962E+01               0
GRID*             175829               0-2.500000000E+001.9485819302E+01+
*       -2.322402467E+01               0
GRID*             175830               0-2.500000000E+001.9347204165E+01+
*       -2.348335463E+01               0
GRID*             175831               0-2.500000000E+001.9571178328E+01+
*       -2.294263513E+01               0
GRID*             175832               0-2.500000000E+001.9807107290E+01+
*       -2.435710589E+01               0
GRID*             175833               0-2.500000000E+002.0453554789E+01+
*       -2.500355275E+01               0
GRID*             175834               0-2.500000000E+002.0776778539E+01+
*       -2.532677619E+01               0
GRID*             175835               0-2.500000000E+002.0130331039E+01+
*       -2.468032932E+01               0
GRID*             175836               0-2.500000000E+001.9483883540E+01+
*       -2.403388246E+01               0
GRID*             175787               0-2.500000000E+002.0099999746E+01+
*       -2.264999962E+01               0
GRID*             175788               0-2.500000000E+002.0600001017E+01+
*       -2.264999962E+01               0
GRID*             175789               0-2.500000000E+002.0850001653E+01+
*       -2.264999962E+01               0
GRID*             175790               0-2.500000000E+002.0350000381E+01+
*       -2.264999962E+01               0
GRID*             175791               0-2.500000000E+001.9849999110E+01+
*       -2.264999962E+01               0
GRID*             172668               0-2.500000000E+002.1100002289E+01+
*       -2.414999962E+01               0
GRID*             172669               0-2.500000000E+002.1100002289E+01+
*       -2.339999962E+01               0
GRID*             172670               0-2.500000000E+002.1100002289E+01+
*       -2.489999962E+01               0
GRID*             175837               0-1.250000000E+001.9160659790E+01+
*       -2.371065903E+01               0
GRID*             175792               0-1.250000000E+001.9599998474E+01+
*       -2.264999962E+01               0
GRID*             172671               0-1.250000000E+002.1100002289E+01+
*       -2.564999962E+01               0
GRID*             172672               0-1.250000000E+002.1100002289E+01+
*       -2.264999962E+01               0
GRID*             175838               00.0000000000E+001.9485819302E+01+
*       -2.322402467E+01               0
GRID*             175839               00.0000000000E+001.9347204165E+01+
*       -2.348335463E+01               0
GRID*             175840               00.0000000000E+001.9571178328E+01+
*       -2.294263513E+01               0
GRID*             175841               00.0000000000E+002.0453554789E+01+
*       -2.500355275E+01               0
GRID*             175842               00.0000000000E+001.9807107290E+01+
*       -2.435710589E+01               0
GRID*             175843               00.0000000000E+001.9483883540E+01+
*       -2.403388246E+01               0
GRID*             175844               00.0000000000E+002.0130331039E+01+
*       -2.468032932E+01               0
GRID*             175845               00.0000000000E+002.0776778539E+01+
*       -2.532677619E+01               0
GRID*             175793               00.0000000000E+002.0099999746E+01+
*       -2.264999962E+01               0
GRID*             175794               00.0000000000E+002.0600001017E+01+
*       -2.264999962E+01               0
GRID*             175795               00.0000000000E+002.0850001653E+01+
*       -2.264999962E+01               0
GRID*             175796               00.0000000000E+002.0350000381E+01+
*       -2.264999962E+01               0
GRID*             175797               00.0000000000E+001.9849999110E+01+
*       -2.264999962E+01               0
GRID*             172673               00.0000000000E+002.1100002289E+01+
*       -2.414999962E+01               0
GRID*             172674               00.0000000000E+002.1100002289E+01+
*       -2.339999962E+01               0
GRID*             172675               00.0000000000E+002.1100002289E+01+
*       -2.489999962E+01               0
GRID*             175818               0-1.250000001E+001.9807107261E+01+
*       -2.435710592E+01               0
GRID*             175819               0-1.249999999E+002.0453554818E+01+
*       -2.500355273E+01               0
GRID*             153353               0-1.250000000E+002.1100002289E+01+
*       -2.414999962E+01               0
GRID*             175820               00.0000000000E+002.0561941293E+01+
*       -2.384134130E+01               0
GRID*             175821               00.0000000000E+002.0023880298E+01+
*       -2.353268298E+01               0
GRID*             175822               00.0000000000E+002.0580971155E+01+
*       -2.324567046E+01               0
GRID*             175823               00.0000000000E+002.0830971791E+01+
*       -2.399567046E+01               0
GRID*             175824               00.0000000000E+002.0507748041E+01+
*       -2.442244703E+01               0
GRID*             175825               00.0000000000E+001.9915493794E+01+
*       -2.394489444E+01               0
GRID*             175826               00.0000000000E+002.0292910796E+01+
*       -2.368701214E+01               0
GRID*             175827               00.0000000000E+001.9754849800E+01+
*       -2.337835382E+01               0
GRID*             175828               00.0000000000E+002.0061940022E+01+
*       -2.309134130E+01               0
GRID*             175808               0-2.500000000E+002.0561941293E+01+
*       -2.384134130E+01               0
GRID*             175809               0-2.500000000E+002.0023880298E+01+
*       -2.353268298E+01               0
GRID*             175810               0-2.500000000E+002.0830971791E+01+
*       -2.399567046E+01               0
GRID*             175811               0-2.500000000E+002.0580971155E+01+
*       -2.324567046E+01               0
GRID*             175812               0-2.500000000E+002.0507748041E+01+
*       -2.442244703E+01               0
GRID*             175813               0-2.500000000E+001.9915493794E+01+
*       -2.394489444E+01               0
GRID*             175814               0-2.500000000E+002.0292910796E+01+
*       -2.368701214E+01               0
GRID*             175815               0-2.500000000E+001.9754849800E+01+
*       -2.337835382E+01               0
GRID*             175816               0-2.500000000E+002.0061940022E+01+
*       -2.309134130E+01               0
GRID*             175817               0-1.250000000E+001.9485819302E+01+
*       -2.322402467E+01               0
GRID*             175766               0-1.250000000E+002.0600001017E+01+
*       -2.264999962E+01               0
GRID*             175767               0-1.250000000E+002.0099999746E+01+
*       -2.264999962E+01               0
GRID*             175806               0-1.250000000E+002.0561941293E+01+
*       -2.384134130E+01               0
GRID*             175807               0-1.250000000E+002.0023880298E+01+
*       -2.353268298E+01               0
GRID*             175798               0-2.500000000E+001.9485818641E+01+
*       -2.207597488E+01               0
GRID*             175799               0-2.500000000E+001.9571178334E+01+
*       -2.235736414E+01               0
GRID*             175800               0-2.500000000E+001.9347204636E+01+
*       -2.181664436E+01               0
GRID*             172879               0-2.500000000E+002.1100002289E+01+
*       -2.114999962E+01               0
GRID*             172880               0-2.500000000E+002.1100002289E+01+
*       -2.039999962E+01               0
GRID*             172881               0-2.500000000E+002.1100002289E+01+
*       -2.189999962E+01               0
GRID*             175801               00.0000000000E+001.9485818641E+01+
*       -2.207597488E+01               0
GRID*             175802               00.0000000000E+001.9571178334E+01+
*       -2.235736414E+01               0
GRID*             175803               00.0000000000E+001.9347204636E+01+
*       -2.181664436E+01               0
GRID*             172882               00.0000000000E+002.1100002289E+01+
*       -2.114999962E+01               0
GRID*             172883               00.0000000000E+002.1100002289E+01+
*       -2.039999962E+01               0
GRID*             172884               00.0000000000E+002.1100002289E+01+
*       -2.189999962E+01               0
GRID*             153354               0-1.250000000E+002.1100002289E+01+
*       -2.114999962E+01               0
GRID*             175778               00.0000000000E+002.0561941073E+01+
*       -2.145865804E+01               0
GRID*             175779               00.0000000000E+002.0023879857E+01+
*       -2.176731646E+01               0
GRID*             175780               00.0000000000E+002.0507747931E+01+
*       -2.087755226E+01               0
GRID*             175781               00.0000000000E+002.0830971681E+01+
*       -2.130432883E+01               0
GRID*             175782               00.0000000000E+002.0580971045E+01+
*       -2.205432883E+01               0
GRID*             175783               00.0000000000E+002.0061939801E+01+
*       -2.220865804E+01               0
GRID*             175784               00.0000000000E+002.0292910465E+01+
*       -2.161298725E+01               0
GRID*             175785               00.0000000000E+001.9754849249E+01+
*       -2.192164567E+01               0
GRID*             175786               00.0000000000E+001.9915493573E+01+
*       -2.135510490E+01               0
GRID*             175768               0-2.500000000E+002.0561941073E+01+
*       -2.145865804E+01               0
GRID*             175769               0-2.500000000E+002.0023879857E+01+
*       -2.176731646E+01               0
GRID*             175770               0-2.500000000E+002.0830971681E+01+
*       -2.130432883E+01               0
GRID*             175771               0-2.500000000E+002.0507747931E+01+
*       -2.087755226E+01               0
GRID*             175772               0-2.500000000E+002.0580971045E+01+
*       -2.205432883E+01               0
GRID*             175773               0-2.500000000E+002.0061939801E+01+
*       -2.220865804E+01               0
GRID*             175774               0-2.500000000E+002.0292910465E+01+
*       -2.161298725E+01               0
GRID*             175775               0-2.500000000E+001.9754849249E+01+
*       -2.192164567E+01               0
GRID*             175776               0-2.500000000E+001.9915493573E+01+
*       -2.135510490E+01               0
GRID*             175777               0-1.250000000E+001.9485818641E+01+
*       -2.207597488E+01               0
GRID*             175764               0-1.250000000E+002.0561941073E+01+
*       -2.145865804E+01               0
GRID*             175765               0-1.250000000E+002.0023879857E+01+
*       -2.176731646E+01               0
GRID*             175300               0-2.500000000E+001.8100002289E+01+
*       -3.215000000E+02               0
GRID*             173840               0-2.500000000E+001.8100002289E+01+
*       -3.230000000E+02               0
GRID*             175258               0-2.500000000E+001.9160659790E+01+
*       -3.210606689E+02               0
GRID*             173839               0-2.500000000E+002.1100002289E+01+
*       -3.230000000E+02               0
GRID*             173841               00.0000000000E+001.8100002289E+01+
*       -3.230000000E+02               0
GRID*             175301               00.0000000000E+001.8100002289E+01+
*       -3.215000000E+02               0
GRID*             175259               00.0000000000E+001.9160659790E+01+
*       -3.210606689E+02               0
GRID*             173842               00.0000000000E+002.1100002289E+01+
*       -3.230000000E+02               0
GRID*             175283               0-2.500000000E+001.8100002289E+01+
*       -3.220000000E+02               0
GRID*             175284               0-2.500000000E+001.8100002289E+01+
*       -3.225000000E+02               0
GRID*             175285               0-2.500000000E+001.8100002289E+01+
*       -3.227500000E+02               0
GRID*             175286               0-2.500000000E+001.8100002289E+01+
*       -3.222500000E+02               0
GRID*             175287               0-2.500000000E+001.8100002289E+01+
*       -3.217500000E+02               0
GRID*             175288               0-2.500000000E+001.8674018416E+01+
*       -3.213858081E+02               0
GRID*             175289               0-2.500000000E+001.8392637704E+01+
*       -3.214711909E+02               0
GRID*             175290               0-2.500000000E+001.8933349205E+01+
*       -3.212472016E+02               0
GRID*             172676               0-2.500000000E+001.9600002289E+01+
*       -3.230000000E+02               0
GRID*             172677               0-2.500000000E+001.8850002289E+01+
*       -3.230000000E+02               0
GRID*             172678               0-2.500000000E+002.0350002289E+01+
*       -3.230000000E+02               0
GRID*             175241               0-2.500000000E+002.0453554789E+01+
*       -3.223535563E+02               0
GRID*             175242               0-2.500000000E+001.9807107290E+01+
*       -3.217071126E+02               0
GRID*             175243               0-2.500000000E+002.0776778539E+01+
*       -3.226767782E+02               0
GRID*             175244               0-2.500000000E+002.0130331039E+01+
*       -3.220303345E+02               0
GRID*             175245               0-2.500000000E+001.9483883540E+01+
*       -3.213838908E+02               0
GRID*             172679               0-1.250000000E+001.8100002289E+01+
*       -3.230000000E+02               0
GRID*             175291               0-1.250000000E+001.8100002289E+01+
*       -3.215000000E+02               0
GRID*             175246               0-1.250000000E+001.9160659790E+01+
*       -3.210606689E+02               0
GRID*             172680               0-1.250000000E+002.1100002289E+01+
*       -3.230000000E+02               0
GRID*             175292               00.0000000000E+001.8100002289E+01+
*       -3.220000000E+02               0
GRID*             175293               00.0000000000E+001.8100002289E+01+
*       -3.225000000E+02               0
GRID*             175294               00.0000000000E+001.8100002289E+01+
*       -3.217500000E+02               0
GRID*             175295               00.0000000000E+001.8100002289E+01+
*       -3.222500000E+02               0
GRID*             175296               00.0000000000E+001.8100002289E+01+
*       -3.227500000E+02               0
GRID*             175297               00.0000000000E+001.8674018416E+01+
*       -3.213858081E+02               0
GRID*             175298               00.0000000000E+001.8933349205E+01+
*       -3.212472016E+02               0
GRID*             175299               00.0000000000E+001.8392637704E+01+
*       -3.214711909E+02               0
GRID*             172681               00.0000000000E+001.9600002289E+01+
*       -3.230000000E+02               0
GRID*             172682               00.0000000000E+001.8850002289E+01+
*       -3.230000000E+02               0
GRID*             172683               00.0000000000E+002.0350002289E+01+
*       -3.230000000E+02               0
GRID*             175247               00.0000000000E+002.0453554789E+01+
*       -3.223535563E+02               0
GRID*             175248               00.0000000000E+001.9807107290E+01+
*       -3.217071126E+02               0
GRID*             175249               00.0000000000E+002.0776778539E+01+
*       -3.226767782E+02               0
GRID*             175250               00.0000000000E+002.0130331039E+01+
*       -3.220303345E+02               0
GRID*             175251               00.0000000000E+001.9483883540E+01+
*       -3.213838908E+02               0
GRID*             175239               0-1.250000001E+002.0453554961E+01+
*       -3.223535561E+02               0
GRID*             175240               0-1.249999999E+001.9807107118E+01+
*       -3.217071128E+02               0
GRID*             153355               0-1.250000000E+001.9600002289E+01+
*       -3.230000000E+02               0
GRID*             175274               00.0000000000E+001.9291340998E+01+
*       -3.224619360E+02               0
GRID*             175275               00.0000000000E+001.8982679707E+01+
*       -3.219238721E+02               0
GRID*             175276               00.0000000000E+001.9872447894E+01+
*       -3.224077462E+02               0
GRID*             175277               00.0000000000E+001.9445671643E+01+
*       -3.227309680E+02               0
GRID*             175278               00.0000000000E+001.8695671643E+01+
*       -3.224809680E+02               0
GRID*             175279               00.0000000000E+001.8541340998E+01+
*       -3.219619360E+02               0
GRID*             175280               00.0000000000E+001.9137010352E+01+
*       -3.221929041E+02               0
GRID*             175281               00.0000000000E+001.8828349061E+01+
*       -3.216548401E+02               0
GRID*             175282               00.0000000000E+001.9394893498E+01+
*       -3.218154924E+02               0
GRID*             175262               0-2.500000000E+001.9291340998E+01+
*       -3.224619360E+02               0
GRID*             175263               0-2.500000000E+001.8982679707E+01+
*       -3.219238721E+02               0
GRID*             175264               0-2.500000000E+001.9445671643E+01+
*       -3.227309680E+02               0
GRID*             175265               0-2.500000000E+001.9872447894E+01+
*       -3.224077462E+02               0
GRID*             175266               0-2.500000000E+001.8695671643E+01+
*       -3.224809680E+02               0
GRID*             175267               0-2.500000000E+001.8541340998E+01+
*       -3.219619360E+02               0
GRID*             175268               0-2.500000000E+001.9137010352E+01+
*       -3.221929041E+02               0
GRID*             175269               0-2.500000000E+001.8828349061E+01+
*       -3.216548401E+02               0
GRID*             175270               0-2.500000000E+001.9394893498E+01+
*       -3.218154924E+02               0
GRID*             175273               0-1.250000000E+001.8674018416E+01+
*       -3.213858081E+02               0
GRID*             175271               0-1.250000000E+001.8100002289E+01+
*       -3.220000000E+02               0
GRID*             175272               0-1.250000000E+001.8100002289E+01+
*       -3.225000000E+02               0
GRID*             175260               0-1.250000000E+001.9291340998E+01+
*       -3.224619360E+02               0
GRID*             175261               0-1.250000000E+001.8982679707E+01+
*       -3.219238721E+02               0
GRID*             175882               0-2.500000000E+001.8674026639E+01+
*       -2.403581916E+01               0
GRID*             175883               0-2.500000000E+001.8392637491E+01+
*       -2.412117840E+01               0
GRID*             175884               0-2.500000000E+001.8933355722E+01+
*       -2.389720318E+01               0
GRID*             172903               0-2.500000000E+001.9600002289E+01+
*       -2.564999962E+01               0
GRID*             172904               0-2.500000000E+001.8850002289E+01+
*       -2.564999962E+01               0
GRID*             172905               0-2.500000000E+002.0350002289E+01+
*       -2.564999962E+01               0
GRID*             175885               00.0000000000E+001.8674026639E+01+
*       -2.403581916E+01               0
GRID*             175886               00.0000000000E+001.8392637491E+01+
*       -2.412117840E+01               0
GRID*             175887               00.0000000000E+001.8933355722E+01+
*       -2.389720318E+01               0
GRID*             172906               00.0000000000E+001.9600002289E+01+
*       -2.564999962E+01               0
GRID*             172907               00.0000000000E+001.8850002289E+01+
*       -2.564999962E+01               0
GRID*             172908               00.0000000000E+002.0350002289E+01+
*       -2.564999962E+01               0
GRID*             153356               0-1.250000000E+001.9600002289E+01+
*       -2.564999962E+01               0
GRID*             175860               00.0000000000E+001.9291343739E+01+
*       -2.511193946E+01               0
GRID*             175861               00.0000000000E+001.8982685189E+01+
*       -2.457387931E+01               0
GRID*             175862               00.0000000000E+001.9872449264E+01+
*       -2.505774611E+01               0
GRID*             175863               00.0000000000E+001.9445673014E+01+
*       -2.538096954E+01               0
GRID*             175864               00.0000000000E+001.8695673014E+01+
*       -2.513096954E+01               0
GRID*             175865               00.0000000000E+001.8541343739E+01+
*       -2.461193946E+01               0
GRID*             175866               00.0000000000E+001.9137014464E+01+
*       -2.484290939E+01               0
GRID*             175867               00.0000000000E+001.8828355914E+01+
*       -2.430484923E+01               0
GRID*             175868               00.0000000000E+001.9394896239E+01+
*       -2.446549260E+01               0
GRID*             175850               0-2.500000000E+001.9291343739E+01+
*       -2.511193946E+01               0
GRID*             175851               0-2.500000000E+001.8982685189E+01+
*       -2.457387931E+01               0
GRID*             175852               0-2.500000000E+001.9445673014E+01+
*       -2.538096954E+01               0
GRID*             175853               0-2.500000000E+001.9872449264E+01+
*       -2.505774611E+01               0
GRID*             175854               0-2.500000000E+001.8695673014E+01+
*       -2.513096954E+01               0
GRID*             175855               0-2.500000000E+001.8541343739E+01+
*       -2.461193946E+01               0
GRID*             175856               0-2.500000000E+001.9137014464E+01+
*       -2.484290939E+01               0
GRID*             175857               0-2.500000000E+001.8828355914E+01+
*       -2.430484923E+01               0
GRID*             175858               0-2.500000000E+001.9394896239E+01+
*       -2.446549260E+01               0
GRID*             175859               0-1.250000000E+001.8674026639E+01+
*       -2.403581916E+01               0
GRID*             175848               0-1.250000000E+001.9291343739E+01+
*       -2.511193946E+01               0
GRID*             175849               0-1.250000000E+001.8982685189E+01+
*       -2.457387931E+01               0
GRID*             173844               0-2.500000000E+001.8100002289E+01+
*       -1.964999962E+01               0
GRID*             175718               0-2.500000000E+001.8100002289E+01+
*       -2.114999962E+01               0
GRID*             175762               0-2.500000000E+001.9160659790E+01+
*       -2.158934021E+01               0
GRID*             173843               0-2.500000000E+002.1100002289E+01+
*       -1.964999962E+01               0
GRID*             175719               00.0000000000E+001.8100002289E+01+
*       -2.114999962E+01               0
GRID*             173845               00.0000000000E+001.8100002289E+01+
*       -1.964999962E+01               0
GRID*             175763               00.0000000000E+001.9160659790E+01+
*       -2.158934021E+01               0
GRID*             173846               00.0000000000E+002.1100002289E+01+
*       -1.964999962E+01               0
GRID*             175690               0-2.500000000E+001.8100002289E+01+
*       -2.014999962E+01               0
GRID*             175691               0-2.500000000E+001.8100002289E+01+
*       -2.064999962E+01               0
GRID*             175692               0-2.500000000E+001.8100002289E+01+
*       -1.989999962E+01               0
GRID*             175693               0-2.500000000E+001.8100002289E+01+
*       -2.039999962E+01               0
GRID*             175694               0-2.500000000E+001.8100002289E+01+
*       -2.089999962E+01               0
GRID*             175745               0-2.500000000E+001.8674025954E+01+
*       -2.126418171E+01               0
GRID*             175746               0-2.500000000E+001.8933356352E+01+
*       -2.140279520E+01               0
GRID*             175747               0-2.500000000E+001.8392637078E+01+
*       -2.117882267E+01               0
GRID*             172684               0-2.500000000E+001.9600002289E+01+
*       -1.964999962E+01               0
GRID*             172685               0-2.500000000E+001.8850002289E+01+
*       -1.964999962E+01               0
GRID*             172686               0-2.500000000E+002.0350002289E+01+
*       -1.964999962E+01               0
GRID*             175748               0-2.500000000E+001.9807107290E+01+
*       -2.094289335E+01               0
GRID*             175749               0-2.500000000E+002.0453554789E+01+
*       -2.029644648E+01               0
GRID*             175750               0-2.500000000E+002.0776778539E+01+
*       -1.997322305E+01               0
GRID*             175751               0-2.500000000E+002.0130331039E+01+
*       -2.061966991E+01               0
GRID*             175752               0-2.500000000E+001.9483883540E+01+
*       -2.126611678E+01               0
GRID*             175695               0-1.250000000E+001.8100002289E+01+
*       -2.114999962E+01               0
GRID*             172687               0-1.250000000E+001.8100002289E+01+
*       -1.964999962E+01               0
GRID*             175753               0-1.250000000E+001.9160659790E+01+
*       -2.158934021E+01               0
GRID*             172688               0-1.250000000E+002.1100002289E+01+
*       -1.964999962E+01               0
GRID*             175696               00.0000000000E+001.8100002289E+01+
*       -2.064999962E+01               0
GRID*             175697               00.0000000000E+001.8100002289E+01+
*       -2.014999962E+01               0
GRID*             175698               00.0000000000E+001.8100002289E+01+
*       -1.989999962E+01               0
GRID*             175699               00.0000000000E+001.8100002289E+01+
*       -2.039999962E+01               0
GRID*             175700               00.0000000000E+001.8100002289E+01+
*       -2.089999962E+01               0
GRID*             175754               00.0000000000E+001.8674025954E+01+
*       -2.126418171E+01               0
GRID*             175755               00.0000000000E+001.8392637078E+01+
*       -2.117882267E+01               0
GRID*             175756               00.0000000000E+001.8933356352E+01+
*       -2.140279520E+01               0
GRID*             172689               00.0000000000E+001.9600002289E+01+
*       -1.964999962E+01               0
GRID*             172690               00.0000000000E+001.8850002289E+01+
*       -1.964999962E+01               0
GRID*             172691               00.0000000000E+002.0350002289E+01+
*       -1.964999962E+01               0
GRID*             175757               00.0000000000E+002.0453554789E+01+
*       -2.029644648E+01               0
GRID*             175758               00.0000000000E+001.9807107290E+01+
*       -2.094289335E+01               0
GRID*             175759               00.0000000000E+001.9483883540E+01+
*       -2.126611678E+01               0
GRID*             175760               00.0000000000E+002.0130331039E+01+
*       -2.061966991E+01               0
GRID*             175761               00.0000000000E+002.0776778539E+01+
*       -1.997322305E+01               0
GRID*             175734               0-1.250000001E+001.9807107261E+01+
*       -2.094289332E+01               0
GRID*             175735               0-1.249999999E+002.0453554818E+01+
*       -2.029644651E+01               0
GRID*             153357               0-1.250000000E+001.9600002289E+01+
*       -1.964999962E+01               0
GRID*             175736               00.0000000000E+001.9291343511E+01+
*       -2.018806031E+01               0
GRID*             175737               00.0000000000E+001.8982684733E+01+
*       -2.072612101E+01               0
GRID*             175738               00.0000000000E+001.8695672900E+01+
*       -2.016902997E+01               0
GRID*             175739               00.0000000000E+001.9445672900E+01+
*       -1.991902997E+01               0
GRID*             175740               00.0000000000E+001.9872449150E+01+
*       -2.024225340E+01               0
GRID*             175741               00.0000000000E+001.9394896011E+01+
*       -2.083450718E+01               0
GRID*             175742               00.0000000000E+001.9137014122E+01+
*       -2.045709066E+01               0
GRID*             175743               00.0000000000E+001.8828355344E+01+
*       -2.099515136E+01               0
GRID*             175744               00.0000000000E+001.8541343511E+01+
*       -2.068806031E+01               0
GRID*             175724               0-2.500000000E+001.9291343511E+01+
*       -2.018806031E+01               0
GRID*             175725               0-2.500000000E+001.8982684733E+01+
*       -2.072612101E+01               0
GRID*             175726               0-2.500000000E+001.9445672900E+01+
*       -1.991902997E+01               0
GRID*             175727               0-2.500000000E+001.8695672900E+01+
*       -2.016902997E+01               0
GRID*             175728               0-2.500000000E+001.9872449150E+01+
*       -2.024225340E+01               0
GRID*             175729               0-2.500000000E+001.9394896011E+01+
*       -2.083450718E+01               0
GRID*             175730               0-2.500000000E+001.9137014122E+01+
*       -2.045709066E+01               0
GRID*             175731               0-2.500000000E+001.8828355344E+01+
*       -2.099515136E+01               0
GRID*             175732               0-2.500000000E+001.8541343511E+01+
*       -2.068806031E+01               0
GRID*             175733               0-1.250000000E+001.8674025954E+01+
*       -2.126418171E+01               0
GRID*             175686               0-1.250000000E+001.8100002289E+01+
*       -2.014999962E+01               0
GRID*             175687               0-1.250000000E+001.8100002289E+01+
*       -2.064999962E+01               0
GRID*             175722               0-1.250000000E+001.9291343511E+01+
*       -2.018806031E+01               0
GRID*             175723               0-1.250000000E+001.8982684733E+01+
*       -2.072612101E+01               0
GRID*             172897               0-2.500000000E+001.6599999428E+01+
*       -3.230000000E+02               0
GRID*             172898               0-2.500000000E+001.7350000858E+01+
*       -3.230000000E+02               0
GRID*             172899               0-2.500000000E+001.5849997997E+01+
*       -3.230000000E+02               0
GRID*             175323               0-2.500000000E+001.7525983598E+01+
*       -3.213858102E+02               0
GRID*             175324               0-2.500000000E+001.7266652357E+01+
*       -3.212471996E+02               0
GRID*             175325               0-2.500000000E+001.7807364363E+01+
*       -3.214711920E+02               0
GRID*             172900               00.0000000000E+001.6599999428E+01+
*       -3.230000000E+02               0
GRID*             172901               00.0000000000E+001.7350000858E+01+
*       -3.230000000E+02               0
GRID*             172902               00.0000000000E+001.5849997997E+01+
*       -3.230000000E+02               0
GRID*             175326               00.0000000000E+001.7525983598E+01+
*       -3.213858102E+02               0
GRID*             175327               00.0000000000E+001.7266652357E+01+
*       -3.212471996E+02               0
GRID*             175328               00.0000000000E+001.7807364363E+01+
*       -3.214711920E+02               0
GRID*             153358               0-1.250000000E+001.6599999428E+01+
*       -3.230000000E+02               0
GRID*             175314               00.0000000000E+001.6908660818E+01+
*       -3.224619367E+02               0
GRID*             175315               00.0000000000E+001.7217322207E+01+
*       -3.219238735E+02               0
GRID*             175316               00.0000000000E+001.7504331553E+01+
*       -3.224809684E+02               0
GRID*             175317               00.0000000000E+001.6754330123E+01+
*       -3.227309684E+02               0
GRID*             175318               00.0000000000E+001.6327552124E+01+
*       -3.224077465E+02               0
GRID*             175319               00.0000000000E+001.6805106251E+01+
*       -3.218154931E+02               0
GRID*             175320               00.0000000000E+001.7062991513E+01+
*       -3.221929051E+02               0
GRID*             175321               00.0000000000E+001.7371652902E+01+
*       -3.216548419E+02               0
GRID*             175322               00.0000000000E+001.7658662248E+01+
*       -3.219619367E+02               0
GRID*             175304               0-2.500000000E+001.6908660818E+01+
*       -3.224619367E+02               0
GRID*             175305               0-2.500000000E+001.7217322207E+01+
*       -3.219238735E+02               0
GRID*             175306               0-2.500000000E+001.6754330123E+01+
*       -3.227309684E+02               0
GRID*             175307               0-2.500000000E+001.7504331553E+01+
*       -3.224809684E+02               0
GRID*             175308               0-2.500000000E+001.6327552124E+01+
*       -3.224077465E+02               0
GRID*             175309               0-2.500000000E+001.6805106251E+01+
*       -3.218154931E+02               0
GRID*             175310               0-2.500000000E+001.7062991513E+01+
*       -3.221929051E+02               0
GRID*             175311               0-2.500000000E+001.7371652902E+01+
*       -3.216548419E+02               0
GRID*             175312               0-2.500000000E+001.7658662248E+01+
*       -3.219619367E+02               0
GRID*             175313               0-1.250000000E+001.7525983598E+01+
*       -3.213858102E+02               0
GRID*             175302               0-1.250000000E+001.6908660818E+01+
*       -3.224619367E+02               0
GRID*             175303               0-1.250000000E+001.7217322207E+01+
*       -3.219238735E+02               0
GRID*             173848               0-2.500000000E+001.5099996567E+01+
*       -3.170000000E+02               0
GRID*             175090               0-2.500000000E+001.7039337158E+01+
*       -3.189393311E+02               0
GRID*             173847               0-2.500000000E+001.8100002289E+01+
*       -3.170000000E+02               0
GRID*             175132               0-2.500000000E+001.8100002289E+01+
*       -3.185000000E+02               0
GRID*             173849               00.0000000000E+001.5099996567E+01+
*       -3.170000000E+02               0
GRID*             175091               00.0000000000E+001.7039337158E+01+
*       -3.189393311E+02               0
GRID*             175133               00.0000000000E+001.8100002289E+01+
*       -3.185000000E+02               0
GRID*             173850               00.0000000000E+001.8100002289E+01+
*       -3.170000000E+02               0
GRID*             175073               0-2.500000000E+001.5746443431E+01+
*       -3.176464437E+02               0
GRID*             175074               0-2.500000000E+001.6392890294E+01+
*       -3.182928874E+02               0
GRID*             175075               0-2.500000000E+001.6716113726E+01+
*       -3.186161092E+02               0
GRID*             175076               0-2.500000000E+001.6069666862E+01+
*       -3.179696655E+02               0
GRID*             175077               0-2.500000000E+001.5423219999E+01+
*       -3.173232218E+02               0
GRID*             172692               0-2.500000000E+001.6599999428E+01+
*       -3.170000000E+02               0
GRID*             172693               0-2.500000000E+001.5849997997E+01+
*       -3.170000000E+02               0
GRID*             172694               0-2.500000000E+001.7350000858E+01+
*       -3.170000000E+02               0
GRID*             175115               0-2.500000000E+001.7525983792E+01+
*       -3.186141897E+02               0
GRID*             175116               0-2.500000000E+001.7807364688E+01+
*       -3.185288091E+02               0
GRID*             175117               0-2.500000000E+001.7266652224E+01+
*       -3.187528005E+02               0
GRID*             175118               0-2.500000000E+001.8100002289E+01+
*       -3.180000000E+02               0
GRID*             175119               0-2.500000000E+001.8100002289E+01+
*       -3.175000000E+02               0
GRID*             175120               0-2.500000000E+001.8100002289E+01+
*       -3.172500000E+02               0
GRID*             175121               0-2.500000000E+001.8100002289E+01+
*       -3.177500000E+02               0
GRID*             175122               0-2.500000000E+001.8100002289E+01+
*       -3.182500000E+02               0
GRID*             172695               0-1.250000000E+001.5099996567E+01+
*       -3.170000000E+02               0
GRID*             175078               0-1.250000000E+001.7039337158E+01+
*       -3.189393311E+02               0
GRID*             175123               0-1.250000000E+001.8100002289E+01+
*       -3.185000000E+02               0
GRID*             172696               0-1.250000000E+001.8100002289E+01+
*       -3.170000000E+02               0
GRID*             175079               00.0000000000E+001.5746443431E+01+
*       -3.176464437E+02               0
GRID*             175080               00.0000000000E+001.6392890294E+01+
*       -3.182928874E+02               0
GRID*             175081               00.0000000000E+001.6716113726E+01+
*       -3.186161092E+02               0
GRID*             175082               00.0000000000E+001.6069666862E+01+
*       -3.179696655E+02               0
GRID*             175083               00.0000000000E+001.5423219999E+01+
*       -3.173232218E+02               0
GRID*             172697               00.0000000000E+001.6599999428E+01+
*       -3.170000000E+02               0
GRID*             172698               00.0000000000E+001.5849997997E+01+
*       -3.170000000E+02               0
GRID*             172699               00.0000000000E+001.7350000858E+01+
*       -3.170000000E+02               0
GRID*             175124               00.0000000000E+001.7525983792E+01+
*       -3.186141897E+02               0
GRID*             175125               00.0000000000E+001.7266652224E+01+
*       -3.187528005E+02               0
GRID*             175126               00.0000000000E+001.7807364688E+01+
*       -3.185288091E+02               0
GRID*             175127               00.0000000000E+001.8100002289E+01+
*       -3.180000000E+02               0
GRID*             175128               00.0000000000E+001.8100002289E+01+
*       -3.175000000E+02               0
GRID*             175129               00.0000000000E+001.8100002289E+01+
*       -3.172500000E+02               0
GRID*             175130               00.0000000000E+001.8100002289E+01+
*       -3.177500000E+02               0
GRID*             175131               00.0000000000E+001.8100002289E+01+
*       -3.182500000E+02               0
GRID*             175052               0-1.250000001E+001.6392890437E+01+
*       -3.182928872E+02               0
GRID*             175053               0-1.249999999E+001.5746443288E+01+
*       -3.176464438E+02               0
GRID*             153359               0-1.250000000E+001.6599999428E+01+
*       -3.170000000E+02               0
GRID*             175106               00.0000000000E+001.6908660882E+01+
*       -3.175380632E+02               0
GRID*             175107               00.0000000000E+001.7217322337E+01+
*       -3.180761264E+02               0
GRID*             175108               00.0000000000E+001.6327552156E+01+
*       -3.175922535E+02               0
GRID*             175109               00.0000000000E+001.6754330155E+01+
*       -3.172690316E+02               0
GRID*             175110               00.0000000000E+001.7504331586E+01+
*       -3.175190316E+02               0
GRID*             175111               00.0000000000E+001.7658662313E+01+
*       -3.180380632E+02               0
GRID*             175112               00.0000000000E+001.7062991610E+01+
*       -3.178070948E+02               0
GRID*             175113               00.0000000000E+001.7371653064E+01+
*       -3.183451581E+02               0
GRID*             175114               00.0000000000E+001.6805106316E+01+
*       -3.181845069E+02               0
GRID*             175094               0-2.500000000E+001.6908660882E+01+
*       -3.175380632E+02               0
GRID*             175095               0-2.500000000E+001.7217322337E+01+
*       -3.180761264E+02               0
GRID*             175096               0-2.500000000E+001.6754330155E+01+
*       -3.172690316E+02               0
GRID*             175097               0-2.500000000E+001.6327552156E+01+
*       -3.175922535E+02               0
GRID*             175098               0-2.500000000E+001.7504331586E+01+
*       -3.175190316E+02               0
GRID*             175099               0-2.500000000E+001.7658662313E+01+
*       -3.180380632E+02               0
GRID*             175100               0-2.500000000E+001.7062991610E+01+
*       -3.178070948E+02               0
GRID*             175101               0-2.500000000E+001.7371653064E+01+
*       -3.183451581E+02               0
GRID*             175102               0-2.500000000E+001.6805106316E+01+
*       -3.181845069E+02               0
GRID*             175103               0-1.250000000E+001.7525983792E+01+
*       -3.186141897E+02               0
GRID*             175104               0-1.250000000E+001.8100002289E+01+
*       -3.175000000E+02               0
GRID*             175105               0-1.250000000E+001.8100002289E+01+
*       -3.180000000E+02               0
GRID*             175092               0-1.250000000E+001.6908660882E+01+
*       -3.175380632E+02               0
GRID*             175093               0-1.250000000E+001.7217322337E+01+
*       -3.180761264E+02               0
GRID*             175930               0-2.500000000E+001.7039337158E+01+
*       -2.371065903E+01               0
GRID*             173851               0-2.500000000E+001.5099996567E+01+
*       -2.564999962E+01               0
GRID*             173852               0-2.500000000E+001.8100002289E+01+
*       -2.564999962E+01               0
GRID*             175888               0-2.500000000E+001.8100002289E+01+
*       -2.414999962E+01               0
GRID*             173853               00.0000000000E+001.5099996567E+01+
*       -2.564999962E+01               0
GRID*             175931               00.0000000000E+001.7039337158E+01+
*       -2.371065903E+01               0
GRID*             173854               00.0000000000E+001.8100002289E+01+
*       -2.564999962E+01               0
GRID*             175889               00.0000000000E+001.8100002289E+01+
*       -2.414999962E+01               0
GRID*             175913               0-2.500000000E+001.6392890294E+01+
*       -2.435710589E+01               0
GRID*             175914               0-2.500000000E+001.5746443431E+01+
*       -2.500355275E+01               0
GRID*             175915               0-2.500000000E+001.5423219999E+01+
*       -2.532677619E+01               0
GRID*             175916               0-2.500000000E+001.6069666862E+01+
*       -2.468032932E+01               0
GRID*             175917               0-2.500000000E+001.6716113726E+01+
*       -2.403388246E+01               0
GRID*             172700               0-2.500000000E+001.6599999428E+01+
*       -2.564999962E+01               0
GRID*             172701               0-2.500000000E+001.5849997997E+01+
*       -2.564999962E+01               0
GRID*             172702               0-2.500000000E+001.7350000858E+01+
*       -2.564999962E+01               0
GRID*             175918               0-2.500000000E+001.7525974637E+01+
*       -2.403581904E+01               0
GRID*             175919               0-2.500000000E+001.7266643796E+01+
*       -2.389720299E+01               0
GRID*             175920               0-2.500000000E+001.7807365561E+01+
*       -2.412117770E+01               0
GRID*             175871               0-2.500000000E+001.8100002289E+01+
*       -2.514999962E+01               0
GRID*             175872               0-2.500000000E+001.8100002289E+01+
*       -2.464999962E+01               0
GRID*             175873               0-2.500000000E+001.8100002289E+01+
*       -2.539999962E+01               0
GRID*             175874               0-2.500000000E+001.8100002289E+01+
*       -2.489999962E+01               0
GRID*             175875               0-2.500000000E+001.8100002289E+01+
*       -2.439999962E+01               0
GRID*             172703               0-1.250000000E+001.5099996567E+01+
*       -2.564999962E+01               0
GRID*             175921               0-1.250000000E+001.7039337158E+01+
*       -2.371065903E+01               0
GRID*             172704               0-1.250000000E+001.8100002289E+01+
*       -2.564999962E+01               0
GRID*             175876               0-1.250000000E+001.8100002289E+01+
*       -2.414999962E+01               0
GRID*             175922               00.0000000000E+001.5746443431E+01+
*       -2.500355275E+01               0
GRID*             175923               00.0000000000E+001.6392890294E+01+
*       -2.435710589E+01               0
GRID*             175924               00.0000000000E+001.5423219999E+01+
*       -2.532677619E+01               0
GRID*             175925               00.0000000000E+001.6069666862E+01+
*       -2.468032932E+01               0
GRID*             175926               00.0000000000E+001.6716113726E+01+
*       -2.403388246E+01               0
GRID*             172705               00.0000000000E+001.6599999428E+01+
*       -2.564999962E+01               0
GRID*             172706               00.0000000000E+001.5849997997E+01+
*       -2.564999962E+01               0
GRID*             172707               00.0000000000E+001.7350000858E+01+
*       -2.564999962E+01               0
GRID*             175927               00.0000000000E+001.7525974637E+01+
*       -2.403581904E+01               0
GRID*             175928               00.0000000000E+001.7807365561E+01+
*       -2.412117770E+01               0
GRID*             175929               00.0000000000E+001.7266643796E+01+
*       -2.389720299E+01               0
GRID*             175877               00.0000000000E+001.8100002289E+01+
*       -2.464999962E+01               0
GRID*             175878               00.0000000000E+001.8100002289E+01+
*       -2.514999962E+01               0
GRID*             175879               00.0000000000E+001.8100002289E+01+
*       -2.539999962E+01               0
GRID*             175880               00.0000000000E+001.8100002289E+01+
*       -2.489999962E+01               0
GRID*             175881               00.0000000000E+001.8100002289E+01+
*       -2.439999962E+01               0
GRID*             175901               0-1.249999999E+001.5746443431E+01+
*       -2.500355275E+01               0
GRID*             175902               0-1.250000001E+001.6392890294E+01+
*       -2.435710589E+01               0
GRID*             153360               0-1.250000000E+001.6599999428E+01+
*       -2.564999962E+01               0
GRID*             175904               00.0000000000E+001.6908657831E+01+
*       -2.511193943E+01               0
GRID*             175905               00.0000000000E+001.7217316234E+01+
*       -2.457387923E+01               0
GRID*             175906               00.0000000000E+001.7504330060E+01+
*       -2.513096952E+01               0
GRID*             175907               00.0000000000E+001.6754328629E+01+
*       -2.538096952E+01               0
GRID*             175908               00.0000000000E+001.6327550631E+01+
*       -2.505774609E+01               0
GRID*             175909               00.0000000000E+001.6805103264E+01+
*       -2.446549256E+01               0
GRID*             175910               00.0000000000E+001.7062987033E+01+
*       -2.484290933E+01               0
GRID*             175911               00.0000000000E+001.7371645436E+01+
*       -2.430484914E+01               0
GRID*             175912               00.0000000000E+001.7658659261E+01+
*       -2.461193943E+01               0
GRID*             175892               0-2.500000000E+001.6908657831E+01+
*       -2.511193943E+01               0
GRID*             175893               0-2.500000000E+001.7217316234E+01+
*       -2.457387923E+01               0
GRID*             175894               0-2.500000000E+001.6754328629E+01+
*       -2.538096952E+01               0
GRID*             175895               0-2.500000000E+001.7504330060E+01+
*       -2.513096952E+01               0
GRID*             175896               0-2.500000000E+001.6327550631E+01+
*       -2.505774609E+01               0
GRID*             175897               0-2.500000000E+001.6805103264E+01+
*       -2.446549256E+01               0
GRID*             175898               0-2.500000000E+001.7062987033E+01+
*       -2.484290933E+01               0
GRID*             175899               0-2.500000000E+001.7371645436E+01+
*       -2.430484914E+01               0
GRID*             175900               0-2.500000000E+001.7658659261E+01+
*       -2.461193943E+01               0
GRID*             175903               0-1.250000000E+001.7525974637E+01+
*       -2.403581904E+01               0
GRID*             175869               0-1.250000000E+001.8100002289E+01+
*       -2.464999962E+01               0
GRID*             175870               0-1.250000000E+001.8100002289E+01+
*       -2.514999962E+01               0
GRID*             175890               0-1.250000000E+001.6908657831E+01+
*       -2.511193943E+01               0
GRID*             175891               0-1.250000000E+001.7217316234E+01+
*       -2.457387923E+01               0
GRID*             173855               0-2.500000000E+001.5099996567E+01+
*       -3.200000000E+02               0
GRID*             173856               0-2.500000000E+001.5099996567E+01+
*       -3.230000000E+02               0
GRID*             175046               0-2.500000000E+001.6600000381E+01+
*       -3.200000000E+02               0
GRID*             175047               0-2.500000000E+001.7039337158E+01+
*       -3.210606689E+02               0
GRID*             173857               00.0000000000E+001.5099996567E+01+
*       -3.230000000E+02               0
GRID*             173858               00.0000000000E+001.5099996567E+01+
*       -3.200000000E+02               0
GRID*             175048               00.0000000000E+001.6600000381E+01+
*       -3.200000000E+02               0
GRID*             175049               00.0000000000E+001.7039337158E+01+
*       -3.210606689E+02               0
GRID*             172708               0-2.500000000E+001.5099996567E+01+
*       -3.215000000E+02               0
GRID*             172709               0-2.500000000E+001.5099996567E+01+
*       -3.207500000E+02               0
GRID*             172710               0-2.500000000E+001.5099996567E+01+
*       -3.222500000E+02               0
GRID*             175018               0-2.500000000E+001.6099999110E+01+
*       -3.200000000E+02               0
GRID*             175019               0-2.500000000E+001.5599997838E+01+
*       -3.200000000E+02               0
GRID*             175020               0-2.500000000E+001.5349997203E+01+
*       -3.200000000E+02               0
GRID*             175021               0-2.500000000E+001.5849998474E+01+
*       -3.200000000E+02               0
GRID*             175022               0-2.500000000E+001.6349999746E+01+
*       -3.200000000E+02               0
GRID*             175023               0-2.500000000E+001.6392890294E+01+
*       -3.217071126E+02               0
GRID*             175024               0-2.500000000E+001.5746443431E+01+
*       -3.223535563E+02               0
GRID*             175025               0-2.500000000E+001.5423219999E+01+
*       -3.226767782E+02               0
GRID*             175026               0-2.500000000E+001.6716113726E+01+
*       -3.213838908E+02               0
GRID*             175027               0-2.500000000E+001.6069666862E+01+
*       -3.220303345E+02               0
GRID*             175028               0-2.500000000E+001.6714180684E+01+
*       -3.205740281E+02               0
GRID*             175029               0-2.500000000E+001.6628823061E+01+
*       -3.202926367E+02               0
GRID*             175030               0-2.500000000E+001.6852795027E+01+
*       -3.208333603E+02               0
GRID*             172711               0-1.250000000E+001.5099996567E+01+
*       -3.230000000E+02               0
GRID*             172712               0-1.250000000E+001.5099996567E+01+
*       -3.200000000E+02               0
GRID*             175031               0-1.250000000E+001.6600000381E+01+
*       -3.200000000E+02               0
GRID*             175032               0-1.250000000E+001.7039337158E+01+
*       -3.210606689E+02               0
GRID*             172713               00.0000000000E+001.5099996567E+01+
*       -3.215000000E+02               0
GRID*             172714               00.0000000000E+001.5099996567E+01+
*       -3.207500000E+02               0
GRID*             172715               00.0000000000E+001.5099996567E+01+
*       -3.222500000E+02               0
GRID*             175033               00.0000000000E+001.6099999110E+01+
*       -3.200000000E+02               0
GRID*             175034               00.0000000000E+001.5599997838E+01+
*       -3.200000000E+02               0
GRID*             175035               00.0000000000E+001.6349999746E+01+
*       -3.200000000E+02               0
GRID*             175036               00.0000000000E+001.5849998474E+01+
*       -3.200000000E+02               0
GRID*             175037               00.0000000000E+001.5349997203E+01+
*       -3.200000000E+02               0
GRID*             175038               00.0000000000E+001.6392890294E+01+
*       -3.217071126E+02               0
GRID*             175039               00.0000000000E+001.5746443431E+01+
*       -3.223535563E+02               0
GRID*             175040               00.0000000000E+001.6716113726E+01+
*       -3.213838908E+02               0
GRID*             175041               00.0000000000E+001.6069666862E+01+
*       -3.220303345E+02               0
GRID*             175042               00.0000000000E+001.5423219999E+01+
*       -3.226767782E+02               0
GRID*             175043               00.0000000000E+001.6714180684E+01+
*       -3.205740281E+02               0
GRID*             175044               00.0000000000E+001.6852795027E+01+
*       -3.208333603E+02               0
GRID*             175045               00.0000000000E+001.6628823061E+01+
*       -3.202926367E+02               0
GRID*             175006               0-1.250000001E+001.6392890437E+01+
*       -3.217071128E+02               0
GRID*             175007               0-1.249999999E+001.5746443288E+01+
*       -3.223535562E+02               0
GRID*             153361               0-1.250000000E+001.5099996567E+01+
*       -3.215000000E+02               0
GRID*             175009               00.0000000000E+001.5638057939E+01+
*       -3.211913427E+02               0
GRID*             175010               00.0000000000E+001.6176119312E+01+
*       -3.208826854E+02               0
GRID*             175011               00.0000000000E+001.5692250685E+01+
*       -3.217724495E+02               0
GRID*             175012               00.0000000000E+001.5369027253E+01+
*       -3.213456714E+02               0
GRID*             175013               00.0000000000E+001.5619027889E+01+
*       -3.205956714E+02               0
GRID*             175014               00.0000000000E+001.6138059211E+01+
*       -3.204413427E+02               0
GRID*             175015               00.0000000000E+001.5907088625E+01+
*       -3.210370141E+02               0
GRID*             175016               00.0000000000E+001.6445149998E+01+
*       -3.207283568E+02               0
GRID*             175017               00.0000000000E+001.6284504803E+01+
*       -3.212948990E+02               0
GRID*             174995               0-2.500000000E+001.5638057939E+01+
*       -3.211913427E+02               0
GRID*             174996               0-2.500000000E+001.6176119312E+01+
*       -3.208826854E+02               0
GRID*             174997               0-2.500000000E+001.5369027253E+01+
*       -3.213456714E+02               0
GRID*             174998               0-2.500000000E+001.5692250685E+01+
*       -3.217724495E+02               0
GRID*             174999               0-2.500000000E+001.5619027889E+01+
*       -3.205956714E+02               0
GRID*             175000               0-2.500000000E+001.6138059211E+01+
*       -3.204413427E+02               0
GRID*             175001               0-2.500000000E+001.5907088625E+01+
*       -3.210370141E+02               0
GRID*             175002               0-2.500000000E+001.6445149998E+01+
*       -3.207283568E+02               0
GRID*             175003               0-2.500000000E+001.6284504803E+01+
*       -3.212948990E+02               0
GRID*             175008               0-1.250000000E+001.6714180684E+01+
*       -3.205740281E+02               0
GRID*             175004               0-1.250000000E+001.6099999110E+01+
*       -3.200000000E+02               0
GRID*             175005               0-1.250000000E+001.5599997838E+01+
*       -3.200000000E+02               0
GRID*             174993               0-1.250000000E+001.5638057939E+01+
*       -3.211913427E+02               0
GRID*             174994               0-1.250000000E+001.6176119312E+01+
*       -3.208826854E+02               0
GRID*             172873               0-2.500000000E+001.5099996567E+01+
*       -3.185000000E+02               0
GRID*             172874               0-2.500000000E+001.5099996567E+01+
*       -3.192500000E+02               0
GRID*             172875               0-2.500000000E+001.5099996567E+01+
*       -3.177500000E+02               0
GRID*             175084               0-2.500000000E+001.6714183324E+01+
*       -3.194259730E+02               0
GRID*             175085               0-2.500000000E+001.6852795066E+01+
*       -3.191666396E+02               0
GRID*             175086               0-2.500000000E+001.6628823047E+01+
*       -3.197073633E+02               0
GRID*             172876               00.0000000000E+001.5099996567E+01+
*       -3.185000000E+02               0
GRID*             172877               00.0000000000E+001.5099996567E+01+
*       -3.192500000E+02               0
GRID*             172878               00.0000000000E+001.5099996567E+01+
*       -3.177500000E+02               0
GRID*             175087               00.0000000000E+001.6714183324E+01+
*       -3.194259730E+02               0
GRID*             175088               00.0000000000E+001.6628823047E+01+
*       -3.197073633E+02               0
GRID*             175089               00.0000000000E+001.6852795066E+01+
*       -3.191666396E+02               0
GRID*             153362               0-1.250000000E+001.5099996567E+01+
*       -3.185000000E+02               0
GRID*             175064               00.0000000000E+001.5638058819E+01+
*       -3.188086577E+02               0
GRID*             175065               00.0000000000E+001.6176121071E+01+
*       -3.191173153E+02               0
GRID*             175066               00.0000000000E+001.5619028329E+01+
*       -3.194043288E+02               0
GRID*             175067               00.0000000000E+001.5369027693E+01+
*       -3.186543288E+02               0
GRID*             175068               00.0000000000E+001.5692251125E+01+
*       -3.182275507E+02               0
GRID*             175069               00.0000000000E+001.6284505683E+01+
*       -3.187051014E+02               0
GRID*             175070               00.0000000000E+001.5907089945E+01+
*       -3.189629865E+02               0
GRID*             175071               00.0000000000E+001.6445152197E+01+
*       -3.192716442E+02               0
GRID*             175072               00.0000000000E+001.6138060091E+01+
*       -3.195586577E+02               0
GRID*             175054               0-2.500000000E+001.5638058819E+01+
*       -3.188086577E+02               0
GRID*             175055               0-2.500000000E+001.6176121071E+01+
*       -3.191173153E+02               0
GRID*             175056               0-2.500000000E+001.5369027693E+01+
*       -3.186543288E+02               0
GRID*             175057               0-2.500000000E+001.5619028329E+01+
*       -3.194043288E+02               0
GRID*             175058               0-2.500000000E+001.5692251125E+01+
*       -3.182275507E+02               0
GRID*             175059               0-2.500000000E+001.6284505683E+01+
*       -3.187051014E+02               0
GRID*             175060               0-2.500000000E+001.5907089945E+01+
*       -3.189629865E+02               0
GRID*             175061               0-2.500000000E+001.6445152197E+01+
*       -3.192716442E+02               0
GRID*             175062               0-2.500000000E+001.6138060091E+01+
*       -3.195586577E+02               0
GRID*             175063               0-1.250000000E+001.6714183324E+01+
*       -3.194259730E+02               0
GRID*             175050               0-1.250000000E+001.5638058819E+01+
*       -3.188086577E+02               0
GRID*             175051               0-1.250000000E+001.6176121071E+01+
*       -3.191173153E+02               0
GRID*             172885               0-2.500000000E+001.5099996567E+01+
*       -2.414999962E+01               0
GRID*             172886               0-2.500000000E+001.5099996567E+01+
*       -2.339999962E+01               0
GRID*             172887               0-2.500000000E+001.5099996567E+01+
*       -2.489999962E+01               0
GRID*             175966               0-2.500000000E+001.6714179366E+01+
*       -2.322402421E+01               0
GRID*             175967               0-2.500000000E+001.6628822333E+01+
*       -2.294263462E+01               0
GRID*             175968               0-2.500000000E+001.6852793724E+01+
*       -2.348335415E+01               0
GRID*             172888               00.0000000000E+001.5099996567E+01+
*       -2.414999962E+01               0
GRID*             172889               00.0000000000E+001.5099996567E+01+
*       -2.339999962E+01               0
GRID*             172890               00.0000000000E+001.5099996567E+01+
*       -2.489999962E+01               0
GRID*             175969               00.0000000000E+001.6714179366E+01+
*       -2.322402421E+01               0
GRID*             175970               00.0000000000E+001.6852793724E+01+
*       -2.348335415E+01               0
GRID*             175971               00.0000000000E+001.6628822333E+01+
*       -2.294263462E+01               0
GRID*             153363               0-1.250000000E+001.5099996567E+01+
*       -2.414999962E+01               0
GRID*             175944               00.0000000000E+001.5638057500E+01+
*       -2.384134115E+01               0
GRID*             175945               00.0000000000E+001.6176118433E+01+
*       -2.353268268E+01               0
GRID*             175946               00.0000000000E+001.5692250465E+01+
*       -2.442244695E+01               0
GRID*             175947               00.0000000000E+001.5369027033E+01+
*       -2.399567038E+01               0
GRID*             175948               00.0000000000E+001.5619027669E+01+
*       -2.324567038E+01               0
GRID*             175949               00.0000000000E+001.6138058771E+01+
*       -2.309134115E+01               0
GRID*             175950               00.0000000000E+001.5907087966E+01+
*       -2.368701192E+01               0
GRID*             175951               00.0000000000E+001.6445148900E+01+
*       -2.337835345E+01               0
GRID*             175952               00.0000000000E+001.6284504364E+01+
*       -2.394489429E+01               0
GRID*             175934               0-2.500000000E+001.5638057500E+01+
*       -2.384134115E+01               0
GRID*             175935               0-2.500000000E+001.6176118433E+01+
*       -2.353268268E+01               0
GRID*             175936               0-2.500000000E+001.5369027033E+01+
*       -2.399567038E+01               0
GRID*             175937               0-2.500000000E+001.5692250465E+01+
*       -2.442244695E+01               0
GRID*             175938               0-2.500000000E+001.5619027669E+01+
*       -2.324567038E+01               0
GRID*             175939               0-2.500000000E+001.6138058771E+01+
*       -2.309134115E+01               0
GRID*             175940               0-2.500000000E+001.5907087966E+01+
*       -2.368701192E+01               0
GRID*             175941               0-2.500000000E+001.6445148900E+01+
*       -2.337835345E+01               0
GRID*             175942               0-2.500000000E+001.6284504364E+01+
*       -2.394489429E+01               0
GRID*             175943               0-1.250000000E+001.6714179366E+01+
*       -2.322402421E+01               0
GRID*             175932               0-1.250000000E+001.5638057500E+01+
*       -2.384134115E+01               0
GRID*             175933               0-1.250000000E+001.6176118433E+01+
*       -2.353268268E+01               0
GRID*             173859               0-2.500000000E+001.5099996567E+01+
*       -1.964999962E+01               0
GRID*             173860               0-2.500000000E+001.5099996567E+01+
*       -2.264999962E+01               0
GRID*             175972               0-2.500000000E+001.6600000381E+01+
*       -2.264999962E+01               0
GRID*             175720               0-2.500000000E+001.7039337158E+01+
*       -2.158934021E+01               0
GRID*             173861               00.0000000000E+001.5099996567E+01+
*       -2.264999962E+01               0
GRID*             173862               00.0000000000E+001.5099996567E+01+
*       -1.964999962E+01               0
GRID*             175973               00.0000000000E+001.6600000381E+01+
*       -2.264999962E+01               0
GRID*             175721               00.0000000000E+001.7039337158E+01+
*       -2.158934021E+01               0
GRID*             172716               0-2.500000000E+001.5099996567E+01+
*       -2.114999962E+01               0
GRID*             172717               0-2.500000000E+001.5099996567E+01+
*       -2.189999962E+01               0
GRID*             172718               0-2.500000000E+001.5099996567E+01+
*       -2.039999962E+01               0
GRID*             175955               0-2.500000000E+001.6099999110E+01+
*       -2.264999962E+01               0
GRID*             175956               0-2.500000000E+001.5599997838E+01+
*       -2.264999962E+01               0
GRID*             175957               0-2.500000000E+001.5349997203E+01+
*       -2.264999962E+01               0
GRID*             175958               0-2.500000000E+001.5849998474E+01+
*       -2.264999962E+01               0
GRID*             175959               0-2.500000000E+001.6349999746E+01+
*       -2.264999962E+01               0
GRID*             175701               0-2.500000000E+001.6392890294E+01+
*       -2.094289335E+01               0
GRID*             175702               0-2.500000000E+001.5746443431E+01+
*       -2.029644648E+01               0
GRID*             175703               0-2.500000000E+001.5423219999E+01+
*       -1.997322305E+01               0
GRID*             175704               0-2.500000000E+001.6716113726E+01+
*       -2.126611678E+01               0
GRID*             175705               0-2.500000000E+001.6069666862E+01+
*       -2.061966991E+01               0
GRID*             175995               0-2.500000000E+001.6714179988E+01+
*       -2.207597543E+01               0
GRID*             175996               0-2.500000000E+001.6852794623E+01+
*       -2.181664565E+01               0
GRID*             175997               0-2.500000000E+001.6628822317E+01+
*       -2.235736471E+01               0
GRID*             172719               0-1.250000000E+001.5099996567E+01+
*       -2.264999962E+01               0
GRID*             172720               0-1.250000000E+001.5099996567E+01+
*       -1.964999962E+01               0
GRID*             175960               0-1.250000000E+001.6600000381E+01+
*       -2.264999962E+01               0
GRID*             175706               0-1.250000000E+001.7039337158E+01+
*       -2.158934021E+01               0
GRID*             172721               00.0000000000E+001.5099996567E+01+
*       -2.114999962E+01               0
GRID*             172722               00.0000000000E+001.5099996567E+01+
*       -2.189999962E+01               0
GRID*             172723               00.0000000000E+001.5099996567E+01+
*       -2.039999962E+01               0
GRID*             175961               00.0000000000E+001.6099999110E+01+
*       -2.264999962E+01               0
GRID*             175962               00.0000000000E+001.5599997838E+01+
*       -2.264999962E+01               0
GRID*             175963               00.0000000000E+001.5349997203E+01+
*       -2.264999962E+01               0
GRID*             175964               00.0000000000E+001.5849998474E+01+
*       -2.264999962E+01               0
GRID*             175965               00.0000000000E+001.6349999746E+01+
*       -2.264999962E+01               0
GRID*             175707               00.0000000000E+001.5746443431E+01+
*       -2.029644648E+01               0
GRID*             175708               00.0000000000E+001.6392890294E+01+
*       -2.094289335E+01               0
GRID*             175709               00.0000000000E+001.5423219999E+01+
*       -1.997322305E+01               0
GRID*             175710               00.0000000000E+001.6716113726E+01+
*       -2.126611678E+01               0
GRID*             175711               00.0000000000E+001.6069666862E+01+
*       -2.061966991E+01               0
GRID*             175998               00.0000000000E+001.6714179988E+01+
*       -2.207597543E+01               0
GRID*             175999               00.0000000000E+001.6852794623E+01+
*       -2.181664565E+01               0
GRID*             176000               00.0000000000E+001.6628822317E+01+
*       -2.235736471E+01               0
GRID*             175688               0-1.249999999E+001.5746443431E+01+
*       -2.029644648E+01               0
GRID*             175689               0-1.250000001E+001.6392890294E+01+
*       -2.094289335E+01               0
GRID*             153364               0-1.250000000E+001.5099996567E+01+
*       -2.114999962E+01               0
GRID*             175986               00.0000000000E+001.5638057707E+01+
*       -2.145865822E+01               0
GRID*             175987               00.0000000000E+001.6176118848E+01+
*       -2.176731682E+01               0
GRID*             175988               00.0000000000E+001.5619027773E+01+
*       -2.205432892E+01               0
GRID*             175989               00.0000000000E+001.5369027137E+01+
*       -2.130432892E+01               0
GRID*             175990               00.0000000000E+001.5692250569E+01+
*       -2.087755235E+01               0
GRID*             175991               00.0000000000E+001.6284504571E+01+
*       -2.135510509E+01               0
GRID*             175992               00.0000000000E+001.5907088278E+01+
*       -2.161298752E+01               0
GRID*             175993               00.0000000000E+001.6445149418E+01+
*       -2.192164613E+01               0
GRID*             175994               00.0000000000E+001.6138058979E+01+
*       -2.220865822E+01               0
GRID*             175976               0-2.500000000E+001.5638057707E+01+
*       -2.145865822E+01               0
GRID*             175977               0-2.500000000E+001.6176118848E+01+
*       -2.176731682E+01               0
GRID*             175978               0-2.500000000E+001.5369027137E+01+
*       -2.130432892E+01               0
GRID*             175979               0-2.500000000E+001.5619027773E+01+
*       -2.205432892E+01               0
GRID*             175980               0-2.500000000E+001.5692250569E+01+
*       -2.087755235E+01               0
GRID*             175981               0-2.500000000E+001.6284504571E+01+
*       -2.135510509E+01               0
GRID*             175982               0-2.500000000E+001.5907088278E+01+
*       -2.161298752E+01               0
GRID*             175983               0-2.500000000E+001.6445149418E+01+
*       -2.192164613E+01               0
GRID*             175984               0-2.500000000E+001.6138058979E+01+
*       -2.220865822E+01               0
GRID*             175985               0-1.250000000E+001.6714179988E+01+
*       -2.207597543E+01               0
GRID*             175953               0-1.250000000E+001.5599997838E+01+
*       -2.264999962E+01               0
GRID*             175954               0-1.250000000E+001.6099999110E+01+
*       -2.264999962E+01               0
GRID*             175974               0-1.250000000E+001.5638057707E+01+
*       -2.145865822E+01               0
GRID*             175975               0-1.250000000E+001.6176118848E+01+
*       -2.176731682E+01               0
GRID*             174622               0-2.500000000E+001.3385820887E+01+
*       -2.205740229E+02               0
GRID*             174623               0-2.500000000E+001.3247206517E+01+
*       -2.208333519E+02               0
GRID*             174624               0-2.500000000E+001.3471177836E+01+
*       -2.202926342E+02               0
GRID*             172915               0-2.500000000E+001.5000002861E+01+
*       -2.215000000E+02               0
GRID*             172916               0-2.500000000E+001.5000002861E+01+
*       -2.222500000E+02               0
GRID*             172917               0-2.500000000E+001.5000002861E+01+
*       -2.207500000E+02               0
GRID*             174625               00.0000000000E+001.3385820887E+01+
*       -2.205740229E+02               0
GRID*             174626               00.0000000000E+001.3471177836E+01+
*       -2.202926342E+02               0
GRID*             174627               00.0000000000E+001.3247206517E+01+
*       -2.208333519E+02               0
GRID*             172918               00.0000000000E+001.5000002861E+01+
*       -2.215000000E+02               0
GRID*             172919               00.0000000000E+001.5000002861E+01+
*       -2.222500000E+02               0
GRID*             172920               00.0000000000E+001.5000002861E+01+
*       -2.207500000E+02               0
GRID*             153365               0-1.250000000E+001.5000002861E+01+
*       -2.215000000E+02               0
GRID*             174600               00.0000000000E+001.4461942203E+01+
*       -2.211913410E+02               0
GRID*             174601               00.0000000000E+001.3923881545E+01+
*       -2.208826820E+02               0
GRID*             174602               00.0000000000E+001.4480971896E+01+
*       -2.205956705E+02               0
GRID*             174603               00.0000000000E+001.4730972532E+01+
*       -2.213456705E+02               0
GRID*             174604               00.0000000000E+001.4407748941E+01+
*       -2.217724461E+02               0
GRID*             174605               00.0000000000E+001.3815495021E+01+
*       -2.212948922E+02               0
GRID*             174606               00.0000000000E+001.4192911874E+01+
*       -2.210370115E+02               0
GRID*             174607               00.0000000000E+001.3654851216E+01+
*       -2.207283524E+02               0
GRID*             174608               00.0000000000E+001.3961940932E+01+
*       -2.204413410E+02               0
GRID*             174590               0-2.500000000E+001.4461942203E+01+
*       -2.211913410E+02               0
GRID*             174591               0-2.500000000E+001.3923881545E+01+
*       -2.208826820E+02               0
GRID*             174592               0-2.500000000E+001.4730972532E+01+
*       -2.213456705E+02               0
GRID*             174593               0-2.500000000E+001.4480971896E+01+
*       -2.205956705E+02               0
GRID*             174594               0-2.500000000E+001.4407748941E+01+
*       -2.217724461E+02               0
GRID*             174595               0-2.500000000E+001.3815495021E+01+
*       -2.212948922E+02               0
GRID*             174596               0-2.500000000E+001.4192911874E+01+
*       -2.210370115E+02               0
GRID*             174597               0-2.500000000E+001.3654851216E+01+
*       -2.207283524E+02               0
GRID*             174598               0-2.500000000E+001.3961940932E+01+
*       -2.204413410E+02               0
GRID*             174599               0-1.250000000E+001.3385820887E+01+
*       -2.205740229E+02               0
GRID*             174588               0-1.250000000E+001.4461942203E+01+
*       -2.211913410E+02               0
GRID*             174589               0-1.250000000E+001.3923881545E+01+
*       -2.208826820E+02               0
GRID*             174544               0-2.500000000E+001.3060661316E+01+
*       -2.189393463E+02               0
GRID*             174586               0-2.500000000E+001.3499999046E+01+
*       -2.200000000E+02               0
GRID*             173864               0-2.500000000E+001.5000002861E+01+
*       -2.170000000E+02               0
GRID*             173863               0-2.500000000E+001.5000002861E+01+
*       -2.200000000E+02               0
GRID*             174545               00.0000000000E+001.3060661316E+01+
*       -2.189393463E+02               0
GRID*             174587               00.0000000000E+001.3499999046E+01+
*       -2.200000000E+02               0
GRID*             173865               00.0000000000E+001.5000002861E+01+
*       -2.200000000E+02               0
GRID*             173866               00.0000000000E+001.5000002861E+01+
*       -2.170000000E+02               0
GRID*             174569               0-2.500000000E+001.3385820885E+01+
*       -2.194259771E+02               0
GRID*             174570               0-2.500000000E+001.3471177837E+01+
*       -2.197073658E+02               0
GRID*             174571               0-2.500000000E+001.3247206516E+01+
*       -2.191666481E+02               0
GRID*             174527               0-2.500000000E+001.3707108498E+01+
*       -2.182928975E+02               0
GRID*             174528               0-2.500000000E+001.4353555679E+01+
*       -2.176464488E+02               0
GRID*             174529               0-2.500000000E+001.4676779270E+01+
*       -2.173232244E+02               0
GRID*             174530               0-2.500000000E+001.4030332088E+01+
*       -2.179696732E+02               0
GRID*             174531               0-2.500000000E+001.3383884907E+01+
*       -2.186161219E+02               0
GRID*             174572               0-2.500000000E+001.4000000318E+01+
*       -2.200000000E+02               0
GRID*             174573               0-2.500000000E+001.4500001589E+01+
*       -2.200000000E+02               0
GRID*             174574               0-2.500000000E+001.4750002225E+01+
*       -2.200000000E+02               0
GRID*             174575               0-2.500000000E+001.4250000954E+01+
*       -2.200000000E+02               0
GRID*             174576               0-2.500000000E+001.3749999682E+01+
*       -2.200000000E+02               0
GRID*             172724               0-2.500000000E+001.5000002861E+01+
*       -2.185000000E+02               0
GRID*             172725               0-2.500000000E+001.5000002861E+01+
*       -2.177500000E+02               0
GRID*             172726               0-2.500000000E+001.5000002861E+01+
*       -2.192500000E+02               0
GRID*             174532               0-1.250000000E+001.3060661316E+01+
*       -2.189393463E+02               0
GRID*             174577               0-1.250000000E+001.3499999046E+01+
*       -2.200000000E+02               0
GRID*             172727               0-1.250000000E+001.5000002861E+01+
*       -2.200000000E+02               0
GRID*             172728               0-1.250000000E+001.5000002861E+01+
*       -2.170000000E+02               0
GRID*             174578               00.0000000000E+001.3385820885E+01+
*       -2.194259771E+02               0
GRID*             174579               00.0000000000E+001.3471177837E+01+
*       -2.197073658E+02               0
GRID*             174580               00.0000000000E+001.3247206516E+01+
*       -2.191666481E+02               0
GRID*             174533               00.0000000000E+001.4353555679E+01+
*       -2.176464488E+02               0
GRID*             174534               00.0000000000E+001.3707108498E+01+
*       -2.182928975E+02               0
GRID*             174535               00.0000000000E+001.4676779270E+01+
*       -2.173232244E+02               0
GRID*             174536               00.0000000000E+001.4030332088E+01+
*       -2.179696732E+02               0
GRID*             174537               00.0000000000E+001.3383884907E+01+
*       -2.186161219E+02               0
GRID*             174581               00.0000000000E+001.4000000318E+01+
*       -2.200000000E+02               0
GRID*             174582               00.0000000000E+001.4500001589E+01+
*       -2.200000000E+02               0
GRID*             174583               00.0000000000E+001.4750002225E+01+
*       -2.200000000E+02               0
GRID*             174584               00.0000000000E+001.4250000954E+01+
*       -2.200000000E+02               0
GRID*             174585               00.0000000000E+001.3749999682E+01+
*       -2.200000000E+02               0
GRID*             172729               00.0000000000E+001.5000002861E+01+
*       -2.185000000E+02               0
GRID*             172730               00.0000000000E+001.5000002861E+01+
*       -2.177500000E+02               0
GRID*             172731               00.0000000000E+001.5000002861E+01+
*       -2.192500000E+02               0
GRID*             174506               0-1.249999999E+001.4353555608E+01+
*       -2.176464487E+02               0
GRID*             174507               0-1.250000001E+001.3707108569E+01+
*       -2.182928976E+02               0
GRID*             153366               0-1.250000000E+001.5000002861E+01+
*       -2.185000000E+02               0
GRID*             174560               00.0000000000E+001.4461942202E+01+
*       -2.188086590E+02               0
GRID*             174561               00.0000000000E+001.3923881544E+01+
*       -2.191173180E+02               0
GRID*             174562               00.0000000000E+001.4407748941E+01+
*       -2.182275539E+02               0
GRID*             174563               00.0000000000E+001.4730972532E+01+
*       -2.186543295E+02               0
GRID*             174564               00.0000000000E+001.4480971896E+01+
*       -2.194043295E+02               0
GRID*             174565               00.0000000000E+001.3961940931E+01+
*       -2.195586590E+02               0
GRID*             174566               00.0000000000E+001.4192911873E+01+
*       -2.189629885E+02               0
GRID*             174567               00.0000000000E+001.3654851214E+01+
*       -2.192716476E+02               0
GRID*             174568               00.0000000000E+001.3815495021E+01+
*       -2.187051078E+02               0
GRID*             174548               0-2.500000000E+001.4461942202E+01+
*       -2.188086590E+02               0
GRID*             174549               0-2.500000000E+001.3923881544E+01+
*       -2.191173180E+02               0
GRID*             174550               0-2.500000000E+001.4730972532E+01+
*       -2.186543295E+02               0
GRID*             174551               0-2.500000000E+001.4407748941E+01+
*       -2.182275539E+02               0
GRID*             174552               0-2.500000000E+001.4480971896E+01+
*       -2.194043295E+02               0
GRID*             174553               0-2.500000000E+001.3961940931E+01+
*       -2.195586590E+02               0
GRID*             174554               0-2.500000000E+001.4192911873E+01+
*       -2.189629885E+02               0
GRID*             174555               0-2.500000000E+001.3654851214E+01+
*       -2.192716476E+02               0
GRID*             174556               0-2.500000000E+001.3815495021E+01+
*       -2.187051078E+02               0
GRID*             174557               0-1.250000000E+001.3385820885E+01+
*       -2.194259771E+02               0
GRID*             174558               0-1.250000000E+001.4500001589E+01+
*       -2.200000000E+02               0
GRID*             174559               0-1.250000000E+001.4000000318E+01+
*       -2.200000000E+02               0
GRID*             174546               0-1.250000000E+001.4461942202E+01+
*       -2.188086590E+02               0
GRID*             174547               0-1.250000000E+001.3923881544E+01+
*       -2.191173180E+02               0
GRID*             176503               0-2.500000000E+001.3499999046E+01+
*       -1.200000000E+02               0
GRID*             176545               0-2.500000000E+001.3060661316E+01+
*       -1.210606537E+02               0
GRID*             173867               0-2.500000000E+001.5000002861E+01+
*       -1.230000000E+02               0
GRID*             173868               0-2.500000000E+001.5000002861E+01+
*       -1.200000000E+02               0
GRID*             176546               00.0000000000E+001.3060661316E+01+
*       -1.210606537E+02               0
GRID*             176504               00.0000000000E+001.3499999046E+01+
*       -1.200000000E+02               0
GRID*             173869               00.0000000000E+001.5000002861E+01+
*       -1.230000000E+02               0
GRID*             173870               00.0000000000E+001.5000002861E+01+
*       -1.200000000E+02               0
GRID*             176528               0-2.500000000E+001.3385820449E+01+
*       -1.205740225E+02               0
GRID*             176529               0-2.500000000E+001.3247205808E+01+
*       -1.208333510E+02               0
GRID*             176530               0-2.500000000E+001.3471177854E+01+
*       -1.202926341E+02               0
GRID*             176531               0-2.500000000E+001.3707108498E+01+
*       -1.217071025E+02               0
GRID*             176532               0-2.500000000E+001.4353555679E+01+
*       -1.223535512E+02               0
GRID*             176533               0-2.500000000E+001.4676779270E+01+
*       -1.226767756E+02               0
GRID*             176534               0-2.500000000E+001.4030332088E+01+
*       -1.220303268E+02               0
GRID*             176535               0-2.500000000E+001.3383884907E+01+
*       -1.213838781E+02               0
GRID*             176486               0-2.500000000E+001.4500001589E+01+
*       -1.200000000E+02               0
GRID*             176487               0-2.500000000E+001.4000000318E+01+
*       -1.200000000E+02               0
GRID*             176488               0-2.500000000E+001.3749999682E+01+
*       -1.200000000E+02               0
GRID*             176489               0-2.500000000E+001.4250000954E+01+
*       -1.200000000E+02               0
GRID*             176490               0-2.500000000E+001.4750002225E+01+
*       -1.200000000E+02               0
GRID*             172732               0-2.500000000E+001.5000002861E+01+
*       -1.215000000E+02               0
GRID*             172733               0-2.500000000E+001.5000002861E+01+
*       -1.207500000E+02               0
GRID*             172734               0-2.500000000E+001.5000002861E+01+
*       -1.222500000E+02               0
GRID*             176536               0-1.250000000E+001.3060661316E+01+
*       -1.210606537E+02               0
GRID*             176491               0-1.250000000E+001.3499999046E+01+
*       -1.200000000E+02               0
GRID*             172735               0-1.250000000E+001.5000002861E+01+
*       -1.230000000E+02               0
GRID*             172736               0-1.250000000E+001.5000002861E+01+
*       -1.200000000E+02               0
GRID*             176537               00.0000000000E+001.3385820449E+01+
*       -1.205740225E+02               0
GRID*             176538               00.0000000000E+001.3471177854E+01+
*       -1.202926341E+02               0
GRID*             176539               00.0000000000E+001.3247205808E+01+
*       -1.208333510E+02               0
GRID*             176540               00.0000000000E+001.3707108498E+01+
*       -1.217071025E+02               0
GRID*             176541               00.0000000000E+001.4353555679E+01+
*       -1.223535512E+02               0
GRID*             176542               00.0000000000E+001.4676779270E+01+
*       -1.226767756E+02               0
GRID*             176543               00.0000000000E+001.4030332088E+01+
*       -1.220303268E+02               0
GRID*             176544               00.0000000000E+001.3383884907E+01+
*       -1.213838781E+02               0
GRID*             176492               00.0000000000E+001.4500001589E+01+
*       -1.200000000E+02               0
GRID*             176493               00.0000000000E+001.4000000318E+01+
*       -1.200000000E+02               0
GRID*             176494               00.0000000000E+001.3749999682E+01+
*       -1.200000000E+02               0
GRID*             176495               00.0000000000E+001.4250000954E+01+
*       -1.200000000E+02               0
GRID*             176496               00.0000000000E+001.4750002225E+01+
*       -1.200000000E+02               0
GRID*             172737               00.0000000000E+001.5000002861E+01+
*       -1.215000000E+02               0
GRID*             172738               00.0000000000E+001.5000002861E+01+
*       -1.207500000E+02               0
GRID*             172739               00.0000000000E+001.5000002861E+01+
*       -1.222500000E+02               0
GRID*             176517               0-1.250000001E+001.4353555608E+01+
*       -1.223535513E+02               0
GRID*             176518               0-1.249999999E+001.3707108569E+01+
*       -1.217071024E+02               0
GRID*             153367               0-1.250000000E+001.5000002861E+01+
*       -1.215000000E+02               0
GRID*             176519               00.0000000000E+001.4461942057E+01+
*       -1.211913408E+02               0
GRID*             176520               00.0000000000E+001.3923881253E+01+
*       -1.208826817E+02               0
GRID*             176521               00.0000000000E+001.4480971823E+01+
*       -1.205956704E+02               0
GRID*             176522               00.0000000000E+001.4730972459E+01+
*       -1.213456704E+02               0
GRID*             176523               00.0000000000E+001.4407748868E+01+
*       -1.217724460E+02               0
GRID*             176524               00.0000000000E+001.3815494875E+01+
*       -1.212948921E+02               0
GRID*             176525               00.0000000000E+001.4192911655E+01+
*       -1.210370113E+02               0
GRID*             176526               00.0000000000E+001.3654850851E+01+
*       -1.207283521E+02               0
GRID*             176527               00.0000000000E+001.3961940785E+01+
*       -1.204413408E+02               0
GRID*             176507               0-2.500000000E+001.4461942057E+01+
*       -1.211913408E+02               0
GRID*             176508               0-2.500000000E+001.3923881253E+01+
*       -1.208826817E+02               0
GRID*             176509               0-2.500000000E+001.4730972459E+01+
*       -1.213456704E+02               0
GRID*             176510               0-2.500000000E+001.4480971823E+01+
*       -1.205956704E+02               0
GRID*             176511               0-2.500000000E+001.4407748868E+01+
*       -1.217724460E+02               0
GRID*             176512               0-2.500000000E+001.3815494875E+01+
*       -1.212948921E+02               0
GRID*             176513               0-2.500000000E+001.4192911655E+01+
*       -1.210370113E+02               0
GRID*             176514               0-2.500000000E+001.3654850851E+01+
*       -1.207283521E+02               0
GRID*             176515               0-2.500000000E+001.3961940785E+01+
*       -1.204413408E+02               0
GRID*             176516               0-1.250000000E+001.3385820449E+01+
*       -1.205740225E+02               0
GRID*             176465               0-1.250000000E+001.4000000318E+01+
*       -1.200000000E+02               0
GRID*             176466               0-1.250000000E+001.4500001589E+01+
*       -1.200000000E+02               0
GRID*             176505               0-1.250000000E+001.4461942057E+01+
*       -1.211913408E+02               0
GRID*             176506               0-1.250000000E+001.3923881253E+01+
*       -1.208826817E+02               0
GRID*             176497               0-2.500000000E+001.3385819322E+01+
*       -1.194259747E+02               0
GRID*             176498               0-2.500000000E+001.3471178108E+01+
*       -1.197073644E+02               0
GRID*             176499               0-2.500000000E+001.3247204250E+01+
*       -1.191666447E+02               0
GRID*             172921               0-2.500000000E+001.5000002861E+01+
*       -1.185000000E+02               0
GRID*             172922               0-2.500000000E+001.5000002861E+01+
*       -1.177500000E+02               0
GRID*             172923               0-2.500000000E+001.5000002861E+01+
*       -1.192500000E+02               0
GRID*             176500               00.0000000000E+001.3385819322E+01+
*       -1.194259747E+02               0
GRID*             176501               00.0000000000E+001.3247204250E+01+
*       -1.191666447E+02               0
GRID*             176502               00.0000000000E+001.3471178108E+01+
*       -1.197073644E+02               0
GRID*             172924               00.0000000000E+001.5000002861E+01+
*       -1.185000000E+02               0
GRID*             172925               00.0000000000E+001.5000002861E+01+
*       -1.177500000E+02               0
GRID*             172926               00.0000000000E+001.5000002861E+01+
*       -1.192500000E+02               0
GRID*             153368               0-1.250000000E+001.5000002861E+01+
*       -1.185000000E+02               0
GRID*             176477               00.0000000000E+001.4461941681E+01+
*       -1.188086582E+02               0
GRID*             176478               00.0000000000E+001.3923880501E+01+
*       -1.191173165E+02               0
GRID*             176479               00.0000000000E+001.4407748680E+01+
*       -1.182275522E+02               0
GRID*             176480               00.0000000000E+001.4730972271E+01+
*       -1.186543291E+02               0
GRID*             176481               00.0000000000E+001.4480971635E+01+
*       -1.194043291E+02               0
GRID*             176482               00.0000000000E+001.3961940410E+01+
*       -1.195586582E+02               0
GRID*             176483               00.0000000000E+001.4192911091E+01+
*       -1.189629874E+02               0
GRID*             176484               00.0000000000E+001.3654849912E+01+
*       -1.192716456E+02               0
GRID*             176485               00.0000000000E+001.3815494500E+01+
*       -1.187051045E+02               0
GRID*             176467               0-2.500000000E+001.4461941681E+01+
*       -1.188086582E+02               0
GRID*             176468               0-2.500000000E+001.3923880501E+01+
*       -1.191173165E+02               0
GRID*             176469               0-2.500000000E+001.4730972271E+01+
*       -1.186543291E+02               0
GRID*             176470               0-2.500000000E+001.4407748680E+01+
*       -1.182275522E+02               0
GRID*             176471               0-2.500000000E+001.4480971635E+01+
*       -1.194043291E+02               0
GRID*             176472               0-2.500000000E+001.3961940410E+01+
*       -1.195586582E+02               0
GRID*             176473               0-2.500000000E+001.4192911091E+01+
*       -1.189629874E+02               0
GRID*             176474               0-2.500000000E+001.3654849912E+01+
*       -1.192716456E+02               0
GRID*             176475               0-2.500000000E+001.3815494500E+01+
*       -1.187051045E+02               0
GRID*             176476               0-1.250000000E+001.3385819322E+01+
*       -1.194259747E+02               0
GRID*             176463               0-1.250000000E+001.4461941681E+01+
*       -1.188086582E+02               0
GRID*             176464               0-1.250000000E+001.3923880501E+01+
*       -1.191173165E+02               0
GRID*             174326               0-2.500000000E+001.1999996185E+01+
*       -2.215000000E+02               0
GRID*             173872               0-2.500000000E+001.1999996185E+01+
*       -2.230000000E+02               0
GRID*             174628               0-2.500000000E+001.3060661316E+01+
*       -2.210606537E+02               0
GRID*             173871               0-2.500000000E+001.5000002861E+01+
*       -2.230000000E+02               0
GRID*             173873               00.0000000000E+001.1999996185E+01+
*       -2.230000000E+02               0
GRID*             174327               00.0000000000E+001.1999996185E+01+
*       -2.215000000E+02               0
GRID*             174629               00.0000000000E+001.3060661316E+01+
*       -2.210606537E+02               0
GRID*             173874               00.0000000000E+001.5000002861E+01+
*       -2.230000000E+02               0
GRID*             174302               0-2.500000000E+001.1999996185E+01+
*       -2.220000000E+02               0
GRID*             174303               0-2.500000000E+001.1999996185E+01+
*       -2.225000000E+02               0
GRID*             174304               0-2.500000000E+001.1999996185E+01+
*       -2.217500000E+02               0
GRID*             174305               0-2.500000000E+001.1999996185E+01+
*       -2.222500000E+02               0
GRID*             174306               0-2.500000000E+001.1999996185E+01+
*       -2.227500000E+02               0
GRID*             174651               0-2.500000000E+001.2574025915E+01+
*       -2.213858186E+02               0
GRID*             174652               0-2.500000000E+001.2292633289E+01+
*       -2.214711755E+02               0
GRID*             174653               0-2.500000000E+001.2833359371E+01+
*       -2.212472053E+02               0
GRID*             172740               0-2.500000000E+001.3499999523E+01+
*       -2.230000000E+02               0
GRID*             172741               0-2.500000000E+001.2749997854E+01+
*       -2.230000000E+02               0
GRID*             172742               0-2.500000000E+001.4250001192E+01+
*       -2.230000000E+02               0
GRID*             174611               0-2.500000000E+001.3707108498E+01+
*       -2.217071025E+02               0
GRID*             174612               0-2.500000000E+001.4353555679E+01+
*       -2.223535512E+02               0
GRID*             174613               0-2.500000000E+001.4676779270E+01+
*       -2.226767756E+02               0
GRID*             174614               0-2.500000000E+001.4030332088E+01+
*       -2.220303268E+02               0
GRID*             174615               0-2.500000000E+001.3383884907E+01+
*       -2.213838781E+02               0
GRID*             172743               0-1.250000000E+001.1999996185E+01+
*       -2.230000000E+02               0
GRID*             174307               0-1.250000000E+001.1999996185E+01+
*       -2.215000000E+02               0
GRID*             174616               0-1.250000000E+001.3060661316E+01+
*       -2.210606537E+02               0
GRID*             172744               0-1.250000000E+001.5000002861E+01+
*       -2.230000000E+02               0
GRID*             174308               00.0000000000E+001.1999996185E+01+
*       -2.225000000E+02               0
GRID*             174309               00.0000000000E+001.1999996185E+01+
*       -2.220000000E+02               0
GRID*             174310               00.0000000000E+001.1999996185E+01+
*       -2.217500000E+02               0
GRID*             174311               00.0000000000E+001.1999996185E+01+
*       -2.222500000E+02               0
GRID*             174312               00.0000000000E+001.1999996185E+01+
*       -2.227500000E+02               0
GRID*             174654               00.0000000000E+001.2574025915E+01+
*       -2.213858186E+02               0
GRID*             174655               00.0000000000E+001.2292633289E+01+
*       -2.214711755E+02               0
GRID*             174656               00.0000000000E+001.2833359371E+01+
*       -2.212472053E+02               0
GRID*             172745               00.0000000000E+001.3499999523E+01+
*       -2.230000000E+02               0
GRID*             172746               00.0000000000E+001.2749997854E+01+
*       -2.230000000E+02               0
GRID*             172747               00.0000000000E+001.4250001192E+01+
*       -2.230000000E+02               0
GRID*             174617               00.0000000000E+001.3707108498E+01+
*       -2.217071025E+02               0
GRID*             174618               00.0000000000E+001.4353555679E+01+
*       -2.223535512E+02               0
GRID*             174619               00.0000000000E+001.4676779270E+01+
*       -2.226767756E+02               0
GRID*             174620               00.0000000000E+001.4030332088E+01+
*       -2.220303268E+02               0
GRID*             174621               00.0000000000E+001.3383884907E+01+
*       -2.213838781E+02               0
GRID*             174609               0-1.250000001E+001.4353555608E+01+
*       -2.223535513E+02               0
GRID*             174610               0-1.249999999E+001.3707108569E+01+
*       -2.217071024E+02               0
GRID*             153369               0-1.250000000E+001.3499999523E+01+
*       -2.230000000E+02               0
GRID*             174642               00.0000000000E+001.3191341654E+01+
*       -2.224619395E+02               0
GRID*             174643               00.0000000000E+001.2882683784E+01+
*       -2.219238790E+02               0
GRID*             174644               00.0000000000E+001.3772448666E+01+
*       -2.224077454E+02               0
GRID*             174645               00.0000000000E+001.3345670588E+01+
*       -2.227309698E+02               0
GRID*             174646               00.0000000000E+001.2595668919E+01+
*       -2.224809698E+02               0
GRID*             174647               00.0000000000E+001.2441339985E+01+
*       -2.219619395E+02               0
GRID*             174648               00.0000000000E+001.3037012719E+01+
*       -2.221929093E+02               0
GRID*             174649               00.0000000000E+001.2728354849E+01+
*       -2.216548488E+02               0
GRID*             174650               00.0000000000E+001.3294896141E+01+
*       -2.218154907E+02               0
GRID*             174632               0-2.500000000E+001.3191341654E+01+
*       -2.224619395E+02               0
GRID*             174633               0-2.500000000E+001.2882683784E+01+
*       -2.219238790E+02               0
GRID*             174634               0-2.500000000E+001.3345670588E+01+
*       -2.227309698E+02               0
GRID*             174635               0-2.500000000E+001.3772448666E+01+
*       -2.224077454E+02               0
GRID*             174636               0-2.500000000E+001.2595668919E+01+
*       -2.224809698E+02               0
GRID*             174637               0-2.500000000E+001.2441339985E+01+
*       -2.219619395E+02               0
GRID*             174638               0-2.500000000E+001.3037012719E+01+
*       -2.221929093E+02               0
GRID*             174639               0-2.500000000E+001.2728354849E+01+
*       -2.216548488E+02               0
GRID*             174640               0-2.500000000E+001.3294896141E+01+
*       -2.218154907E+02               0
GRID*             174641               0-1.250000000E+001.2574025915E+01+
*       -2.213858186E+02               0
GRID*             174294               0-1.250000000E+001.1999996185E+01+
*       -2.220000000E+02               0
GRID*             174295               0-1.250000000E+001.1999996185E+01+
*       -2.225000000E+02               0
GRID*             174630               0-1.250000000E+001.3191341654E+01+
*       -2.224619395E+02               0
GRID*             174631               0-1.250000000E+001.2882683784E+01+
*       -2.219238790E+02               0
GRID*             174538               0-2.500000000E+001.2574025889E+01+
*       -2.186141814E+02               0
GRID*             174539               0-2.500000000E+001.2833359360E+01+
*       -2.187527947E+02               0
GRID*             174540               0-2.500000000E+001.2292633387E+01+
*       -2.185288239E+02               0
GRID*             172931               0-2.500000000E+001.3499999523E+01+
*       -2.170000000E+02               0
GRID*             172932               0-2.500000000E+001.2749997854E+01+
*       -2.170000000E+02               0
GRID*             172933               0-2.500000000E+001.4250001192E+01+
*       -2.170000000E+02               0
GRID*             174541               00.0000000000E+001.2574025889E+01+
*       -2.186141814E+02               0
GRID*             174542               00.0000000000E+001.2833359360E+01+
*       -2.187527947E+02               0
GRID*             174543               00.0000000000E+001.2292633387E+01+
*       -2.185288239E+02               0
GRID*             172934               00.0000000000E+001.3499999523E+01+
*       -2.170000000E+02               0
GRID*             172935               00.0000000000E+001.2749997854E+01+
*       -2.170000000E+02               0
GRID*             172936               00.0000000000E+001.4250001192E+01+
*       -2.170000000E+02               0
GRID*             153370               0-1.250000000E+001.3499999523E+01+
*       -2.170000000E+02               0
GRID*             174518               00.0000000000E+001.3191341645E+01+
*       -2.175380605E+02               0
GRID*             174519               00.0000000000E+001.2882683767E+01+
*       -2.180761210E+02               0
GRID*             174520               00.0000000000E+001.2595668915E+01+
*       -2.175190302E+02               0
GRID*             174521               00.0000000000E+001.3345670584E+01+
*       -2.172690302E+02               0
GRID*             174522               00.0000000000E+001.3772448662E+01+
*       -2.175922546E+02               0
GRID*             174523               00.0000000000E+001.3294896132E+01+
*       -2.181845092E+02               0
GRID*             174524               00.0000000000E+001.3037012706E+01+
*       -2.178070907E+02               0
GRID*             174525               00.0000000000E+001.2728354828E+01+
*       -2.183451512E+02               0
GRID*             174526               00.0000000000E+001.2441339976E+01+
*       -2.180380605E+02               0
GRID*             174508               0-2.500000000E+001.3191341645E+01+
*       -2.175380605E+02               0
GRID*             174509               0-2.500000000E+001.2882683767E+01+
*       -2.180761210E+02               0
GRID*             174510               0-2.500000000E+001.3345670584E+01+
*       -2.172690302E+02               0
GRID*             174511               0-2.500000000E+001.2595668915E+01+
*       -2.175190302E+02               0
GRID*             174512               0-2.500000000E+001.3772448662E+01+
*       -2.175922546E+02               0
GRID*             174513               0-2.500000000E+001.3294896132E+01+
*       -2.181845092E+02               0
GRID*             174514               0-2.500000000E+001.3037012706E+01+
*       -2.178070907E+02               0
GRID*             174515               0-2.500000000E+001.2728354828E+01+
*       -2.183451512E+02               0
GRID*             174516               0-2.500000000E+001.2441339976E+01+
*       -2.180380605E+02               0
GRID*             174517               0-1.250000000E+001.2574025889E+01+
*       -2.186141814E+02               0
GRID*             174504               0-1.250000000E+001.3191341645E+01+
*       -2.175380605E+02               0
GRID*             174505               0-1.250000000E+001.2882683767E+01+
*       -2.180761210E+02               0
GRID*             176581               0-2.500000000E+001.2574026067E+01+
*       -1.213858185E+02               0
GRID*             176582               0-2.500000000E+001.2292633842E+01+
*       -1.214711760E+02               0
GRID*             176583               0-2.500000000E+001.2833359586E+01+
*       -1.212472052E+02               0
GRID*             172937               0-2.500000000E+001.3499999523E+01+
*       -1.230000000E+02               0
GRID*             172938               0-2.500000000E+001.4250001192E+01+
*       -1.230000000E+02               0
GRID*             172939               0-2.500000000E+001.2749997854E+01+
*       -1.230000000E+02               0
GRID*             176584               00.0000000000E+001.2574026067E+01+
*       -1.213858185E+02               0
GRID*             176585               00.0000000000E+001.2292633842E+01+
*       -1.214711760E+02               0
GRID*             176586               00.0000000000E+001.2833359586E+01+
*       -1.212472052E+02               0
GRID*             172940               00.0000000000E+001.3499999523E+01+
*       -1.230000000E+02               0
GRID*             172941               00.0000000000E+001.4250001192E+01+
*       -1.230000000E+02               0
GRID*             172942               00.0000000000E+001.2749997854E+01+
*       -1.230000000E+02               0
GRID*             153371               0-1.250000000E+001.3499999523E+01+
*       -1.230000000E+02               0
GRID*             176561               00.0000000000E+001.3191341704E+01+
*       -1.224619395E+02               0
GRID*             176562               00.0000000000E+001.2882683886E+01+
*       -1.219238790E+02               0
GRID*             176563               00.0000000000E+001.3772448692E+01+
*       -1.224077454E+02               0
GRID*             176564               00.0000000000E+001.3345670614E+01+
*       -1.227309697E+02               0
GRID*             176565               00.0000000000E+001.2595668945E+01+
*       -1.224809697E+02               0
GRID*             176566               00.0000000000E+001.2441340036E+01+
*       -1.219619395E+02               0
GRID*             176567               00.0000000000E+001.3037012795E+01+
*       -1.221929092E+02               0
GRID*             176568               00.0000000000E+001.2728354976E+01+
*       -1.216548487E+02               0
GRID*             176569               00.0000000000E+001.3294896192E+01+
*       -1.218154907E+02               0
GRID*             176551               0-2.500000000E+001.3191341704E+01+
*       -1.224619395E+02               0
GRID*             176552               0-2.500000000E+001.2882683886E+01+
*       -1.219238790E+02               0
GRID*             176553               0-2.500000000E+001.3345670614E+01+
*       -1.227309697E+02               0
GRID*             176554               0-2.500000000E+001.3772448692E+01+
*       -1.224077454E+02               0
GRID*             176555               0-2.500000000E+001.2595668945E+01+
*       -1.224809697E+02               0
GRID*             176556               0-2.500000000E+001.2441340036E+01+
*       -1.219619395E+02               0
GRID*             176557               0-2.500000000E+001.3037012795E+01+
*       -1.221929092E+02               0
GRID*             176558               0-2.500000000E+001.2728354976E+01+
*       -1.216548487E+02               0
GRID*             176559               0-2.500000000E+001.3294896192E+01+
*       -1.218154907E+02               0
GRID*             176560               0-1.250000000E+001.2574026067E+01+
*       -1.213858185E+02               0
GRID*             176547               0-1.250000000E+001.3191341704E+01+
*       -1.224619395E+02               0
GRID*             176548               0-1.250000000E+001.2882683886E+01+
*       -1.219238790E+02               0
GRID*             176459               0-2.500000000E+001.3060661316E+01+
*       -1.189393387E+02               0
GRID*             173875               0-2.500000000E+001.5000002861E+01+
*       -1.170000000E+02               0
GRID*             176460               00.0000000000E+001.3060661316E+01+
*       -1.189393387E+02               0
GRID*             173876               00.0000000000E+001.5000002861E+01+
*       -1.170000000E+02               0
GRID*             176453               0-2.500000000E+001.2574023638E+01+
*       -1.186141805E+02               0
GRID*             176454               0-2.500000000E+001.2833356417E+01+
*       -1.187527927E+02               0
GRID*             176455               0-2.500000000E+001.2292632553E+01+
*       -1.185288238E+02               0
GRID*             172943               0-2.500000000E+001.3499999523E+01+
*       -1.170000000E+02               0
GRID*             172944               0-2.500000000E+001.4250001192E+01+
*       -1.170000000E+02               0
GRID*             172945               0-2.500000000E+001.2749997854E+01+
*       -1.170000000E+02               0
GRID*             176431               0-2.500000000E+001.3707108498E+01+
*       -1.182928925E+02               0
GRID*             176432               0-2.500000000E+001.4353555679E+01+
*       -1.176464462E+02               0
GRID*             176433               0-2.500000000E+001.4676779270E+01+
*       -1.173232231E+02               0
GRID*             176434               0-2.500000000E+001.4030332088E+01+
*       -1.179696693E+02               0
GRID*             176435               0-2.500000000E+001.3383884907E+01+
*       -1.186161156E+02               0
GRID*             176436               0-1.250000000E+001.3060661316E+01+
*       -1.189393387E+02               0
GRID*             172748               0-1.250000000E+001.5000002861E+01+
*       -1.170000000E+02               0
GRID*             176456               00.0000000000E+001.2574023638E+01+
*       -1.186141805E+02               0
GRID*             176457               00.0000000000E+001.2292632553E+01+
*       -1.185288238E+02               0
GRID*             176458               00.0000000000E+001.2833356417E+01+
*       -1.187527927E+02               0
GRID*             172946               00.0000000000E+001.3499999523E+01+
*       -1.170000000E+02               0
GRID*             172947               00.0000000000E+001.4250001192E+01+
*       -1.170000000E+02               0
GRID*             172948               00.0000000000E+001.2749997854E+01+
*       -1.170000000E+02               0
GRID*             176437               00.0000000000E+001.4353555679E+01+
*       -1.176464462E+02               0
GRID*             176438               00.0000000000E+001.3707108498E+01+
*       -1.182928925E+02               0
GRID*             176439               00.0000000000E+001.4676779270E+01+
*       -1.173232231E+02               0
GRID*             176440               00.0000000000E+001.4030332088E+01+
*       -1.179696693E+02               0
GRID*             176441               00.0000000000E+001.3383884907E+01+
*       -1.186161156E+02               0
GRID*             176418               0-1.249999999E+001.4353555722E+01+
*       -1.176464463E+02               0
GRID*             176419               0-1.250000001E+001.3707108455E+01+
*       -1.182928924E+02               0
GRID*             153372               0-1.250000000E+001.3499999523E+01+
*       -1.170000000E+02               0
GRID*             176420               00.0000000000E+001.3191340895E+01+
*       -1.175380602E+02               0
GRID*             176421               00.0000000000E+001.2882682266E+01+
*       -1.180761203E+02               0
GRID*             176422               00.0000000000E+001.2595668540E+01+
*       -1.175190301E+02               0
GRID*             176423               00.0000000000E+001.3345670209E+01+
*       -1.172690301E+02               0
GRID*             176424               00.0000000000E+001.3772448287E+01+
*       -1.175922532E+02               0
GRID*             176425               00.0000000000E+001.3294895382E+01+
*       -1.181845064E+02               0
GRID*             176426               00.0000000000E+001.3037011581E+01+
*       -1.178070902E+02               0
GRID*             176427               00.0000000000E+001.2728352952E+01+
*       -1.183451504E+02               0
GRID*             176428               00.0000000000E+001.2441339226E+01+
*       -1.180380602E+02               0
GRID*             176408               0-2.500000000E+001.3191340895E+01+
*       -1.175380602E+02               0
GRID*             176409               0-2.500000000E+001.2882682266E+01+
*       -1.180761203E+02               0
GRID*             176410               0-2.500000000E+001.3345670209E+01+
*       -1.172690301E+02               0
GRID*             176411               0-2.500000000E+001.2595668540E+01+
*       -1.175190301E+02               0
GRID*             176412               0-2.500000000E+001.3772448287E+01+
*       -1.175922532E+02               0
GRID*             176413               0-2.500000000E+001.3294895382E+01+
*       -1.181845064E+02               0
GRID*             176414               0-2.500000000E+001.3037011581E+01+
*       -1.178070902E+02               0
GRID*             176415               0-2.500000000E+001.2728352952E+01+
*       -1.183451504E+02               0
GRID*             176416               0-2.500000000E+001.2441339226E+01+
*       -1.180380602E+02               0
GRID*             176417               0-1.250000000E+001.2574023638E+01+
*       -1.186141805E+02               0
GRID*             176406               0-1.250000000E+001.3191340895E+01+
*       -1.175380602E+02               0
GRID*             176407               0-1.250000000E+001.2882682266E+01+
*       -1.180761203E+02               0
GRID*             172929               0-2.500000000E+001.0499997139E+01+
*       -2.230000000E+02               0
GRID*             174324               0-2.500000000E+001.1425970564E+01+
*       -2.213858171E+02               0
GRID*             172930               00.0000000000E+001.0499997139E+01+
*       -2.230000000E+02               0
GRID*             174325               00.0000000000E+001.1425970564E+01+
*       -2.213858171E+02               0
GRID*             174298               00.0000000000E+001.0823220571E+01+
*       -2.224267756E+02               0
GRID*             174299               00.0000000000E+001.1146444003E+01+
*       -2.218535512E+02               0
GRID*             174296               0-2.500000000E+001.0823220571E+01+
*       -2.224267756E+02               0
GRID*             174297               0-2.500000000E+001.1146444003E+01+
*       -2.218535512E+02               0
GRID*             174481               0-2.500000000E+001.0939338684E+01+
*       -2.189393463E+02               0
GRID*             173877               0-2.500000000E+008.9999980927E+00+
*       -2.170000000E+02               0
GRID*             173878               0-2.500000000E+001.1999996185E+01+
*       -2.170000000E+02               0
GRID*             174502               0-2.500000000E+001.1999996185E+01+
*       -2.185000000E+02               0
GRID*             173879               00.0000000000E+008.9999980927E+00+
*       -2.170000000E+02               0
GRID*             174482               00.0000000000E+001.0939338684E+01+
*       -2.189393463E+02               0
GRID*             174503               00.0000000000E+001.1999996185E+01+
*       -2.185000000E+02               0
GRID*             173880               00.0000000000E+001.1999996185E+01+
*       -2.170000000E+02               0
GRID*             174450               0-2.500000000E+001.0292891820E+01+
*       -2.182928975E+02               0
GRID*             174451               0-2.500000000E+009.6464449565E+00+
*       -2.176464488E+02               0
GRID*             174452               0-2.500000000E+009.3232215246E+00+
*       -2.173232244E+02               0
GRID*             174453               0-2.500000000E+009.9696683884E+00+
*       -2.179696732E+02               0
GRID*             174454               0-2.500000000E+001.0616115252E+01+
*       -2.186161219E+02               0
GRID*             172749               0-2.500000000E+001.0499997139E+01+
*       -2.170000000E+02               0
GRID*             174489               0-2.500000000E+001.1425970589E+01+
*       -2.186141829E+02               0
GRID*             174490               0-2.500000000E+001.1999996185E+01+
*       -2.180000000E+02               0
GRID*             174491               0-2.500000000E+001.1999996185E+01+
*       -2.175000000E+02               0
GRID*             174492               0-2.500000000E+001.1999996185E+01+
*       -2.172500000E+02               0
GRID*             174493               0-2.500000000E+001.1999996185E+01+
*       -2.177500000E+02               0
GRID*             174494               0-2.500000000E+001.1999996185E+01+
*       -2.182500000E+02               0
GRID*             172750               0-1.250000000E+008.9999980927E+00+
*       -2.170000000E+02               0
GRID*             174455               0-1.250000000E+001.0939338684E+01+
*       -2.189393463E+02               0
GRID*             174495               0-1.250000000E+001.1999996185E+01+
*       -2.185000000E+02               0
GRID*             172751               0-1.250000000E+001.1999996185E+01+
*       -2.170000000E+02               0
GRID*             174456               00.0000000000E+001.0292891820E+01+
*       -2.182928975E+02               0
GRID*             174457               00.0000000000E+009.6464449565E+00+
*       -2.176464488E+02               0
GRID*             174458               00.0000000000E+009.3232215246E+00+
*       -2.173232244E+02               0
GRID*             174459               00.0000000000E+009.9696683884E+00+
*       -2.179696732E+02               0
GRID*             174460               00.0000000000E+001.0616115252E+01+
*       -2.186161219E+02               0
GRID*             172752               00.0000000000E+001.0499997139E+01+
*       -2.170000000E+02               0
GRID*             174496               00.0000000000E+001.1425970589E+01+
*       -2.186141829E+02               0
GRID*             174497               00.0000000000E+001.1999996185E+01+
*       -2.175000000E+02               0
GRID*             174498               00.0000000000E+001.1999996185E+01+
*       -2.180000000E+02               0
GRID*             174499               00.0000000000E+001.1999996185E+01+
*       -2.172500000E+02               0
GRID*             174500               00.0000000000E+001.1999996185E+01+
*       -2.177500000E+02               0
GRID*             174501               00.0000000000E+001.1999996185E+01+
*       -2.182500000E+02               0
GRID*             174448               0-1.249999999E+009.6464450422E+00+
*       -2.176464487E+02               0
GRID*             174449               0-1.250000001E+001.0292891735E+01+
*       -2.182928976E+02               0
GRID*             174487               00.0000000000E+001.0823220571E+01+
*       -2.175732244E+02               0
GRID*             174488               00.0000000000E+001.1146444003E+01+
*       -2.181464488E+02               0
GRID*             174483               0-2.500000000E+001.0823220571E+01+
*       -2.175732244E+02               0
GRID*             174484               0-2.500000000E+001.1146444003E+01+
*       -2.181464488E+02               0
GRID*             174485               0-1.250000000E+001.1999996185E+01+
*       -2.175000000E+02               0
GRID*             174486               0-1.250000000E+001.1999996185E+01+
*       -2.180000000E+02               0
GRID*             173882               0-2.500000000E+008.9999980927E+00+
*       -1.170000000E+02               0
GRID*             176761               0-2.500000000E+001.0939338684E+01+
*       -1.189393387E+02               0
GRID*             173881               0-2.500000000E+001.1999996185E+01+
*       -1.170000000E+02               0
GRID*             176461               0-2.500000000E+001.1999996185E+01+
*       -1.185000000E+02               0
GRID*             173883               00.0000000000E+008.9999980927E+00+
*       -1.170000000E+02               0
GRID*             176762               00.0000000000E+001.0939338684E+01+
*       -1.189393387E+02               0
GRID*             176462               00.0000000000E+001.1999996185E+01+
*       -1.185000000E+02               0
GRID*             173884               00.0000000000E+001.1999996185E+01+
*       -1.170000000E+02               0
GRID*             176730               0-2.500000000E+009.6464449565E+00+
*       -1.176464462E+02               0
GRID*             176731               0-2.500000000E+001.0292891820E+01+
*       -1.182928925E+02               0
GRID*             176732               0-2.500000000E+009.3232215246E+00+
*       -1.173232231E+02               0
GRID*             176733               0-2.500000000E+009.9696683884E+00+
*       -1.179696693E+02               0
GRID*             176734               0-2.500000000E+001.0616115252E+01+
*       -1.186161156E+02               0
GRID*             172753               0-2.500000000E+001.0499997139E+01+
*       -1.170000000E+02               0
GRID*             176767               0-2.500000000E+001.1425972840E+01+
*       -1.186141820E+02               0
GRID*             176442               0-2.500000000E+001.1999996185E+01+
*       -1.175000000E+02               0
GRID*             176443               0-2.500000000E+001.1999996185E+01+
*       -1.180000000E+02               0
GRID*             176444               0-2.500000000E+001.1999996185E+01+
*       -1.172500000E+02               0
GRID*             176445               0-2.500000000E+001.1999996185E+01+
*       -1.182500000E+02               0
GRID*             176446               0-2.500000000E+001.1999996185E+01+
*       -1.177500000E+02               0
GRID*             172754               0-1.250000000E+008.9999980927E+00+
*       -1.170000000E+02               0
GRID*             176735               0-1.250000000E+001.0939338684E+01+
*       -1.189393387E+02               0
GRID*             176447               0-1.250000000E+001.1999996185E+01+
*       -1.185000000E+02               0
GRID*             172755               0-1.250000000E+001.1999996185E+01+
*       -1.170000000E+02               0
GRID*             176736               00.0000000000E+009.6464449565E+00+
*       -1.176464462E+02               0
GRID*             176737               00.0000000000E+001.0292891820E+01+
*       -1.182928925E+02               0
GRID*             176738               00.0000000000E+009.3232215246E+00+
*       -1.173232231E+02               0
GRID*             176739               00.0000000000E+009.9696683884E+00+
*       -1.179696693E+02               0
GRID*             176740               00.0000000000E+001.0616115252E+01+
*       -1.186161156E+02               0
GRID*             172756               00.0000000000E+001.0499997139E+01+
*       -1.170000000E+02               0
GRID*             176768               00.0000000000E+001.1425972840E+01+
*       -1.186141820E+02               0
GRID*             176448               00.0000000000E+001.1999996185E+01+
*       -1.175000000E+02               0
GRID*             176449               00.0000000000E+001.1999996185E+01+
*       -1.180000000E+02               0
GRID*             176450               00.0000000000E+001.1999996185E+01+
*       -1.172500000E+02               0
GRID*             176451               00.0000000000E+001.1999996185E+01+
*       -1.182500000E+02               0
GRID*             176452               00.0000000000E+001.1999996185E+01+
*       -1.177500000E+02               0
GRID*             176692               0-1.249999999E+009.6464449279E+00+
*       -1.176464463E+02               0
GRID*             176693               0-1.250000001E+001.0292891849E+01+
*       -1.182928924E+02               0
GRID*             176765               00.0000000000E+001.0823220571E+01+
*       -1.175732231E+02               0
GRID*             176766               00.0000000000E+001.1146444003E+01+
*       -1.181464462E+02               0
GRID*             176763               0-2.500000000E+001.0823220571E+01+
*       -1.175732231E+02               0
GRID*             176764               0-2.500000000E+001.1146444003E+01+
*       -1.181464462E+02               0
GRID*             176429               0-1.250000000E+001.1999996185E+01+
*       -1.180000000E+02               0
GRID*             176430               0-1.250000000E+001.1999996185E+01+
*       -1.175000000E+02               0
GRID*             173885               0-2.500000000E+008.9999980927E+00+
*       -2.230000000E+02               0
GRID*             174404               0-2.500000000E+008.9999980927E+00+
*       -2.200000000E+02               0
GRID*             174405               0-2.500000000E+001.0500000954E+01+
*       -2.200000000E+02               0
GRID*             174328               0-2.500000000E+001.0939338684E+01+
*       -2.210606537E+02               0
GRID*             173886               00.0000000000E+008.9999980927E+00+
*       -2.230000000E+02               0
GRID*             174406               00.0000000000E+008.9999980927E+00+
*       -2.200000000E+02               0
GRID*             174407               00.0000000000E+001.0500000954E+01+
*       -2.200000000E+02               0
GRID*             174329               00.0000000000E+001.0939338684E+01+
*       -2.210606537E+02               0
GRID*             174372               0-2.500000000E+008.9999980927E+00+
*       -2.220000000E+02               0
GRID*             174373               0-2.500000000E+008.9999980927E+00+
*       -2.210000000E+02               0
GRID*             174374               0-2.500000000E+008.9999980927E+00+
*       -2.225000000E+02               0
GRID*             174375               0-2.500000000E+008.9999980927E+00+
*       -2.215000000E+02               0
GRID*             174376               0-2.500000000E+008.9999980927E+00+
*       -2.205000000E+02               0
GRID*             174377               0-2.500000000E+001.0000000000E+01+
*       -2.200000000E+02               0
GRID*             174378               0-2.500000000E+009.4999990463E+00+
*       -2.200000000E+02               0
GRID*             174379               0-2.500000000E+009.2499985695E+00+
*       -2.200000000E+02               0
GRID*             174380               0-2.500000000E+009.7499995232E+00+
*       -2.200000000E+02               0
GRID*             174381               0-2.500000000E+001.0250000477E+01+
*       -2.200000000E+02               0
GRID*             174313               0-2.500000000E+001.0292891820E+01+
*       -2.217071025E+02               0
GRID*             174314               0-2.500000000E+009.6464449565E+00+
*       -2.223535512E+02               0
GRID*             174315               0-2.500000000E+009.3232215246E+00+
*       -2.226767756E+02               0
GRID*             174316               0-2.500000000E+009.9696683884E+00+
*       -2.220303268E+02               0
GRID*             174317               0-2.500000000E+001.0616115252E+01+
*       -2.213838781E+02               0
GRID*             174382               0-2.500000000E+001.0700960328E+01+
*       -2.207499967E+02               0
GRID*             174383               0-2.500000000E+001.0551110973E+01+
*       -2.203882269E+02               0
GRID*             174384               0-2.500000000E+001.0512833043E+01+
*       -2.201957884E+02               0
GRID*             174385               0-2.500000000E+001.0614179113E+01+
*       -2.205740229E+02               0
GRID*             174386               0-2.500000000E+001.0809966478E+01+
*       -2.209131392E+02               0
GRID*             172757               0-1.250000000E+008.9999980927E+00+
*       -2.230000000E+02               0
GRID*             174387               0-1.250000000E+008.9999980927E+00+
*       -2.200000000E+02               0
GRID*             174388               0-1.250000000E+001.0500000954E+01+
*       -2.200000000E+02               0
GRID*             174318               0-1.250000000E+001.0939338684E+01+
*       -2.210606537E+02               0
GRID*             174389               00.0000000000E+008.9999980927E+00+
*       -2.220000000E+02               0
GRID*             174390               00.0000000000E+008.9999980927E+00+
*       -2.210000000E+02               0
GRID*             174391               00.0000000000E+008.9999980927E+00+
*       -2.225000000E+02               0
GRID*             174392               00.0000000000E+008.9999980927E+00+
*       -2.215000000E+02               0
GRID*             174393               00.0000000000E+008.9999980927E+00+
*       -2.205000000E+02               0
GRID*             174394               00.0000000000E+001.0000000000E+01+
*       -2.200000000E+02               0
GRID*             174395               00.0000000000E+009.4999990463E+00+
*       -2.200000000E+02               0
GRID*             174396               00.0000000000E+001.0250000477E+01+
*       -2.200000000E+02               0
GRID*             174397               00.0000000000E+009.7499995232E+00+
*       -2.200000000E+02               0
GRID*             174398               00.0000000000E+009.2499985695E+00+
*       -2.200000000E+02               0
GRID*             174319               00.0000000000E+009.6464449565E+00+
*       -2.223535512E+02               0
GRID*             174320               00.0000000000E+001.0292891820E+01+
*       -2.217071025E+02               0
GRID*             174321               00.0000000000E+009.3232215246E+00+
*       -2.226767756E+02               0
GRID*             174322               00.0000000000E+009.9696683884E+00+
*       -2.220303268E+02               0
GRID*             174323               00.0000000000E+001.0616115252E+01+
*       -2.213838781E+02               0
GRID*             174399               00.0000000000E+001.0551110973E+01+
*       -2.203882269E+02               0
GRID*             174400               00.0000000000E+001.0700960328E+01+
*       -2.207499967E+02               0
GRID*             174401               00.0000000000E+001.0809966478E+01+
*       -2.209131392E+02               0
GRID*             174402               00.0000000000E+001.0614179113E+01+
*       -2.205740229E+02               0
GRID*             174403               00.0000000000E+001.0512833043E+01+
*       -2.201957884E+02               0
GRID*             174300               0-1.249999999E+009.6464450422E+00+
*       -2.223535513E+02               0
GRID*             174301               0-1.250000001E+001.0292891735E+01+
*       -2.217071024E+02               0
GRID*             174350               0-1.250000000E+008.9999980927E+00+
*       -2.220000000E+02               0
GRID*             174351               0-1.250000000E+008.9999980927E+00+
*       -2.210000000E+02               0
GRID*             174356               00.0000000000E+009.5669855173E+00+
*       -2.215833322E+02               0
GRID*             174357               00.0000000000E+009.5170357443E+00+
*       -2.207960756E+02               0
GRID*             174358               00.0000000000E+001.0034073396E+01+
*       -2.205921512E+02               0
GRID*             174359               00.0000000000E+001.0133972942E+01+
*       -2.211666645E+02               0
GRID*             174360               00.0000000000E+001.0084023169E+01+
*       -2.208794079E+02               0
GRID*             174361               00.0000000000E+009.7755545701E+00+
*       -2.206941134E+02               0
GRID*             174362               00.0000000000E+009.5420106308E+00+
*       -2.211897039E+02               0
GRID*             174363               00.0000000000E+009.8504792296E+00+
*       -2.213749984E+02               0
GRID*             174364               00.0000000000E+009.6067152369E+00+
*       -2.219684417E+02               0
GRID*             174365               00.0000000000E+009.2834918050E+00+
*       -2.217916661E+02               0
GRID*             174366               00.0000000000E+009.2585169185E+00+
*       -2.208980378E+02               0
GRID*             174367               00.0000000000E+009.5085173953E+00+
*       -2.203980378E+02               0
GRID*             174368               00.0000000000E+001.0017036698E+01+
*       -2.202960756E+02               0
GRID*             174369               00.0000000000E+001.0292592222E+01+
*       -2.204901890E+02               0
GRID*             174370               00.0000000000E+001.0417466654E+01+
*       -2.209583306E+02               0
GRID*             174371               00.0000000000E+001.0213432381E+01+
*       -2.214368835E+02               0
GRID*             174334               0-2.500000000E+009.5669855173E+00+
*       -2.215833322E+02               0
GRID*             174335               0-2.500000000E+001.0133972942E+01+
*       -2.211666645E+02               0
GRID*             174336               0-2.500000000E+009.5170357443E+00+
*       -2.207960756E+02               0
GRID*             174337               0-2.500000000E+001.0034073396E+01+
*       -2.205921512E+02               0
GRID*             174338               0-2.500000000E+009.5420106308E+00+
*       -2.211897039E+02               0
GRID*             174339               0-2.500000000E+009.7755545701E+00+
*       -2.206941134E+02               0
GRID*             174340               0-2.500000000E+001.0084023169E+01+
*       -2.208794079E+02               0
GRID*             174341               0-2.500000000E+009.8504792296E+00+
*       -2.213749984E+02               0
GRID*             174342               0-2.500000000E+009.2834918050E+00+
*       -2.217916661E+02               0
GRID*             174343               0-2.500000000E+009.6067152369E+00+
*       -2.219684417E+02               0
GRID*             174344               0-2.500000000E+009.2585169185E+00+
*       -2.208980378E+02               0
GRID*             174345               0-2.500000000E+009.5085173953E+00+
*       -2.203980378E+02               0
GRID*             174346               0-2.500000000E+001.0017036698E+01+
*       -2.202960756E+02               0
GRID*             174347               0-2.500000000E+001.0292592222E+01+
*       -2.204901890E+02               0
GRID*             174348               0-2.500000000E+001.0417466654E+01+
*       -2.209583306E+02               0
GRID*             174349               0-2.500000000E+001.0213432381E+01+
*       -2.214368835E+02               0
GRID*             174354               0-1.250000336E+001.0700963312E+01+
*       -2.207500016E+02               0
GRID*             174355               0-1.249999663E+001.0551109662E+01+
*       -2.203882213E+02               0
GRID*             174352               0-1.250000000E+001.0000000000E+01+
*       -2.200000000E+02               0
GRID*             174353               0-1.250000000E+009.4999990463E+00+
*       -2.200000000E+02               0
GRID*             174330               0-1.250000000E+001.0133972942E+01+
*       -2.211666645E+02               0
GRID*             174331               0-1.250000000E+001.0034073396E+01+
*       -2.205921512E+02               0
GRID*             174332               0-1.250000000E+009.5170357443E+00+
*       -2.207960756E+02               0
GRID*             174333               0-1.250000000E+009.5669855173E+00+
*       -2.215833322E+02               0
GRID*             173888               0-2.500000000E+008.9999980927E+00+
*       -1.230000000E+02               0
GRID*             176684               0-2.500000000E+008.9999980927E+00+
*       -1.200000000E+02               0
GRID*             176685               0-2.500000000E+001.0500000954E+01+
*       -1.200000000E+02               0
GRID*             176608               0-2.500000000E+001.0939338684E+01+
*       -1.210606537E+02               0
GRID*             173887               00.0000000000E+008.9999980927E+00+
*       -1.230000000E+02               0
GRID*             176686               00.0000000000E+008.9999980927E+00+
*       -1.200000000E+02               0
GRID*             176687               00.0000000000E+001.0500000954E+01+
*       -1.200000000E+02               0
GRID*             176609               00.0000000000E+001.0939338684E+01+
*       -1.210606537E+02               0
GRID*             176652               0-2.500000000E+008.9999980927E+00+
*       -1.220000000E+02               0
GRID*             176653               0-2.500000000E+008.9999980927E+00+
*       -1.210000000E+02               0
GRID*             176654               0-2.500000000E+008.9999980927E+00+
*       -1.225000000E+02               0
GRID*             176655               0-2.500000000E+008.9999980927E+00+
*       -1.215000000E+02               0
GRID*             176656               0-2.500000000E+008.9999980927E+00+
*       -1.205000000E+02               0
GRID*             176657               0-2.500000000E+001.0000000000E+01+
*       -1.200000000E+02               0
GRID*             176658               0-2.500000000E+009.4999990463E+00+
*       -1.200000000E+02               0
GRID*             176659               0-2.500000000E+009.2499985695E+00+
*       -1.200000000E+02               0
GRID*             176660               0-2.500000000E+009.7499995232E+00+
*       -1.200000000E+02               0
GRID*             176661               0-2.500000000E+001.0250000477E+01+
*       -1.200000000E+02               0
GRID*             176595               0-2.500000000E+009.6464449565E+00+
*       -1.223535512E+02               0
GRID*             176596               0-2.500000000E+001.0292891820E+01+
*       -1.217071025E+02               0
GRID*             176597               0-2.500000000E+009.3232215246E+00+
*       -1.226767756E+02               0
GRID*             176598               0-2.500000000E+009.9696683884E+00+
*       -1.220303268E+02               0
GRID*             176599               0-2.500000000E+001.0616115252E+01+
*       -1.213838781E+02               0
GRID*             176662               0-2.500000000E+001.0700959566E+01+
*       -1.207499968E+02               0
GRID*             176663               0-2.500000000E+001.0551110939E+01+
*       -1.203882267E+02               0
GRID*             176664               0-2.500000000E+001.0512833073E+01+
*       -1.201957883E+02               0
GRID*             176665               0-2.500000000E+001.0614179551E+01+
*       -1.205740225E+02               0
GRID*             176666               0-2.500000000E+001.0809968627E+01+
*       -1.209131372E+02               0
GRID*             172758               0-1.250000000E+008.9999980927E+00+
*       -1.230000000E+02               0
GRID*             176667               0-1.250000000E+008.9999980927E+00+
*       -1.200000000E+02               0
GRID*             176668               0-1.250000000E+001.0500000954E+01+
*       -1.200000000E+02               0
GRID*             176600               0-1.250000000E+001.0939338684E+01+
*       -1.210606537E+02               0
GRID*             176669               00.0000000000E+008.9999980927E+00+
*       -1.220000000E+02               0
GRID*             176670               00.0000000000E+008.9999980927E+00+
*       -1.210000000E+02               0
GRID*             176671               00.0000000000E+008.9999980927E+00+
*       -1.225000000E+02               0
GRID*             176672               00.0000000000E+008.9999980927E+00+
*       -1.215000000E+02               0
GRID*             176673               00.0000000000E+008.9999980927E+00+
*       -1.205000000E+02               0
GRID*             176674               00.0000000000E+001.0000000000E+01+
*       -1.200000000E+02               0
GRID*             176675               00.0000000000E+009.4999990463E+00+
*       -1.200000000E+02               0
GRID*             176676               00.0000000000E+001.0250000477E+01+
*       -1.200000000E+02               0
GRID*             176677               00.0000000000E+009.7499995232E+00+
*       -1.200000000E+02               0
GRID*             176678               00.0000000000E+009.2499985695E+00+
*       -1.200000000E+02               0
GRID*             176601               00.0000000000E+001.0292891820E+01+
*       -1.217071025E+02               0
GRID*             176602               00.0000000000E+009.6464449565E+00+
*       -1.223535512E+02               0
GRID*             176603               00.0000000000E+009.3232215246E+00+
*       -1.226767756E+02               0
GRID*             176604               00.0000000000E+009.9696683884E+00+
*       -1.220303268E+02               0
GRID*             176605               00.0000000000E+001.0616115252E+01+
*       -1.213838781E+02               0
GRID*             176679               00.0000000000E+001.0551110939E+01+
*       -1.203882267E+02               0
GRID*             176680               00.0000000000E+001.0700959566E+01+
*       -1.207499968E+02               0
GRID*             176681               00.0000000000E+001.0809968627E+01+
*       -1.209131372E+02               0
GRID*             176682               00.0000000000E+001.0614179551E+01+
*       -1.205740225E+02               0
GRID*             176683               00.0000000000E+001.0512833073E+01+
*       -1.201957883E+02               0
GRID*             176593               0-1.249999999E+009.6464450422E+00+
*       -1.223535513E+02               0
GRID*             176594               0-1.250000001E+001.0292891735E+01+
*       -1.217071024E+02               0
GRID*             176630               0-1.250000000E+008.9999980927E+00+
*       -1.220000000E+02               0
GRID*             176631               0-1.250000000E+008.9999980927E+00+
*       -1.210000000E+02               0
GRID*             176636               00.0000000000E+009.5669852761E+00+
*       -1.215833323E+02               0
GRID*             176637               00.0000000000E+009.5170357177E+00+
*       -1.207960756E+02               0
GRID*             176638               00.0000000000E+001.0034073343E+01+
*       -1.205921512E+02               0
GRID*             176639               00.0000000000E+001.0133972460E+01+
*       -1.211666645E+02               0
GRID*             176640               00.0000000000E+001.0084022901E+01+
*       -1.208794078E+02               0
GRID*             176641               00.0000000000E+009.7755545302E+00+
*       -1.206941134E+02               0
GRID*             176642               00.0000000000E+009.5420104969E+00+
*       -1.211897039E+02               0
GRID*             176643               00.0000000000E+009.8504788678E+00+
*       -1.213749984E+02               0
GRID*             176644               00.0000000000E+009.6067151163E+00+
*       -1.219684417E+02               0
GRID*             176645               00.0000000000E+009.2834916844E+00+
*       -1.217916661E+02               0
GRID*             176646               00.0000000000E+009.2585169052E+00+
*       -1.208980378E+02               0
GRID*             176647               00.0000000000E+009.5085173820E+00+
*       -1.203980378E+02               0
GRID*             176648               00.0000000000E+001.0017036671E+01+
*       -1.202960756E+02               0
GRID*             176649               00.0000000000E+001.0292592155E+01+
*       -1.204901889E+02               0
GRID*             176650               00.0000000000E+001.0417466051E+01+
*       -1.209583306E+02               0
GRID*             176651               00.0000000000E+001.0213432140E+01+
*       -1.214368835E+02               0
GRID*             176614               0-2.500000000E+009.5669852761E+00+
*       -1.215833323E+02               0
GRID*             176615               0-2.500000000E+001.0133972460E+01+
*       -1.211666645E+02               0
GRID*             176616               0-2.500000000E+009.5170357177E+00+
*       -1.207960756E+02               0
GRID*             176617               0-2.500000000E+001.0034073343E+01+
*       -1.205921512E+02               0
GRID*             176618               0-2.500000000E+009.5420104969E+00+
*       -1.211897039E+02               0
GRID*             176619               0-2.500000000E+009.7755545302E+00+
*       -1.206941134E+02               0
GRID*             176620               0-2.500000000E+001.0084022901E+01+
*       -1.208794078E+02               0
GRID*             176621               0-2.500000000E+009.8504788678E+00+
*       -1.213749984E+02               0
GRID*             176622               0-2.500000000E+009.2834916844E+00+
*       -1.217916661E+02               0
GRID*             176623               0-2.500000000E+009.6067151163E+00+
*       -1.219684417E+02               0
GRID*             176624               0-2.500000000E+009.2585169052E+00+
*       -1.208980378E+02               0
GRID*             176625               0-2.500000000E+009.5085173820E+00+
*       -1.203980378E+02               0
GRID*             176626               0-2.500000000E+001.0017036671E+01+
*       -1.202960756E+02               0
GRID*             176627               0-2.500000000E+001.0292592155E+01+
*       -1.204901889E+02               0
GRID*             176628               0-2.500000000E+001.0417466051E+01+
*       -1.209583306E+02               0
GRID*             176629               0-2.500000000E+001.0213432140E+01+
*       -1.214368835E+02               0
GRID*             176634               0-1.250000336E+001.0700962691E+01+
*       -1.207500015E+02               0
GRID*             176635               0-1.249999663E+001.0551109629E+01+
*       -1.203882212E+02               0
GRID*             176632               0-1.250000000E+001.0000000000E+01+
*       -1.200000000E+02               0
GRID*             176633               0-1.250000000E+009.4999990463E+00+
*       -1.200000000E+02               0
GRID*             176610               0-1.250000000E+001.0133972460E+01+
*       -1.211666645E+02               0
GRID*             176611               0-1.250000000E+001.0034073343E+01+
*       -1.205921512E+02               0
GRID*             176612               0-1.250000000E+009.5170357177E+00+
*       -1.207960756E+02               0
GRID*             176613               0-1.250000000E+009.5669852761E+00+
*       -1.215833323E+02               0
GRID*             176741               0-2.500000000E+008.9999980927E+00+
*       -1.190000000E+02               0
GRID*             176742               0-2.500000000E+008.9999980927E+00+
*       -1.180000000E+02               0
GRID*             176743               0-2.500000000E+008.9999980927E+00+
*       -1.195000000E+02               0
GRID*             176744               0-2.500000000E+008.9999980927E+00+
*       -1.185000000E+02               0
GRID*             176745               0-2.500000000E+008.9999980927E+00+
*       -1.175000000E+02               0
GRID*             176746               0-2.500000000E+001.0551111250E+01+
*       -1.196117713E+02               0
GRID*             176747               0-2.500000000E+001.0700961354E+01+
*       -1.192499997E+02               0
GRID*             176748               0-2.500000000E+001.0809970273E+01+
*       -1.190868580E+02               0
GRID*             176749               0-2.500000000E+001.0614180678E+01+
*       -1.194259747E+02               0
GRID*             176750               0-2.500000000E+001.0512833117E+01+
*       -1.198042107E+02               0
GRID*             176751               00.0000000000E+008.9999980927E+00+
*       -1.190000000E+02               0
GRID*             176752               00.0000000000E+008.9999980927E+00+
*       -1.180000000E+02               0
GRID*             176753               00.0000000000E+008.9999980927E+00+
*       -1.195000000E+02               0
GRID*             176754               00.0000000000E+008.9999980927E+00+
*       -1.185000000E+02               0
GRID*             176755               00.0000000000E+008.9999980927E+00+
*       -1.175000000E+02               0
GRID*             176756               00.0000000000E+001.0700961354E+01+
*       -1.192499997E+02               0
GRID*             176757               00.0000000000E+001.0551111250E+01+
*       -1.196117713E+02               0
GRID*             176758               00.0000000000E+001.0809970273E+01+
*       -1.190868580E+02               0
GRID*             176759               00.0000000000E+001.0614180678E+01+
*       -1.194259747E+02               0
GRID*             176760               00.0000000000E+001.0512833117E+01+
*       -1.198042107E+02               0
GRID*             176710               0-1.250000000E+008.9999980927E+00+
*       -1.190000000E+02               0
GRID*             176711               0-1.250000000E+008.9999980927E+00+
*       -1.180000000E+02               0
GRID*             176714               00.0000000000E+009.5170358262E+00+
*       -1.192039238E+02               0
GRID*             176715               00.0000000000E+009.5669858512E+00+
*       -1.184166666E+02               0
GRID*             176716               00.0000000000E+001.0133973610E+01+
*       -1.188333331E+02               0
GRID*             176717               00.0000000000E+001.0034073560E+01+
*       -1.194078476E+02               0
GRID*             176718               00.0000000000E+001.0084023585E+01+
*       -1.191205903E+02               0
GRID*             176719               00.0000000000E+009.8504797305E+00+
*       -1.186249998E+02               0
GRID*             176720               00.0000000000E+009.5420108387E+00+
*       -1.188102952E+02               0
GRID*             176721               00.0000000000E+009.7755546930E+00+
*       -1.193058857E+02               0
GRID*             176722               00.0000000000E+009.5085174363E+00+
*       -1.196019619E+02               0
GRID*             176723               00.0000000000E+009.2585169594E+00+
*       -1.191019619E+02               0
GRID*             176724               00.0000000000E+009.2834919719E+00+
*       -1.182083333E+02               0
GRID*             176725               00.0000000000E+009.6067154038E+00+
*       -1.180315564E+02               0
GRID*             176726               00.0000000000E+001.0213432715E+01+
*       -1.185631128E+02               0
GRID*             176727               00.0000000000E+001.0417467489E+01+
*       -1.190416664E+02               0
GRID*             176728               00.0000000000E+001.0292592427E+01+
*       -1.195098094E+02               0
GRID*             176729               00.0000000000E+001.0017036780E+01+
*       -1.197039238E+02               0
GRID*             176694               0-2.500000000E+009.5170358262E+00+
*       -1.192039238E+02               0
GRID*             176695               0-2.500000000E+001.0034073560E+01+
*       -1.194078476E+02               0
GRID*             176696               0-2.500000000E+009.5669858512E+00+
*       -1.184166666E+02               0
GRID*             176697               0-2.500000000E+001.0133973610E+01+
*       -1.188333331E+02               0
GRID*             176698               0-2.500000000E+009.5420108387E+00+
*       -1.188102952E+02               0
GRID*             176699               0-2.500000000E+009.8504797305E+00+
*       -1.186249998E+02               0
GRID*             176700               0-2.500000000E+001.0084023585E+01+
*       -1.191205903E+02               0
GRID*             176701               0-2.500000000E+009.7755546930E+00+
*       -1.193058857E+02               0
GRID*             176702               0-2.500000000E+009.2585169594E+00+
*       -1.191019619E+02               0
GRID*             176703               0-2.500000000E+009.5085174363E+00+
*       -1.196019619E+02               0
GRID*             176704               0-2.500000000E+009.2834919719E+00+
*       -1.182083333E+02               0
GRID*             176705               0-2.500000000E+009.6067154038E+00+
*       -1.180315564E+02               0
GRID*             176706               0-2.500000000E+001.0213432715E+01+
*       -1.185631128E+02               0
GRID*             176707               0-2.500000000E+001.0417467489E+01+
*       -1.190416664E+02               0
GRID*             176708               0-2.500000000E+001.0292592427E+01+
*       -1.195098094E+02               0
GRID*             176709               0-2.500000000E+001.0017036780E+01+
*       -1.197039238E+02               0
GRID*             176712               0-1.249999664E+001.0700964435E+01+
*       -1.192499949E+02               0
GRID*             176713               0-1.250000337E+001.0551109844E+01+
*       -1.196117769E+02               0
GRID*             176688               0-1.250000000E+001.0034073560E+01+
*       -1.194078476E+02               0
GRID*             176689               0-1.250000000E+001.0133973610E+01+
*       -1.188333331E+02               0
GRID*             176690               0-1.250000000E+009.5669858512E+00+
*       -1.184166666E+02               0
GRID*             176691               0-1.250000000E+009.5170358262E+00+
*       -1.192039238E+02               0
$*
$* ELEMENT CARDS
$*
$*  Mesh Collector: Solid(1)
$*  Mesh: 3d_mesh(65)
CHEXA      43580       4  153374  172909  173844  153373  163212  172912+
+         173845  163211  156474  172911  156473  156475  149969  153325+
+         172687  149970  165963  172914  165964  165965
CHEXA      43581       4  153375  173859  172909  153374  163213  173862+
+         172912  163212  156476  172910  156474  156477  149971  172720+
+         153325  149969  165966  172913  165963  165967
CHEXA      43582       4  153376  153377  173859  153375  163568  163214+
+         173862  163213  156479  156478  156476  156480  149972  149973+
+         172720  149971  165968  165969  165966  165970
CHEXA      43583       4  153378  172716  173859  153377  163215  172721+
+         173862  163214  156481  172718  156478  156482  149974  153364+
+         172720  149973  165971  172723  165969  165972
CHEXA      43584       4  153379  173860  172716  153378  163216  173861+
+         172721  163215  156483  172717  156481  156484  149975  172719+
+         153364  149974  165973  172722  165971  165974
CHEXA      43585       4  153380  172885  173860  153379  163217  172888+
+         173861  163216  156485  172886  156483  156486  149976  153363+
+         172719  149975  165975  172889  165973  165976
CHEXA      43586       4  153381  173851  172885  153380  163218  173853+
+         172888  163217  156487  172887  156485  156488  149977  172703+
+         153363  149976  165977  172890  165975  165978
CHEXA      43587       4  153382  153383  173851  153381  163493  163219+
+         173853  163218  156490  156489  156487  156491  149978  149979+
+         172703  149977  165979  165980  165977  165981
CHEXA      43588       4  153384  172700  173851  153383  163220  172705+
+         173853  163219  156492  172701  156489  156493  149980  153360+
+         172703  149979  165982  172706  165980  165983
CHEXA      43589       4  153385  173852  172700  153384  163221  173854+
+         172705  163220  156494  172702  156492  156495  149981  172704+
+         153360  149980  165984  172707  165982  165985
CHEXA      43590       4  153386  172903  173852  153385  163222  172906+
+         173854  163221  156496  172904  156494  156497  149982  153356+
+         172704  149981  165986  172907  165984  165987
CHEXA      43591       4  153387  173835  172903  153386  163223  173837+
+         172906  163222  156498  172905  156496  156499  149983  172671+
+         153356  149982  165988  172908  165986  165989
CHEXA      43592       4  153388  153389  173835  153387  163574  163224+
+         173837  163223  156501  156500  156498  156502  149984  149985+
+         172671  149983  165990  165991  165988  165992
CHEXA      43593       4  153390  172668  173835  153389  163225  172673+
+         173837  163224  156503  172670  156500  156504  149986  153353+
+         172671  149985  165993  172675  165991  165994
CHEXA      43594       4  153391  173836  172668  153390  163226  173838+
+         172673  163225  156505  172669  156503  156506  149987  172672+
+         153353  149986  165995  172674  165993  165996
CHEXA      43595       4  153392  172879  173836  153391  163227  172882+
+         173838  163226  156507  172881  156505  156508  149988  153354+
+         172672  149987  165997  172884  165995  165998
CHEXA      43596       4  153393  173843  172879  153392  163228  173846+
+         172882  163227  156509  172880  156507  156510  149989  172688+
+         153354  149988  165999  172883  165997  166000
CHEXA      43597       4  153394  153395  173843  153393  163580  163229+
+         173846  163228  156512  156511  156509  156513  149990  149991+
+         172688  149989  166001  166002  165999  166003
CHEXA      43598       4  153396  172684  173843  153395  163230  172689+
+         173846  163229  156514  172686  156511  156515  149992  153357+
+         172688  149991  166004  172691  166002  166005
CHEXA      43599       4  153373  173844  172684  153396  163211  173845+
+         172689  163230  156473  172685  156514  156516  149970  172687+
+         153357  149992  165964  172690  166004  166006
CHEXA      43600       4  153397  173856  172708  153420  163191  173857+
+         172713  163210  156518  172710  156517  156519  149993  172711+
+         153361  149994  166007  172715  166008  166009
CHEXA      43601       4  153398  153399  173856  153397  163383  163192+
+         173857  163191  156521  156520  156518  156522  149995  149996+
+         172711  149993  166010  166011  166007  166012
CHEXA      43602       4  153400  172897  173856  153399  163193  172900+
+         173857  163192  156523  172899  156520  156524  149997  153358+
+         172711  149996  166013  172902  166011  166014
CHEXA      43603       4  153401  173840  172897  153400  163194  173841+
+         172900  163193  156525  172898  156523  156526  149998  172679+
+         153358  149997  166015  172901  166013  166016
CHEXA      43604       4  153402  172676  173840  153401  163195  172681+
+         173841  163194  156527  172677  156525  156528  149999  153355+
+         172679  149998  166017  172682  166015  166018
CHEXA      43605       4  153403  173839  172676  153402  163196  173842+
+         172681  163195  156529  172678  156527  156530  150000  172680+
+         153355  149999  166019  172683  166017  166020
CHEXA      43606       4  153404  153405  173839  153403  163552  163197+
+         173842  163196  156532  156531  156529  156533  150001  150002+
+         172680  150000  166021  166022  166019  166023
CHEXA      43607       4  153406  172867  173839  153405  163198  172870+
+         173842  163197  156534  172869  156531  156535  150003  153351+
+         172680  150002  166024  172872  166022  166025
CHEXA      43608       4  153407  173832  172867  153406  163199  173833+
+         172870  163198  156536  172868  156534  156537  150004  172663+
+         153351  150003  166026  172871  166024  166027
CHEXA      43609       4  153408  172660  173832  153407  163200  172665+
+         173833  163199  156538  172662  156536  156539  150005  153352+
+         172663  150004  166028  172667  166026  166029
CHEXA      43610       4  153409  173831  172660  153408  163201  173834+
+         172665  163200  156540  172661  156538  156541  150006  172664+
+         153352  150005  166030  172666  166028  166031
CHEXA      43611       4  153410  153411  173831  153409  163557  163202+
+         173834  163201  156543  156542  156540  156544  150007  150008+
+         172664  150006  166032  166033  166030  166034
CHEXA      43612       4  153412  172891  173831  153411  163203  172894+
+         173834  163202  156545  172892  156542  156546  150009  153324+
+         172664  150008  166035  172895  166033  166036
CHEXA      43613       4  153413  173847  172891  153412  163204  173850+
+         172894  163203  156547  172893  156545  156548  150010  172696+
+         153324  150009  166037  172896  166035  166038
CHEXA      43614       4  153414  172692  173847  153413  163205  172697+
+         173850  163204  156549  172694  156547  156550  150011  153359+
+         172696  150010  166039  172699  166037  166040
CHEXA      43615       4  153415  173848  172692  153414  163206  173849+
+         172697  163205  156551  172693  156549  156552  150012  172695+
+         153359  150011  166041  172698  166039  166042
CHEXA      43616       4  153416  153417  173848  153415  163563  163207+
+         173849  163206  156554  156553  156551  156555  150013  150014+
+         172695  150012  166043  166044  166041  166045
CHEXA      43617       4  153418  172873  173848  153417  163208  172876+
+         173849  163207  156556  172875  156553  156557  150015  153362+
+         172695  150014  166046  172878  166044  166047
CHEXA      43618       4  153419  173855  172873  153418  163209  173858+
+         172876  163208  156558  172874  156556  156559  150016  172712+
+         153362  150015  166048  172877  166046  166049
CHEXA      43619       4  153420  172708  173855  153419  163210  172713+
+         173858  163209  156517  172709  156558  156560  149994  153361+
+         172712  150016  166008  172714  166048  166050
CHEXA      43620       4  153422  172813  173806  153421  163172  172816+
+         173808  163171  156562  172815  156561  156563  150017  153338+
+         172621  150018  166051  172818  166052  166053
CHEXA      43621       4  153423  173813  172813  153422  163173  173814+
+         172816  163172  156564  172814  156562  156565  150019  172633+
+         153338  150017  166054  172817  166051  166055
CHEXA      43622       4  153424  153425  173813  153423  163349  163174+
+         173814  163173  156567  156566  156564  156568  150020  150021+
+         172633  150019  166056  166057  166054  166058
CHEXA      43623       4  153426  172849  173813  153425  163175  172852+
+         173814  163174  156569  172850  156566  156570  150022  153342+
+         172633  150021  166059  172853  166057  166060
CHEXA      43624       4  153427  173773  172849  153426  163176  173776+
+         172852  163175  156571  172851  156569  156572  150023  172575+
+         153342  150022  166061  172854  166059  166062
CHEXA      43625       4  153428  172571  173773  153427  163177  172576+
+         173776  163176  156573  172572  156571  156574  150024  153322+
+         172575  150023  166063  172577  166061  166064
CHEXA      43626       4  153429  173774  172571  153428  163178  173775+
+         172576  163177  156575  172573  156573  156576  150025  172574+
+         153322  150024  166065  172578  166063  166066
CHEXA      43627       4  153430  153431  173774  153429  163543  163179+
+         173775  163178  156578  156577  156575  156579  150026  150027+
+         172574  150025  166067  166068  166065  166069
CHEXA      43628       4  153432  172807  173774  153431  163180  172810+
+         173775  163179  156580  172808  156577  156581  150028  153348+
+         172574  150027  166070  172811  166068  166071
CHEXA      43629       4  153433  173823  172807  153432  163181  173826+
+         172810  163180  156582  172809  156580  156583  150029  172648+
+         153348  150028  166072  172812  166070  166073
CHEXA      43630       4  153434  172644  173823  153433  163182  172649+
+         173826  163181  156584  172646  156582  156585  150030  153347+
+         172648  150029  166074  172651  166072  166075
CHEXA      43631       4  153435  173824  172644  153434  163183  173825+
+         172649  163182  156586  172645  156584  156587  150031  172647+
+         153347  150030  166076  172650  166074  166077
CHEXA      43632       4  153436  153437  173824  153435  163359  163184+
+         173825  163183  156589  156588  156586  156590  150032  150033+
+         172647  150031  166078  166079  166076  166080
CHEXA      43633       4  153438  172819  173824  153437  163185  172822+
+         173825  163184  156591  172821  156588  156592  150034  153344+
+         172647  150033  166081  172824  166079  166082
CHEXA      43634       4  153439  173817  172819  153438  163186  173818+
+         172822  163185  156593  172820  156591  156594  150035  172635+
+         153344  150034  166083  172823  166081  166084
CHEXA      43635       4  153440  172843  173817  153439  163187  172846+
+         173818  163186  156595  172844  156593  156596  150036  153341+
+         172635  150035  166085  172847  166083  166086
CHEXA      43636       4  153441  173805  172843  153440  163188  173807+
+         172846  163187  156597  172845  156595  156598  150037  172620+
+         153341  150036  166087  172848  166085  166088
CHEXA      43637       4  153442  153443  173805  153441  163355  163189+
+         173807  163188  156600  156599  156597  156601  150038  150039+
+         172620  150037  166089  166090  166087  166091
CHEXA      43638       4  153444  172617  173805  153443  163190  172622+
+         173807  163189  156602  172619  156599  156603  150040  153337+
+         172620  150039  166092  172624  166090  166093
CHEXA      43639       4  153421  173806  172617  153444  163171  173808+
+         172622  163190  156561  172618  156602  156604  150018  172621+
+         153337  150040  166052  172623  166092  166094
CHEXA      43640       4  153445  173777  172837  153468  163151  173778+
+         172840  163170  156606  172839  156605  156607  150041  172579+
+         153340  150042  166095  172842  166096  166097
CHEXA      43641       4  153446  153447  173777  153445  163233  163152+
+         173778  163151  156609  156608  156606  156610  150043  150044+
+         172579  150041  166098  166099  166095  166100
CHEXA      43642       4  153448  172855  173777  153447  163153  172858+
+         173778  163152  156611  172857  156608  156612  150045  153323+
+         172579  150044  166101  172860  166099  166102
CHEXA      43643       4  153449  173820  172855  153448  163154  173822+
+         172858  163153  156613  172856  156611  156614  150046  172640+
+         153323  150045  166103  172859  166101  166104
CHEXA      43644       4  153450  172636  173820  153449  163155  172641+
+         173822  163154  156615  172637  156613  156616  150047  153346+
+         172640  150046  166105  172642  166103  166106
CHEXA      43645       4  153451  173819  172636  153450  163156  173821+
+         172641  163155  156617  172638  156615  156618  150048  172639+
+         153346  150047  166107  172643  166105  166108
CHEXA      43646       4  153452  153453  173819  153451  163526  163157+
+         173821  163156  156620  156619  156617  156621  150049  150050+
+         172639  150048  166109  166110  166107  166111
CHEXA      43647       4  153454  172831  173819  153453  163158  172834+
+         173821  163157  156622  172832  156619  156623  150051  153350+
+         172639  150050  166112  172835  166110  166113
CHEXA      43648       4  153455  173827  172831  153454  163159  173830+
+         172834  163158  156624  172833  156622  156625  150052  172656+
+         153350  150051  166114  172836  166112  166115
CHEXA      43649       4  153456  172652  173827  153455  163160  172657+
+         173830  163159  156626  172653  156624  156627  150053  153349+
+         172656  150052  166116  172658  166114  166117
CHEXA      43650       4  153457  173828  172652  153456  163161  173829+
+         172657  163160  156628  172654  156626  156629  150054  172655+
+         153349  150053  166118  172659  166116  166119
CHEXA      43651       4  153458  153459  173828  153457  163532  163162+
+         173829  163161  156631  156630  156628  156632  150055  150056+
+         172655  150054  166120  166121  166118  166122
CHEXA      43652       4  153460  172861  173828  153459  163163  172864+
+         173829  163162  156633  172862  156630  156634  150057  153345+
+         172655  150056  166123  172865  166121  166124
CHEXA      43653       4  153461  173816  172861  153460  163164  173815+
+         172864  163163  156635  172863  156633  156636  150058  172634+
+         153345  150057  166125  172866  166123  166126
CHEXA      43654       4  153462  172825  173816  153461  163165  172828+
+         173815  163164  156637  172826  156635  156638  150059  153343+
+         172634  150058  166127  172829  166125  166128
CHEXA      43655       4  153463  173809  172825  153462  163166  173811+
+         172828  163165  156639  172827  156637  156640  150060  172628+
+         153343  150059  166129  172830  166127  166130
CHEXA      43656       4  153464  153465  173809  153463  163538  163167+
+         173811  163166  156642  156641  156639  156643  150061  150062+
+         172628  150060  166131  166132  166129  166133
CHEXA      43657       4  153466  172625  173809  153465  163168  172630+
+         173811  163167  156644  172626  156641  156645  150063  153339+
+         172628  150062  166134  172631  166132  166135
CHEXA      43658       4  153467  173810  172625  153466  163169  173812+
+         172630  163168  156646  172627  156644  156647  150064  172629+
+         153339  150063  166136  172632  166134  166137
CHEXA      43659       4  153468  172837  173810  153467  163170  172840+
+         173812  163169  156605  172838  156646  156648  150042  153340+
+         172629  150064  166096  172841  166136  166138
CHEXA      43660       4  173091  173764  172431  153469  173162  173768+
+         172541  162863  173161  172458  156649  156650  153320  172462+
+         153120  150065  173232  172568  166139  166140
CHEXA      43661       4  153470  173092  173091  153469  162864  173163+
+         173162  162863  156651  173160  156650  156652  150066  153319+
+         153320  150065  166141  173231  166140  166142
CHEXA      43662       4  153471  173093  173092  153470  162865  173164+
+         173163  162864  156653  173159  156651  156654  150067  153318+
+         153319  150066  166143  173230  166141  166144
CHEXA      43663       4  153472  173094  173093  153471  162866  173165+
+         173164  162865  156655  173158  156653  156656  150068  153317+
+         153318  150067  166145  173229  166143  166146
CHEXA      43664       4  153473  173095  173094  153472  162867  173166+
+         173165  162866  156657  173157  156655  156658  150069  153316+
+         153317  150068  166147  173228  166145  166148
CHEXA      43665       4  153474  173096  173095  153473  162868  173167+
+         173166  162867  156659  173156  156657  156660  150070  153315+
+         153316  150069  166149  173227  166147  166150
CHEXA      43666       4  153475  173097  173096  153474  162869  173168+
+         173167  162868  156661  173155  156659  156662  150071  153314+
+         153315  150070  166151  173226  166149  166152
CHEXA      43667       4  153476  173098  173097  153475  162870  173169+
+         173168  162869  156663  173154  156661  156664  150072  153313+
+         153314  150071  166153  173225  166151  166154
CHEXA      43668       4  153477  173099  173098  153476  162871  173170+
+         173169  162870  156665  173153  156663  156666  150073  153312+
+         153313  150072  166155  173224  166153  166156
CHEXA      43669       4  153478  173100  173099  153477  162872  173171+
+         173170  162871  156667  173152  156665  156668  150074  153311+
+         153312  150073  166157  173223  166155  166158
CHEXA      43670       4  153479  173101  173100  153478  162873  173172+
+         173171  162872  156669  173151  156667  156670  150075  153310+
+         153311  150074  166159  173222  166157  166160
CHEXA      43671       4  153480  173102  173101  153479  162874  173173+
+         173172  162873  156671  173150  156669  156672  150076  153309+
+         153310  150075  166161  173221  166159  166162
CHEXA      43672       4  153481  173103  173102  153480  162875  173174+
+         173173  162874  156673  173149  156671  156674  150077  153308+
+         153309  150076  166163  173220  166161  166164
CHEXA      43673       4  153482  173104  173103  153481  162876  173175+
+         173174  162875  156675  173148  156673  156676  150078  153307+
+         153308  150077  166165  173219  166163  166166
CHEXA      43674       4  153483  173105  173104  153482  162877  173176+
+         173175  162876  156677  173147  156675  156678  150079  153306+
+         153307  150078  166167  173218  166165  166168
CHEXA      43675       4  153484  173106  173105  153483  162878  173177+
+         173176  162877  156679  173146  156677  156680  150080  153305+
+         153306  150079  166169  173217  166167  166170
CHEXA      43676       4  153485  173107  173106  153484  162879  173178+
+         173177  162878  156681  173145  156679  156682  150081  153304+
+         153305  150080  166171  173216  166169  166172
CHEXA      43677       4  153486  173108  173107  153485  162880  173179+
+         173178  162879  156683  173144  156681  156684  150082  153303+
+         153304  150081  166173  173215  166171  166174
CHEXA      43678       4  153487  173109  173108  153486  162881  173180+
+         173179  162880  156685  173143  156683  156686  150083  153302+
+         153303  150082  166175  173214  166173  166176
CHEXA      43679       4  153488  173110  173109  153487  162882  173181+
+         173180  162881  156687  173142  156685  156688  150084  153301+
+         153302  150083  166177  173213  166175  166178
CHEXA      43680       4  153489  173111  173110  153488  162883  173182+
+         173181  162882  156689  173141  156687  156690  150085  153300+
+         153301  150084  166179  173212  166177  166180
CHEXA      43681       4  153490  173112  173111  153489  162884  173183+
+         173182  162883  156691  173140  156689  156692  150086  153299+
+         153300  150085  166181  173211  166179  166182
CHEXA      43682       4  153491  173113  173112  153490  162885  173184+
+         173183  162884  156693  173139  156691  156694  150087  153298+
+         153299  150086  166183  173210  166181  166184
CHEXA      43683       4  153492  173114  173113  153491  162886  173185+
+         173184  162885  156695  173138  156693  156696  150088  153297+
+         153298  150087  166185  173209  166183  166186
CHEXA      43684       4  153493  173115  173114  153492  162887  173186+
+         173185  162886  156697  173137  156695  156698  150089  153296+
+         153297  150088  166187  173208  166185  166188
CHEXA      43685       4  153494  173116  173115  153493  162888  173187+
+         173186  162887  156699  173136  156697  156700  150090  153295+
+         153296  150089  166189  173207  166187  166190
CHEXA      43686       4  153495  173117  173116  153494  162889  173188+
+         173187  162888  156701  173135  156699  156702  150091  153294+
+         153295  150090  166191  173206  166189  166192
CHEXA      43687       4  153496  173118  173117  153495  162890  173189+
+         173188  162889  156703  173134  156701  156704  150092  153293+
+         153294  150091  166193  173205  166191  166194
CHEXA      43688       4  153497  173119  173118  153496  162891  173190+
+         173189  162890  156705  173133  156703  156706  150093  153292+
+         153293  150092  166195  173204  166193  166196
CHEXA      43689       4  153498  173120  173119  153497  162892  173191+
+         173190  162891  156707  173132  156705  156708  150094  153291+
+         153292  150093  166197  173203  166195  166198
CHEXA      43690       4  153499  173121  173120  153498  162893  173192+
+         173191  162892  156709  173131  156707  156710  150095  153290+
+         153291  150094  166199  173202  166197  166200
CHEXA      43691       4  153500  173122  173121  153499  162894  173193+
+         173192  162893  156711  173130  156709  156712  150096  153289+
+         153290  150095  166201  173201  166199  166202
CHEXA      43692       4  153501  173123  173122  153500  162895  173194+
+         173193  162894  156713  173129  156711  156714  150097  153288+
+         153289  150096  166203  173200  166201  166204
CHEXA      43693       4  153502  173124  173123  153501  162896  173195+
+         173194  162895  156715  173128  156713  156716  150098  153287+
+         153288  150097  166205  173199  166203  166206
CHEXA      43694       4  153503  173125  173124  153502  162897  173196+
+         173195  162896  156717  173127  156715  156718  150099  153286+
+         153287  150098  166207  173198  166205  166208
CHEXA      43695       4  172771  173781  173125  153503  172774  173782+
+         173196  162897  172772  173126  156717  156719  153321  172581+
+         153286  150099  172775  173197  166207  166209
CHEXA      43696       4  153504  173772  172771  153503  162898  173771+
+         172774  162897  156720  172773  156719  156721  150100  172570+
+         153321  150099  166210  172776  166209  166211
CHEXA      43697       4  153505  172801  173772  153504  162899  172804+
+         173771  162898  156722  172803  156720  156723  150101  153332+
+         172570  150100  166212  172806  166210  166213
CHEXA      43698       4  153506  173802  172801  153505  162900  173804+
+         172804  162899  156724  172802  156722  156725  150102  172613+
+         153332  150101  166214  172805  166212  166215
CHEXA      43699       4  153507  153508  173802  153506  163268  162901+
+         173804  162900  156727  156726  156724  156728  150103  150104+
+         172613  150102  166216  166217  166214  166218
CHEXA      43700       4  153509  172609  173802  153508  162902  172614+
+         173804  162901  156729  172610  156726  156730  150105  153336+
+         172613  150104  166219  172615  166217  166220
CHEXA      43701       4  153510  173801  172609  153509  162903  173803+
+         172614  162902  156731  172611  156729  156732  150106  172612+
+         153336  150105  166221  172616  166219  166222
CHEXA      43702       4  153511  172777  173801  153510  162904  172780+
+         173803  162903  156733  172778  156731  156734  150107  153335+
+         172612  150106  166223  172781  166221  166224
CHEXA      43703       4  153512  173795  172777  153511  162905  173796+
+         172780  162904  156735  172779  156733  156736  150108  172600+
+         153335  150107  166225  172782  166223  166226
CHEXA      43704       4  153513  153514  173795  153512  163274  162906+
+         173796  162905  156738  156737  156735  156739  150109  150110+
+         172600  150108  166227  166228  166225  166229
CHEXA      43705       4  153515  172795  173795  153514  162907  172798+
+         173796  162906  156740  172796  156737  156741  150111  153331+
+         172600  150110  166230  172799  166228  166231
CHEXA      43706       4  153516  173788  172795  153515  162908  173789+
+         172798  162907  156742  172797  156740  156743  150112  172587+
+         153331  150111  166232  172800  166230  166233
CHEXA      43707       4  153517  172584  173788  153516  162909  172589+
+         173789  162908  156744  172586  156742  156745  150113  153328+
+         172587  150112  166234  172591  166232  166235
CHEXA      43708       4  173233  173787  172584  153517  173294  173790+
+         172589  162909  173263  172585  156744  156746  153256  172588+
+         153328  150113  173324  172590  166234  166236
CHEXA      43709       4  153518  173234  173233  153517  162910  173295+
+         173294  162909  156747  173264  156746  156748  150114  153257+
+         153256  150113  166237  173325  166236  166238
CHEXA      43710       4  153519  173235  173234  153518  162911  173296+
+         173295  162910  156749  173265  156747  156750  150115  153258+
+         153257  150114  166239  173326  166237  166240
CHEXA      43711       4  153520  173236  173235  153519  162912  173297+
+         173296  162911  156751  173266  156749  156752  150116  153259+
+         153258  150115  166241  173327  166239  166242
CHEXA      43712       4  153521  173237  173236  153520  162913  173298+
+         173297  162912  156753  173267  156751  156754  150117  153260+
+         153259  150116  166243  173328  166241  166244
CHEXA      43713       4  153522  173238  173237  153521  162914  173299+
+         173298  162913  156755  173268  156753  156756  150118  153261+
+         153260  150117  166245  173329  166243  166246
CHEXA      43714       4  153523  173239  173238  153522  162915  173300+
+         173299  162914  156757  173269  156755  156758  150119  153262+
+         153261  150118  166247  173330  166245  166248
CHEXA      43715       4  153524  173240  173239  153523  162916  173301+
+         173300  162915  156759  173270  156757  156760  150120  153263+
+         153262  150119  166249  173331  166247  166250
CHEXA      43716       4  153525  173241  173240  153524  162917  173302+
+         173301  162916  156761  173271  156759  156762  150121  153264+
+         153263  150120  166251  173332  166249  166252
CHEXA      43717       4  153526  173242  173241  153525  162918  173303+
+         173302  162917  156763  173272  156761  156764  150122  153265+
+         153264  150121  166253  173333  166251  166254
CHEXA      43718       4  153527  173243  173242  153526  162919  173304+
+         173303  162918  156765  173273  156763  156766  150123  153266+
+         153265  150122  166255  173334  166253  166256
CHEXA      43719       4  153528  173244  173243  153527  162920  173305+
+         173304  162919  156767  173274  156765  156768  150124  153267+
+         153266  150123  166257  173335  166255  166258
CHEXA      43720       4  153529  173245  173244  153528  162921  173306+
+         173305  162920  156769  173275  156767  156770  150125  153268+
+         153267  150124  166259  173336  166257  166260
CHEXA      43721       4  153530  173246  173245  153529  162922  173307+
+         173306  162921  156771  173276  156769  156772  150126  153269+
+         153268  150125  166261  173337  166259  166262
CHEXA      43722       4  153531  173247  173246  153530  162923  173308+
+         173307  162922  156773  173277  156771  156774  150127  153270+
+         153269  150126  166263  173338  166261  166264
CHEXA      43723       4  153532  173248  173247  153531  162924  173309+
+         173308  162923  156775  173278  156773  156776  150128  153271+
+         153270  150127  166265  173339  166263  166266
CHEXA      43724       4  153533  173249  173248  153532  162925  173310+
+         173309  162924  156777  173279  156775  156778  150129  153272+
+         153271  150128  166267  173340  166265  166268
CHEXA      43725       4  153534  173250  173249  153533  162926  173311+
+         173310  162925  156779  173280  156777  156780  150130  153273+
+         153272  150129  166269  173341  166267  166270
CHEXA      43726       4  153535  173251  173250  153534  162927  173312+
+         173311  162926  156781  173281  156779  156782  150131  153274+
+         153273  150130  166271  173342  166269  166272
CHEXA      43727       4  153536  173252  173251  153535  162928  173313+
+         173312  162927  156783  173282  156781  156784  150132  153275+
+         153274  150131  166273  173343  166271  166274
CHEXA      43728       4  153537  173253  173252  153536  162929  173314+
+         173313  162928  156785  173283  156783  156786  150133  153276+
+         153275  150132  166275  173344  166273  166276
CHEXA      43729       4  153538  173254  173253  153537  162930  173315+
+         173314  162929  156787  173284  156785  156788  150134  153277+
+         153276  150133  166277  173345  166275  166278
CHEXA      43730       4  153539  173255  173254  153538  162931  173316+
+         173315  162930  156789  173285  156787  156790  150135  153278+
+         153277  150134  166279  173346  166277  166280
CHEXA      43731       4  153540  173256  173255  153539  162932  173317+
+         173316  162931  156791  173286  156789  156792  150136  153279+
+         153278  150135  166281  173347  166279  166282
CHEXA      43732       4  153541  173257  173256  153540  162933  173318+
+         173317  162932  156793  173287  156791  156794  150137  153280+
+         153279  150136  166283  173348  166281  166284
CHEXA      43733       4  153542  173258  173257  153541  162934  173319+
+         173318  162933  156795  173288  156793  156796  150138  153281+
+         153280  150137  166285  173349  166283  166286
CHEXA      43734       4  153543  173259  173258  153542  162935  173320+
+         173319  162934  156797  173289  156795  156798  150139  153282+
+         153281  150138  166287  173350  166285  166288
CHEXA      43735       4  153544  173260  173259  153543  162936  173321+
+         173320  162935  156799  173290  156797  156800  150140  153283+
+         153282  150139  166289  173351  166287  166290
CHEXA      43736       4  153545  173261  173260  153544  162937  173322+
+         173321  162936  156801  173291  156799  156802  150141  153284+
+         153283  150140  166291  173352  166289  166292
CHEXA      43737       4  153546  173262  173261  153545  162938  173323+
+         173322  162937  156803  173292  156801  156804  150142  153285+
+         153284  150141  166293  173353  166291  166294
CHEXA      43738       4  172759  173770  173262  153546  172762  173769+
+         173323  162938  172761  173293  156803  156805  153327  172569+
+         153285  150142  172764  173354  166293  166295
CHEXA      43739       4  153547  173785  172759  153546  162939  173786+
+         172762  162938  156806  172760  156805  156807  150143  172583+
+         153327  150142  166296  172763  166295  166297
CHEXA      43740       4  153548  172789  173785  153547  162940  172792+
+         173786  162939  156808  172790  156806  156809  150144  153330+
+         172583  150143  166298  172793  166296  166299
CHEXA      43741       4  153549  173797  172789  153548  162941  173800+
+         172792  162940  156810  172791  156808  156811  150145  172605+
+         153330  150144  166300  172794  166298  166301
CHEXA      43742       4  153550  153551  173797  153549  163309  162942+
+         173800  162941  156813  156812  156810  156814  150146  150147+
+         172605  150145  166302  166303  166300  166304
CHEXA      43743       4  153552  172601  173797  153551  162943  172606+
+         173800  162942  156815  172602  156812  156816  150148  153334+
+         172605  150147  166305  172607  166303  166306
CHEXA      43744       4  153553  173798  172601  153552  162944  173799+
+         172606  162943  156817  172603  156815  156818  150149  172604+
+         153334  150148  166307  172608  166305  166308
CHEXA      43745       4  153554  172765  173798  153553  162945  172768+
+         173799  162944  156819  172767  156817  156820  150150  153333+
+         172604  150149  166309  172770  166307  166310
CHEXA      43746       4  153555  173791  172765  153554  162946  173793+
+         172768  162945  156821  172766  156819  156822  150151  172595+
+         153333  150150  166311  172769  166309  166312
CHEXA      43747       4  153556  153557  173791  153555  163315  162947+
+         173793  162946  156824  156823  156821  156825  150152  150153+
+         172595  150151  166313  166314  166311  166315
CHEXA      43748       4  153558  172592  173791  153557  162948  172597+
+         173793  162947  156826  172594  156823  156827  150154  153329+
+         172595  150153  166316  172599  166314  166317
CHEXA      43749       4  153559  173792  172592  153558  162949  173794+
+         172597  162948  156828  172593  156826  156829  150155  172596+
+         153329  150154  166318  172598  166316  166319
CHEXA      43750       4  153560  172783  173792  153559  162950  172786+
+         173794  162949  156830  172785  156828  156831  150156  153326+
+         172596  150155  166320  172788  166318  166321
CHEXA      43751       4  173355  173784  172783  153560  173426  173783+
+         172786  162950  173425  172784  156830  156832  153255  172582+
+         153326  150156  173496  172787  166320  166322
CHEXA      43752       4  153561  173356  173355  153560  162951  173427+
+         173426  162950  156833  173424  156832  156834  150157  153254+
+         153255  150156  166323  173495  166322  166324
CHEXA      43753       4  153562  173357  173356  153561  162952  173428+
+         173427  162951  156835  173423  156833  156836  150158  153253+
+         153254  150157  166325  173494  166323  166326
CHEXA      43754       4  153563  173358  173357  153562  162953  173429+
+         173428  162952  156837  173422  156835  156838  150159  153252+
+         153253  150158  166327  173493  166325  166328
CHEXA      43755       4  153564  173359  173358  153563  162954  173430+
+         173429  162953  156839  173421  156837  156840  150160  153251+
+         153252  150159  166329  173492  166327  166330
CHEXA      43756       4  153565  173360  173359  153564  162955  173431+
+         173430  162954  156841  173420  156839  156842  150161  153250+
+         153251  150160  166331  173491  166329  166332
CHEXA      43757       4  153566  173361  173360  153565  162956  173432+
+         173431  162955  156843  173419  156841  156844  150162  153249+
+         153250  150161  166333  173490  166331  166334
CHEXA      43758       4  153567  173362  173361  153566  162957  173433+
+         173432  162956  156845  173418  156843  156846  150163  153248+
+         153249  150162  166335  173489  166333  166336
CHEXA      43759       4  153568  173363  173362  153567  162958  173434+
+         173433  162957  156847  173417  156845  156848  150164  153247+
+         153248  150163  166337  173488  166335  166338
CHEXA      43760       4  153569  173364  173363  153568  162959  173435+
+         173434  162958  156849  173416  156847  156850  150165  153246+
+         153247  150164  166339  173487  166337  166340
CHEXA      43761       4  153570  173365  173364  153569  162960  173436+
+         173435  162959  156851  173415  156849  156852  150166  153245+
+         153246  150165  166341  173486  166339  166342
CHEXA      43762       4  153571  173366  173365  153570  162961  173437+
+         173436  162960  156853  173414  156851  156854  150167  153244+
+         153245  150166  166343  173485  166341  166344
CHEXA      43763       4  153572  173367  173366  153571  162962  173438+
+         173437  162961  156855  173413  156853  156856  150168  153243+
+         153244  150167  166345  173484  166343  166346
CHEXA      43764       4  153573  173368  173367  153572  162963  173439+
+         173438  162962  156857  173412  156855  156858  150169  153242+
+         153243  150168  166347  173483  166345  166348
CHEXA      43765       4  153574  173369  173368  153573  162964  173440+
+         173439  162963  156859  173411  156857  156860  150170  153241+
+         153242  150169  166349  173482  166347  166350
CHEXA      43766       4  153575  173370  173369  153574  162965  173441+
+         173440  162964  156861  173410  156859  156862  150171  153240+
+         153241  150170  166351  173481  166349  166352
CHEXA      43767       4  153576  173371  173370  153575  162966  173442+
+         173441  162965  156863  173409  156861  156864  150172  153239+
+         153240  150171  166353  173480  166351  166354
CHEXA      43768       4  153577  173372  173371  153576  162967  173443+
+         173442  162966  156865  173408  156863  156866  150173  153238+
+         153239  150172  166355  173479  166353  166356
CHEXA      43769       4  153578  173373  173372  153577  162968  173444+
+         173443  162967  156867  173407  156865  156868  150174  153237+
+         153238  150173  166357  173478  166355  166358
CHEXA      43770       4  153579  173374  173373  153578  162969  173445+
+         173444  162968  156869  173406  156867  156870  150175  153236+
+         153237  150174  166359  173477  166357  166360
CHEXA      43771       4  153580  173375  173374  153579  162970  173446+
+         173445  162969  156871  173405  156869  156872  150176  153235+
+         153236  150175  166361  173476  166359  166362
CHEXA      43772       4  153581  173376  173375  153580  162971  173447+
+         173446  162970  156873  173404  156871  156874  150177  153234+
+         153235  150176  166363  173475  166361  166364
CHEXA      43773       4  153582  173377  173376  153581  162972  173448+
+         173447  162971  156875  173403  156873  156876  150178  153233+
+         153234  150177  166365  173474  166363  166366
CHEXA      43774       4  153583  173378  173377  153582  162973  173449+
+         173448  162972  156877  173402  156875  156878  150179  153232+
+         153233  150178  166367  173473  166365  166368
CHEXA      43775       4  153584  173379  173378  153583  162974  173450+
+         173449  162973  156879  173401  156877  156880  150180  153231+
+         153232  150179  166369  173472  166367  166370
CHEXA      43776       4  153585  173380  173379  153584  162975  173451+
+         173450  162974  156881  173400  156879  156882  150181  153230+
+         153231  150180  166371  173471  166369  166372
CHEXA      43777       4  153586  173381  173380  153585  162976  173452+
+         173451  162975  156883  173399  156881  156884  150182  153229+
+         153230  150181  166373  173470  166371  166374
CHEXA      43778       4  153587  173382  173381  153586  162977  173453+
+         173452  162976  156885  173398  156883  156886  150183  153228+
+         153229  150182  166375  173469  166373  166376
CHEXA      43779       4  153588  173383  173382  153587  162978  173454+
+         173453  162977  156887  173397  156885  156888  150184  153227+
+         153228  150183  166377  173468  166375  166378
CHEXA      43780       4  153589  173384  173383  153588  162979  173455+
+         173454  162978  156889  173396  156887  156890  150185  153226+
+         153227  150184  166379  173467  166377  166380
CHEXA      43781       4  153590  173385  173384  153589  162980  173456+
+         173455  162979  156891  173395  156889  156892  150186  153225+
+         153226  150185  166381  173466  166379  166382
CHEXA      43782       4  153591  173386  173385  153590  162981  173457+
+         173456  162980  156893  173394  156891  156894  150187  153224+
+         153225  150186  166383  173465  166381  166384
CHEXA      43783       4  153592  173387  173386  153591  162982  173458+
+         173457  162981  156895  173393  156893  156896  150188  153223+
+         153224  150187  166385  173464  166383  166386
CHEXA      43784       4  153593  173388  173387  153592  162983  173459+
+         173458  162982  156897  173392  156895  156898  150189  153222+
+         153223  150188  166387  173463  166385  166388
CHEXA      43785       4  153594  173389  173388  153593  162984  173460+
+         173459  162983  156899  173391  156897  156900  150190  153221+
+         153222  150189  166389  173462  166387  166390
CHEXA      43786       4  172353  173761  173389  153594  172463  173767+
+         173460  162984  172379  173390  156899  156901  153069  172461+
+         153221  150190  172489  173461  166389  166391
CHEXA      43787       4  153595  172354  172353  153594  162985  172464+
+         172463  162984  156902  172380  156901  156903  150191  153070+
+         153069  150190  166392  172490  166391  166393
CHEXA      43788       4  153596  172355  172354  153595  162986  172465+
+         172464  162985  156904  172381  156902  156905  150192  153071+
+         153070  150191  166394  172491  166392  166395
CHEXA      43789       4  153597  172356  172355  153596  162987  172466+
+         172465  162986  156906  172382  156904  156907  150193  153072+
+         153071  150192  166396  172492  166394  166397
CHEXA      43790       4  153598  172357  172356  153597  162988  172467+
+         172466  162987  156908  172383  156906  156909  150194  153073+
+         153072  150193  166398  172493  166396  166399
CHEXA      43791       4  153599  172358  172357  153598  162989  172468+
+         172467  162988  156910  172384  156908  156911  150195  153074+
+         153073  150194  166400  172494  166398  166401
CHEXA      43792       4  153600  172359  172358  153599  162990  172469+
+         172468  162989  156912  172385  156910  156913  150196  153075+
+         153074  150195  166402  172495  166400  166403
CHEXA      43793       4  153601  172360  172359  153600  162991  172470+
+         172469  162990  156914  172386  156912  156915  150197  153076+
+         153075  150196  166404  172496  166402  166405
CHEXA      43794       4  153602  172361  172360  153601  162992  172471+
+         172470  162991  156916  172387  156914  156917  150198  153077+
+         153076  150197  166406  172497  166404  166407
CHEXA      43795       4  153603  172362  172361  153602  162993  172472+
+         172471  162992  156918  172388  156916  156919  150199  153078+
+         153077  150198  166408  172498  166406  166409
CHEXA      43796       4  153604  172363  172362  153603  162994  172473+
+         172472  162993  156920  172389  156918  156921  150200  153079+
+         153078  150199  166410  172499  166408  166411
CHEXA      43797       4  153605  172364  172363  153604  162995  172474+
+         172473  162994  156922  172390  156920  156923  150201  153080+
+         153079  150200  166412  172500  166410  166413
CHEXA      43798       4  153606  172365  172364  153605  162996  172475+
+         172474  162995  156924  172391  156922  156925  150202  153081+
+         153080  150201  166414  172501  166412  166415
CHEXA      43799       4  153607  172366  172365  153606  162997  172476+
+         172475  162996  156926  172392  156924  156927  150203  153082+
+         153081  150202  166416  172502  166414  166417
CHEXA      43800       4  153608  172367  172366  153607  162998  172477+
+         172476  162997  156928  172393  156926  156929  150204  153083+
+         153082  150203  166418  172503  166416  166419
CHEXA      43801       4  153609  172368  172367  153608  162999  172478+
+         172477  162998  156930  172394  156928  156931  150205  153084+
+         153083  150204  166420  172504  166418  166421
CHEXA      43802       4  153610  172369  172368  153609  163000  172479+
+         172478  162999  156932  172395  156930  156933  150206  153085+
+         153084  150205  166422  172505  166420  166423
CHEXA      43803       4  153611  172370  172369  153610  163001  172480+
+         172479  163000  156934  172396  156932  156935  150207  153086+
+         153085  150206  166424  172506  166422  166425
CHEXA      43804       4  153612  172371  172370  153611  163002  172481+
+         172480  163001  156936  172397  156934  156937  150208  153087+
+         153086  150207  166426  172507  166424  166427
CHEXA      43805       4  153613  172372  172371  153612  163003  172482+
+         172481  163002  156938  172398  156936  156939  150209  153088+
+         153087  150208  166428  172508  166426  166429
CHEXA      43806       4  153614  172373  172372  153613  163004  172483+
+         172482  163003  156940  172399  156938  156941  150210  153089+
+         153088  150209  166430  172509  166428  166431
CHEXA      43807       4  153615  172374  172373  153614  163005  172484+
+         172483  163004  156942  172400  156940  156943  150211  153090+
+         153089  150210  166432  172510  166430  166433
CHEXA      43808       4  153616  172375  172374  153615  163006  172485+
+         172484  163005  156944  172401  156942  156945  150212  153091+
+         153090  150211  166434  172511  166432  166435
CHEXA      43809       4  153617  172376  172375  153616  163007  172486+
+         172485  163006  156946  172402  156944  156947  150213  153092+
+         153091  150212  166436  172512  166434  166437
CHEXA      43810       4  153618  172377  172376  153617  163008  172487+
+         172486  163007  156948  172403  156946  156949  150214  153093+
+         153092  150213  166438  172513  166436  166439
CHEXA      43811       4  153619  172378  172377  153618  163009  172488+
+         172487  163008  156950  172404  156948  156951  150215  153094+
+         153093  150214  166440  172514  166438  166441
CHEXA      43812       4  173497  173762  172378  153619  173568  173765+
+         172488  163009  173567  172405  156950  156952  153155  172459+
+         153094  150215  173638  172515  166440  166442
CHEXA      43813       4  153620  173498  173497  153619  163010  173569+
+         173568  163009  156953  173566  156952  156954  150216  153154+
+         153155  150215  166443  173637  166442  166444
CHEXA      43814       4  153621  173499  173498  153620  163011  173570+
+         173569  163010  156955  173565  156953  156956  150217  153153+
+         153154  150216  166445  173636  166443  166446
CHEXA      43815       4  153622  173500  173499  153621  163012  173571+
+         173570  163011  156957  173564  156955  156958  150218  153152+
+         153153  150217  166447  173635  166445  166448
CHEXA      43816       4  153623  173501  173500  153622  163013  173572+
+         173571  163012  156959  173563  156957  156960  150219  153151+
+         153152  150218  166449  173634  166447  166450
CHEXA      43817       4  153624  173502  173501  153623  163014  173573+
+         173572  163013  156961  173562  156959  156962  150220  153150+
+         153151  150219  166451  173633  166449  166452
CHEXA      43818       4  153625  173503  173502  153624  163015  173574+
+         173573  163014  156963  173561  156961  156964  150221  153149+
+         153150  150220  166453  173632  166451  166454
CHEXA      43819       4  153626  173504  173503  153625  163016  173575+
+         173574  163015  156965  173560  156963  156966  150222  153148+
+         153149  150221  166455  173631  166453  166456
CHEXA      43820       4  153627  173505  173504  153626  163017  173576+
+         173575  163016  156967  173559  156965  156968  150223  153147+
+         153148  150222  166457  173630  166455  166458
CHEXA      43821       4  153628  173506  173505  153627  163018  173577+
+         173576  163017  156969  173558  156967  156970  150224  153146+
+         153147  150223  166459  173629  166457  166460
CHEXA      43822       4  153629  173507  173506  153628  163019  173578+
+         173577  163018  156971  173557  156969  156972  150225  153145+
+         153146  150224  166461  173628  166459  166462
CHEXA      43823       4  153630  173508  173507  153629  163020  173579+
+         173578  163019  156973  173556  156971  156974  150226  153144+
+         153145  150225  166463  173627  166461  166464
CHEXA      43824       4  153631  173509  173508  153630  163021  173580+
+         173579  163020  156975  173555  156973  156976  150227  153143+
+         153144  150226  166465  173626  166463  166466
CHEXA      43825       4  153632  173510  173509  153631  163022  173581+
+         173580  163021  156977  173554  156975  156978  150228  153142+
+         153143  150227  166467  173625  166465  166468
CHEXA      43826       4  153633  173511  173510  153632  163023  173582+
+         173581  163022  156979  173553  156977  156980  150229  153141+
+         153142  150228  166469  173624  166467  166470
CHEXA      43827       4  153634  173512  173511  153633  163024  173583+
+         173582  163023  156981  173552  156979  156982  150230  153140+
+         153141  150229  166471  173623  166469  166472
CHEXA      43828       4  153635  173513  173512  153634  163025  173584+
+         173583  163024  156983  173551  156981  156984  150231  153139+
+         153140  150230  166473  173622  166471  166474
CHEXA      43829       4  153636  173514  173513  153635  163026  173585+
+         173584  163025  156985  173550  156983  156986  150232  153138+
+         153139  150231  166475  173621  166473  166476
CHEXA      43830       4  153637  173515  173514  153636  163027  173586+
+         173585  163026  156987  173549  156985  156988  150233  153137+
+         153138  150232  166477  173620  166475  166478
CHEXA      43831       4  153638  173516  173515  153637  163028  173587+
+         173586  163027  156989  173548  156987  156990  150234  153136+
+         153137  150233  166479  173619  166477  166480
CHEXA      43832       4  153639  173517  173516  153638  163029  173588+
+         173587  163028  156991  173547  156989  156992  150235  153135+
+         153136  150234  166481  173618  166479  166482
CHEXA      43833       4  153640  173518  173517  153639  163030  173589+
+         173588  163029  156993  173546  156991  156994  150236  153134+
+         153135  150235  166483  173617  166481  166484
CHEXA      43834       4  153641  173519  173518  153640  163031  173590+
+         173589  163030  156995  173545  156993  156996  150237  153133+
+         153134  150236  166485  173616  166483  166486
CHEXA      43835       4  153642  173520  173519  153641  163032  173591+
+         173590  163031  156997  173544  156995  156998  150238  153132+
+         153133  150237  166487  173615  166485  166488
CHEXA      43836       4  153643  173521  173520  153642  163033  173592+
+         173591  163032  156999  173543  156997  157000  150239  153131+
+         153132  150238  166489  173614  166487  166490
CHEXA      43837       4  153644  173522  173521  153643  163034  173593+
+         173592  163033  157001  173542  156999  157002  150240  153130+
+         153131  150239  166491  173613  166489  166492
CHEXA      43838       4  153645  173523  173522  153644  163035  173594+
+         173593  163034  157003  173541  157001  157004  150241  153129+
+         153130  150240  166493  173612  166491  166494
CHEXA      43839       4  153646  173524  173523  153645  163036  173595+
+         173594  163035  157005  173540  157003  157006  150242  153128+
+         153129  150241  166495  173611  166493  166496
CHEXA      43840       4  153647  173525  173524  153646  163037  173596+
+         173595  163036  157007  173539  157005  157008  150243  153127+
+         153128  150242  166497  173610  166495  166498
CHEXA      43841       4  153648  173526  173525  153647  163038  173597+
+         173596  163037  157009  173538  157007  157010  150244  153126+
+         153127  150243  166499  173609  166497  166500
CHEXA      43842       4  153649  173527  173526  153648  163039  173598+
+         173597  163038  157011  173537  157009  157012  150245  153125+
+         153126  150244  166501  173608  166499  166502
CHEXA      43843       4  153650  173528  173527  153649  163040  173599+
+         173598  163039  157013  173536  157011  157014  150246  153124+
+         153125  150245  166503  173607  166501  166504
CHEXA      43844       4  153651  173529  173528  153650  163041  173600+
+         173599  163040  157015  173535  157013  157016  150247  153123+
+         153124  150246  166505  173606  166503  166506
CHEXA      43845       4  153652  173530  173529  153651  163042  173601+
+         173600  163041  157017  173534  157015  157018  150248  153122+
+         153123  150247  166507  173605  166505  166508
CHEXA      43846       4  153653  173531  173530  153652  163043  173602+
+         173601  163042  157019  173533  157017  157020  150249  153121+
+         153122  150248  166509  173604  166507  166510
CHEXA      43847       4  173872  173885  173531  153653  173873  173886+
+         173602  163043  172929  173532  157019  157021  172743  172757+
+         153121  150249  172930  173603  166509  166511
CHEXA      43848       4  153654  172740  173872  153653  163044  172745+
+         173873  163043  157022  172741  157021  157023  150250  153369+
+         172743  150249  166512  172746  166511  166513
CHEXA      43849       4  153655  173871  172740  153654  163045  173874+
+         172745  163044  157024  172742  157022  157025  150251  172744+
+         153369  150250  166514  172747  166512  166515
CHEXA      43850       4  153656  153657  173871  153655  163419  163046+
+         173874  163045  157027  157026  157024  157028  150252  150253+
+         172744  150251  166516  166517  166514  166518
CHEXA      43851       4  153658  172915  173871  153657  163047  172918+
+         173874  163046  157029  172916  157026  157030  150254  153365+
+         172744  150253  166519  172919  166517  166520
CHEXA      43852       4  153659  173863  172915  153658  163048  173865+
+         172918  163047  157031  172917  157029  157032  150255  172727+
+         153365  150254  166521  172920  166519  166522
CHEXA      43853       4  153660  172724  173863  153659  163049  172729+
+         173865  163048  157033  172726  157031  157034  150256  153366+
+         172727  150255  166523  172731  166521  166524
CHEXA      43854       4  153661  173864  172724  153660  163050  173866+
+         172729  163049  157035  172725  157033  157036  150257  172728+
+         153366  150256  166525  172730  166523  166526
CHEXA      43855       4  153662  153663  173864  153661  163425  163051+
+         173866  163050  157038  157037  157035  157039  150258  150259+
+         172728  150257  166527  166528  166525  166529
CHEXA      43856       4  153664  172931  173864  153663  163052  172934+
+         173866  163051  157040  172933  157037  157041  150260  153370+
+         172728  150259  166530  172936  166528  166531
CHEXA      43857       4  153665  173878  172931  153664  163053  173880+
+         172934  163052  157042  172932  157040  157043  150261  172751+
+         153370  150260  166532  172935  166530  166533
CHEXA      43858       4  173639  173877  173878  153665  173700  173879+
+         173880  163053  173669  172749  157042  157044  153156  172750+
+         172751  150261  173730  172752  166532  166534
CHEXA      43859       4  153666  173640  173639  153665  163054  173701+
+         173700  163053  157045  173670  157044  157046  150262  153157+
+         153156  150261  166535  173731  166534  166536
CHEXA      43860       4  153667  173641  173640  153666  163055  173702+
+         173701  163054  157047  173671  157045  157048  150263  153158+
+         153157  150262  166537  173732  166535  166538
CHEXA      43861       4  153668  173642  173641  153667  163056  173703+
+         173702  163055  157049  173672  157047  157050  150264  153159+
+         153158  150263  166539  173733  166537  166540
CHEXA      43862       4  153669  173643  173642  153668  163057  173704+
+         173703  163056  157051  173673  157049  157052  150265  153160+
+         153159  150264  166541  173734  166539  166542
CHEXA      43863       4  153670  173644  173643  153669  163058  173705+
+         173704  163057  157053  173674  157051  157054  150266  153161+
+         153160  150265  166543  173735  166541  166544
CHEXA      43864       4  153671  173645  173644  153670  163059  173706+
+         173705  163058  157055  173675  157053  157056  150267  153162+
+         153161  150266  166545  173736  166543  166546
CHEXA      43865       4  153672  173646  173645  153671  163060  173707+
+         173706  163059  157057  173676  157055  157058  150268  153163+
+         153162  150267  166547  173737  166545  166548
CHEXA      43866       4  153673  173647  173646  153672  163061  173708+
+         173707  163060  157059  173677  157057  157060  150269  153164+
+         153163  150268  166549  173738  166547  166550
CHEXA      43867       4  153674  173648  173647  153673  163062  173709+
+         173708  163061  157061  173678  157059  157062  150270  153165+
+         153164  150269  166551  173739  166549  166552
CHEXA      43868       4  153675  173649  173648  153674  163063  173710+
+         173709  163062  157063  173679  157061  157064  150271  153166+
+         153165  150270  166553  173740  166551  166554
CHEXA      43869       4  153676  173650  173649  153675  163064  173711+
+         173710  163063  157065  173680  157063  157066  150272  153167+
+         153166  150271  166555  173741  166553  166556
CHEXA      43870       4  153677  173651  173650  153676  163065  173712+
+         173711  163064  157067  173681  157065  157068  150273  153168+
+         153167  150272  166557  173742  166555  166558
CHEXA      43871       4  153678  173652  173651  153677  163066  173713+
+         173712  163065  157069  173682  157067  157070  150274  153169+
+         153168  150273  166559  173743  166557  166560
CHEXA      43872       4  153679  173653  173652  153678  163067  173714+
+         173713  163066  157071  173683  157069  157072  150275  153170+
+         153169  150274  166561  173744  166559  166562
CHEXA      43873       4  153680  173654  173653  153679  163068  173715+
+         173714  163067  157073  173684  157071  157074  150276  153171+
+         153170  150275  166563  173745  166561  166564
CHEXA      43874       4  153681  173655  173654  153680  163069  173716+
+         173715  163068  157075  173685  157073  157076  150277  153172+
+         153171  150276  166565  173746  166563  166566
CHEXA      43875       4  153682  173656  173655  153681  163070  173717+
+         173716  163069  157077  173686  157075  157078  150278  153173+
+         153172  150277  166567  173747  166565  166568
CHEXA      43876       4  153683  173657  173656  153682  163071  173718+
+         173717  163070  157079  173687  157077  157080  150279  153174+
+         153173  150278  166569  173748  166567  166570
CHEXA      43877       4  153684  173658  173657  153683  163072  173719+
+         173718  163071  157081  173688  157079  157082  150280  153175+
+         153174  150279  166571  173749  166569  166572
CHEXA      43878       4  153685  173659  173658  153684  163073  173720+
+         173719  163072  157083  173689  157081  157084  150281  153176+
+         153175  150280  166573  173750  166571  166574
CHEXA      43879       4  153686  173660  173659  153685  163074  173721+
+         173720  163073  157085  173690  157083  157086  150282  153177+
+         153176  150281  166575  173751  166573  166576
CHEXA      43880       4  153687  173661  173660  153686  163075  173722+
+         173721  163074  157087  173691  157085  157088  150283  153178+
+         153177  150282  166577  173752  166575  166578
CHEXA      43881       4  153688  173662  173661  153687  163076  173723+
+         173722  163075  157089  173692  157087  157090  150284  153179+
+         153178  150283  166579  173753  166577  166580
CHEXA      43882       4  153689  173663  173662  153688  163077  173724+
+         173723  163076  157091  173693  157089  157092  150285  153180+
+         153179  150284  166581  173754  166579  166582
CHEXA      43883       4  153690  173664  173663  153689  163078  173725+
+         173724  163077  157093  173694  157091  157094  150286  153181+
+         153180  150285  166583  173755  166581  166584
CHEXA      43884       4  153691  173665  173664  153690  163079  173726+
+         173725  163078  157095  173695  157093  157096  150287  153182+
+         153181  150286  166585  173756  166583  166586
CHEXA      43885       4  153692  173666  173665  153691  163080  173727+
+         173726  163079  157097  173696  157095  157098  150288  153183+
+         153182  150287  166587  173757  166585  166588
CHEXA      43886       4  153693  173667  173666  153692  163081  173728+
+         173727  163080  157099  173697  157097  157100  150289  153184+
+         153183  150288  166589  173758  166587  166590
CHEXA      43887       4  153694  173668  173667  153693  163082  173729+
+         173728  163081  157101  173698  157099  157102  150290  153185+
+         153184  150289  166591  173759  166589  166592
CHEXA      43888       4  173779  173888  173668  153694  173780  173887+
+         173729  163082  172927  173699  157101  157103  172580  172758+
+         153185  150290  172928  173760  166591  166593
CHEXA      43889       4  153695  172937  173779  153694  163083  172940+
+         173780  163082  157104  172939  157103  157105  150291  153371+
+         172580  150290  166594  172942  166593  166595
CHEXA      43890       4  153696  173867  172937  153695  163084  173869+
+         172940  163083  157106  172938  157104  157107  150292  172735+
+         153371  150291  166596  172941  166594  166597
CHEXA      43891       4  153697  153698  173867  153696  163456  163085+
+         173869  163084  157109  157108  157106  157110  150293  150294+
+         172735  150292  166598  166599  166596  166600
CHEXA      43892       4  153699  172732  173867  153698  163086  172737+
+         173869  163085  157111  172734  157108  157112  150295  153367+
+         172735  150294  166601  172739  166599  166602
CHEXA      43893       4  153700  173868  172732  153699  163087  173870+
+         172737  163086  157113  172733  157111  157114  150296  172736+
+         153367  150295  166603  172738  166601  166604
CHEXA      43894       4  153701  172921  173868  153700  163088  172924+
+         173870  163087  157115  172923  157113  157116  150297  153368+
+         172736  150296  166605  172926  166603  166606
CHEXA      43895       4  153702  173875  172921  153701  163089  173876+
+         172924  163088  157117  172922  157115  157118  150298  172748+
+         153368  150297  166607  172925  166605  166608
CHEXA      43896       4  153703  153704  173875  153702  163462  163090+
+         173876  163089  157120  157119  157117  157121  150299  150300+
+         172748  150298  166609  166610  166607  166611
CHEXA      43897       4  153705  172943  173875  153704  163091  172946+
+         173876  163090  157122  172944  157119  157123  150301  153372+
+         172748  150300  166612  172947  166610  166613
CHEXA      43898       4  153706  173881  172943  153705  163092  173884+
+         172946  163091  157124  172945  157122  157125  150302  172755+
+         153372  150301  166614  172948  166612  166615
CHEXA      43899       4  172949  173882  173881  153706  173020  173883+
+         173884  163092  173019  172753  157124  157126  153220  172754+
+         172755  150302  173090  172756  166614  166616
CHEXA      43900       4  153707  172950  172949  153706  163093  173021+
+         173020  163092  157127  173018  157126  157128  150303  153219+
+         153220  150302  166617  173089  166616  166618
CHEXA      43901       4  153708  172951  172950  153707  163094  173022+
+         173021  163093  157129  173017  157127  157130  150304  153218+
+         153219  150303  166619  173088  166617  166620
CHEXA      43902       4  153709  172952  172951  153708  163095  173023+
+         173022  163094  157131  173016  157129  157132  150305  153217+
+         153218  150304  166621  173087  166619  166622
CHEXA      43903       4  153710  172953  172952  153709  163096  173024+
+         173023  163095  157133  173015  157131  157134  150306  153216+
+         153217  150305  166623  173086  166621  166624
CHEXA      43904       4  153711  172954  172953  153710  163097  173025+
+         173024  163096  157135  173014  157133  157136  150307  153215+
+         153216  150306  166625  173085  166623  166626
CHEXA      43905       4  153712  172955  172954  153711  163098  173026+
+         173025  163097  157137  173013  157135  157138  150308  153214+
+         153215  150307  166627  173084  166625  166628
CHEXA      43906       4  153713  172956  172955  153712  163099  173027+
+         173026  163098  157139  173012  157137  157140  150309  153213+
+         153214  150308  166629  173083  166627  166630
CHEXA      43907       4  153714  172957  172956  153713  163100  173028+
+         173027  163099  157141  173011  157139  157142  150310  153212+
+         153213  150309  166631  173082  166629  166632
CHEXA      43908       4  153715  172958  172957  153714  163101  173029+
+         173028  163100  157143  173010  157141  157144  150311  153211+
+         153212  150310  166633  173081  166631  166634
CHEXA      43909       4  153716  172959  172958  153715  163102  173030+
+         173029  163101  157145  173009  157143  157146  150312  153210+
+         153211  150311  166635  173080  166633  166636
CHEXA      43910       4  153717  172960  172959  153716  163103  173031+
+         173030  163102  157147  173008  157145  157148  150313  153209+
+         153210  150312  166637  173079  166635  166638
CHEXA      43911       4  153718  172961  172960  153717  163104  173032+
+         173031  163103  157149  173007  157147  157150  150314  153208+
+         153209  150313  166639  173078  166637  166640
CHEXA      43912       4  153719  172962  172961  153718  163105  173033+
+         173032  163104  157151  173006  157149  157152  150315  153207+
+         153208  150314  166641  173077  166639  166642
CHEXA      43913       4  153720  172963  172962  153719  163106  173034+
+         173033  163105  157153  173005  157151  157154  150316  153206+
+         153207  150315  166643  173076  166641  166644
CHEXA      43914       4  153721  172964  172963  153720  163107  173035+
+         173034  163106  157155  173004  157153  157156  150317  153205+
+         153206  150316  166645  173075  166643  166646
CHEXA      43915       4  153722  172965  172964  153721  163108  173036+
+         173035  163107  157157  173003  157155  157158  150318  153204+
+         153205  150317  166647  173074  166645  166648
CHEXA      43916       4  153723  172966  172965  153722  163109  173037+
+         173036  163108  157159  173002  157157  157160  150319  153203+
+         153204  150318  166649  173073  166647  166650
CHEXA      43917       4  153724  172967  172966  153723  163110  173038+
+         173037  163109  157161  173001  157159  157162  150320  153202+
+         153203  150319  166651  173072  166649  166652
CHEXA      43918       4  153725  172968  172967  153724  163111  173039+
+         173038  163110  157163  173000  157161  157164  150321  153201+
+         153202  150320  166653  173071  166651  166654
CHEXA      43919       4  153726  172969  172968  153725  163112  173040+
+         173039  163111  157165  172999  157163  157166  150322  153200+
+         153201  150321  166655  173070  166653  166656
CHEXA      43920       4  153727  172970  172969  153726  163113  173041+
+         173040  163112  157167  172998  157165  157168  150323  153199+
+         153200  150322  166657  173069  166655  166658
CHEXA      43921       4  153728  172971  172970  153727  163114  173042+
+         173041  163113  157169  172997  157167  157170  150324  153198+
+         153199  150323  166659  173068  166657  166660
CHEXA      43922       4  153729  172972  172971  153728  163115  173043+
+         173042  163114  157171  172996  157169  157172  150325  153197+
+         153198  150324  166661  173067  166659  166662
CHEXA      43923       4  153730  172973  172972  153729  163116  173044+
+         173043  163115  157173  172995  157171  157174  150326  153196+
+         153197  150325  166663  173066  166661  166664
CHEXA      43924       4  153731  172974  172973  153730  163117  173045+
+         173044  163116  157175  172994  157173  157176  150327  153195+
+         153196  150326  166665  173065  166663  166666
CHEXA      43925       4  153732  172975  172974  153731  163118  173046+
+         173045  163117  157177  172993  157175  157178  150328  153194+
+         153195  150327  166667  173064  166665  166668
CHEXA      43926       4  153733  172976  172975  153732  163119  173047+
+         173046  163118  157179  172992  157177  157180  150329  153193+
+         153194  150328  166669  173063  166667  166670
CHEXA      43927       4  153734  172977  172976  153733  163120  173048+
+         173047  163119  157181  172991  157179  157182  150330  153192+
+         153193  150329  166671  173062  166669  166672
CHEXA      43928       4  153735  172978  172977  153734  163121  173049+
+         173048  163120  157183  172990  157181  157184  150331  153191+
+         153192  150330  166673  173061  166671  166674
CHEXA      43929       4  153736  172979  172978  153735  163122  173050+
+         173049  163121  157185  172989  157183  157186  150332  153190+
+         153191  150331  166675  173060  166673  166676
CHEXA      43930       4  153737  172980  172979  153736  163123  173051+
+         173050  163122  157187  172988  157185  157188  150333  153189+
+         153190  150332  166677  173059  166675  166678
CHEXA      43931       4  153738  172981  172980  153737  163124  173052+
+         173051  163123  157189  172987  157187  157190  150334  153188+
+         153189  150333  166679  173058  166677  166680
CHEXA      43932       4  153739  172982  172981  153738  163125  173053+
+         173052  163124  157191  172986  157189  157192  150335  153187+
+         153188  150334  166681  173057  166679  166682
CHEXA      43933       4  153740  172983  172982  153739  163126  173054+
+         173053  163125  157193  172985  157191  157194  150336  153186+
+         153187  150335  166683  173056  166681  166684
CHEXA      43934       4  172406  173763  172983  153740  172516  173766+
+         173054  163126  172432  172984  157193  157195  153095  172460+
+         153186  150336  172542  173055  166683  166685
CHEXA      43935       4  153741  172407  172406  153740  163127  172517+
+         172516  163126  157196  172433  157195  157197  150337  153096+
+         153095  150336  166686  172543  166685  166687
CHEXA      43936       4  153742  172408  172407  153741  163128  172518+
+         172517  163127  157198  172434  157196  157199  150338  153097+
+         153096  150337  166688  172544  166686  166689
CHEXA      43937       4  153743  172409  172408  153742  163129  172519+
+         172518  163128  157200  172435  157198  157201  150339  153098+
+         153097  150338  166690  172545  166688  166691
CHEXA      43938       4  153744  172410  172409  153743  163130  172520+
+         172519  163129  157202  172436  157200  157203  150340  153099+
+         153098  150339  166692  172546  166690  166693
CHEXA      43939       4  153745  172411  172410  153744  163131  172521+
+         172520  163130  157204  172437  157202  157205  150341  153100+
+         153099  150340  166694  172547  166692  166695
CHEXA      43940       4  153746  172412  172411  153745  163132  172522+
+         172521  163131  157206  172438  157204  157207  150342  153101+
+         153100  150341  166696  172548  166694  166697
CHEXA      43941       4  153747  172413  172412  153746  163133  172523+
+         172522  163132  157208  172439  157206  157209  150343  153102+
+         153101  150342  166698  172549  166696  166699
CHEXA      43942       4  153748  172414  172413  153747  163134  172524+
+         172523  163133  157210  172440  157208  157211  150344  153103+
+         153102  150343  166700  172550  166698  166701
CHEXA      43943       4  153749  172415  172414  153748  163135  172525+
+         172524  163134  157212  172441  157210  157213  150345  153104+
+         153103  150344  166702  172551  166700  166703
CHEXA      43944       4  153750  172416  172415  153749  163136  172526+
+         172525  163135  157214  172442  157212  157215  150346  153105+
+         153104  150345  166704  172552  166702  166705
CHEXA      43945       4  153751  172417  172416  153750  163137  172527+
+         172526  163136  157216  172443  157214  157217  150347  153106+
+         153105  150346  166706  172553  166704  166707
CHEXA      43946       4  153752  172418  172417  153751  163138  172528+
+         172527  163137  157218  172444  157216  157219  150348  153107+
+         153106  150347  166708  172554  166706  166709
CHEXA      43947       4  153753  172419  172418  153752  163139  172529+
+         172528  163138  157220  172445  157218  157221  150349  153108+
+         153107  150348  166710  172555  166708  166711
CHEXA      43948       4  153754  172420  172419  153753  163140  172530+
+         172529  163139  157222  172446  157220  157223  150350  153109+
+         153108  150349  166712  172556  166710  166713
CHEXA      43949       4  153755  172421  172420  153754  163141  172531+
+         172530  163140  157224  172447  157222  157225  150351  153110+
+         153109  150350  166714  172557  166712  166715
CHEXA      43950       4  153756  172422  172421  153755  163142  172532+
+         172531  163141  157226  172448  157224  157227  150352  153111+
+         153110  150351  166716  172558  166714  166717
CHEXA      43951       4  153757  172423  172422  153756  163143  172533+
+         172532  163142  157228  172449  157226  157229  150353  153112+
+         153111  150352  166718  172559  166716  166719
CHEXA      43952       4  153758  172424  172423  153757  163144  172534+
+         172533  163143  157230  172450  157228  157231  150354  153113+
+         153112  150353  166720  172560  166718  166721
CHEXA      43953       4  153759  172425  172424  153758  163145  172535+
+         172534  163144  157232  172451  157230  157233  150355  153114+
+         153113  150354  166722  172561  166720  166723
CHEXA      43954       4  153760  172426  172425  153759  163146  172536+
+         172535  163145  157234  172452  157232  157235  150356  153115+
+         153114  150355  166724  172562  166722  166725
CHEXA      43955       4  153761  172427  172426  153760  163147  172537+
+         172536  163146  157236  172453  157234  157237  150357  153116+
+         153115  150356  166726  172563  166724  166727
CHEXA      43956       4  153762  172428  172427  153761  163148  172538+
+         172537  163147  157238  172454  157236  157239  150358  153117+
+         153116  150357  166728  172564  166726  166729
CHEXA      43957       4  153763  172429  172428  153762  163149  172539+
+         172538  163148  157240  172455  157238  157241  150359  153118+
+         153117  150358  166730  172565  166728  166731
CHEXA      43958       4  153764  172430  172429  153763  163150  172540+
+         172539  163149  157242  172456  157240  157243  150360  153119+
+         153118  150359  166732  172566  166730  166733
CHEXA      43959       4  153469  172431  172430  153764  162863  172541+
+         172540  163150  156649  172457  157242  157244  150065  153120+
+         153119  150360  166139  172567  166732  166734
CHEXA      43960       4  153594  153593  153855  153442  162984  162983+
+         163354  163355  156900  157246  157245  157247  150190  150189+
+         150361  150038  166390  166735  166736  166737
CHEXA      43961       4  153441  153595  153594  153442  163188  162985+
+         162984  163355  157248  156903  157247  156601  150037  150191+
+         150190  150038  166738  166393  166737  166091
CHEXA      43962       4  153857  153438  153437  153597  163358  163185+
+         163184  162987  157250  156592  157249  157251  150362  150034+
+         150033  150193  166739  166082  166740  166741
CHEXA      43963       4  153857  153856  153439  153438  163358  163357+
+         163186  163185  157253  157252  156594  157250  150362  150363+
+         150035  150034  166742  166743  166084  166739
CHEXA      43964       4  153596  153856  153857  153597  162986  163357+
+         163358  162987  157254  157253  157251  156907  150192  150363+
+         150362  150193  166744  166742  166741  166397
CHEXA      43965       4  153858  153595  153441  153440  163356  162985+
+         163188  163187  157255  157248  156598  157256  150364  150191+
+         150037  150036  166745  166738  166088  166746
CHEXA      43966       4  153858  153856  153596  153595  163356  163357+
+         162986  162985  157257  157254  156905  157255  150364  150363+
+         150192  150191  166747  166744  166395  166745
CHEXA      43967       4  153439  153856  153858  153440  163186  163357+
+         163356  163187  157252  157257  157256  156596  150035  150363+
+         150364  150036  166743  166747  166746  166086
CHEXA      43968       4  153894  153893  153403  153402  163379  163378+
+         163196  163195  157259  157258  156530  157260  150365  150366+
+         150000  149999  166748  166749  166020  166750
CHEXA      43969       4  153616  153893  153894  153617  163006  163378+
+         163379  163007  157262  157259  157261  156947  150212  150366+
+         150365  150213  166751  166748  166752  166437
CHEXA      43970       4  153895  153404  153403  153893  163377  163552+
+         163196  163378  157263  156533  157258  157264  150367  150001+
+         150000  150366  166753  166023  166749  166754
CHEXA      43971       4  153895  153615  153876  153404  163377  163005+
+         163376  163552  157267  157266  157265  157263  150367  150211+
+         150368  150001  166755  166756  166757  166753
CHEXA      43972       4  153616  153615  153895  153893  163006  163005+
+         163377  163378  156945  157267  157264  157262  150212  150211+
+         150367  150366  166435  166755  166754  166751
CHEXA      43973       4  153615  153614  153877  153876  163005  163004+
+         163375  163376  156943  157269  157268  157266  150211  150210+
+         150369  150368  166433  166758  166759  166756
CHEXA      43974       4  153614  153613  153878  153877  163004  163003+
+         163374  163375  156941  157271  157270  157269  150210  150209+
+         150370  150369  166431  166760  166761  166758
CHEXA      43975       4  153613  153612  153879  153878  163003  163002+
+         163373  163374  156939  157273  157272  157271  150209  150208+
+         150371  150370  166429  166762  166763  166760
CHEXA      43976       4  153612  153611  153880  153879  163002  163001+
+         163372  163373  156937  157275  157274  157273  150208  150207+
+         150372  150371  166427  166764  166765  166762
CHEXA      43977       4  153611  153610  153881  153880  163001  163000+
+         163371  163372  156935  157277  157276  157275  150207  150206+
+         150373  150372  166425  166766  166767  166764
CHEXA      43978       4  153610  153609  153882  153881  163000  162999+
+         163370  163371  156933  157279  157278  157277  150206  150205+
+         150374  150373  166423  166768  166769  166766
CHEXA      43979       4  153609  153608  153883  153882  162999  162998+
+         163369  163370  156931  157281  157280  157279  150205  150204+
+         150375  150374  166421  166770  166771  166768
CHEXA      43980       4  153608  153607  153884  153883  162998  162997+
+         163368  163369  156929  157283  157282  157281  150204  150203+
+         150376  150375  166419  166772  166773  166770
CHEXA      43981       4  153607  153606  153885  153884  162997  162996+
+         163367  163368  156927  157285  157284  157283  150203  150202+
+         150377  150376  166417  166774  166775  166772
CHEXA      43982       4  153606  153605  153886  153885  162996  162995+
+         163366  163367  156925  157287  157286  157285  150202  150201+
+         150378  150377  166415  166776  166777  166774
CHEXA      43983       4  153605  153604  153887  153886  162995  162994+
+         163365  163366  156923  157289  157288  157287  150201  150200+
+         150379  150378  166413  166778  166779  166776
CHEXA      43984       4  153604  153603  153888  153887  162994  162993+
+         163364  163365  156921  157291  157290  157289  150200  150199+
+         150380  150379  166411  166780  166781  166778
CHEXA      43985       4  153603  153602  153889  153888  162993  162992+
+         163363  163364  156919  157293  157292  157291  150199  150198+
+         150381  150380  166409  166782  166783  166780
CHEXA      43986       4  153602  153601  153890  153889  162992  162991+
+         163362  163363  156917  157295  157294  157293  150198  150197+
+         150382  150381  166407  166784  166785  166782
CHEXA      43987       4  153601  153600  153891  153890  162991  162990+
+         163361  163362  156915  157297  157296  157295  150197  150196+
+         150383  150382  166405  166786  166787  166784
CHEXA      43988       4  153600  153599  153892  153891  162990  162989+
+         163360  163361  156913  157299  157298  157297  150196  150195+
+         150384  150383  166403  166788  166789  166786
CHEXA      43989       4  153599  153598  153436  153892  162989  162988+
+         163359  163360  156911  157301  157300  157299  150195  150194+
+         150032  150384  166401  166790  166791  166788
CHEXA      43990       4  153598  153597  153437  153436  162988  162987+
+         163184  163359  156909  157249  156589  157301  150194  150193+
+         150033  150032  166399  166740  166078  166790
CHEXA      43991       4  153897  153914  153913  153896  163691  163821+
+         163554  163553  157304  157303  157302  157305  150385  150386+
+         150387  150388  166792  166793  166794  166795
CHEXA      43992       4  153898  153915  153914  153897  163690  163940+
+         163821  163691  157307  157306  157304  157308  150389  150390+
+         150386  150385  166796  166797  166792  166798
CHEXA      43993       4  153899  153916  153915  153898  163689  163939+
+         163940  163690  157310  157309  157307  157311  150391  150392+
+         150390  150389  166799  166800  166796  166801
CHEXA      43994       4  153900  153917  153916  153899  163688  163938+
+         163939  163689  157313  157312  157310  157314  150393  150394+
+         150392  150391  166802  166803  166799  166804
CHEXA      43995       4  153901  153918  153917  153900  163687  163937+
+         163938  163688  157316  157315  157313  157317  150395  150396+
+         150394  150393  166805  166806  166802  166807
CHEXA      43996       4  153902  153919  153918  153901  163686  163936+
+         163937  163687  157319  157318  157316  157320  150397  150398+
+         150396  150395  166808  166809  166805  166810
CHEXA      43997       4  153903  153920  153919  153902  163685  163935+
+         163936  163686  157322  157321  157319  157323  150399  150400+
+         150398  150397  166811  166812  166808  166813
CHEXA      43998       4  153904  153921  153920  153903  163684  163934+
+         163935  163685  157325  157324  157322  157326  150401  150402+
+         150400  150399  166814  166815  166811  166816
CHEXA      43999       4  153905  153922  153921  153904  163683  163933+
+         163934  163684  157328  157327  157325  157329  150403  150404+
+         150402  150401  166817  166818  166814  166819
CHEXA      44000       4  153906  153923  153922  153905  163682  163932+
+         163933  163683  157331  157330  157328  157332  150405  150406+
+         150404  150403  166820  166821  166817  166822
CHEXA      44001       4  153907  153924  153923  153906  163681  163931+
+         163932  163682  157334  157333  157331  157335  150407  150408+
+         150406  150405  166823  166824  166820  166825
CHEXA      44002       4  153908  153925  153924  153907  163680  163930+
+         163931  163681  157337  157336  157334  157338  150409  150410+
+         150408  150407  166826  166827  166823  166828
CHEXA      44003       4  153909  153926  153925  153908  163679  163929+
+         163930  163680  157340  157339  157337  157341  150411  150412+
+         150410  150409  166829  166830  166826  166831
CHEXA      44004       4  153910  153927  153926  153909  163678  163928+
+         163929  163679  157343  157342  157340  157344  150413  150414+
+         150412  150411  166832  166833  166829  166834
CHEXA      44005       4  153911  153928  153927  153910  163677  163820+
+         163928  163678  157346  157345  157343  157347  150415  150416+
+         150414  150413  166835  166836  166832  166837
CHEXA      44006       4  153912  153929  153928  153911  163549  163548+
+         163820  163677  157349  157348  157346  157350  150417  150418+
+         150416  150415  166838  166839  166835  166840
CHEXA      44007       4  153914  153931  153930  153913  163821  163822+
+         163555  163554  157353  157352  157351  157303  150386  150419+
+         150420  150387  166841  166842  166843  166793
CHEXA      44008       4  153915  153932  153931  153914  163940  164057+
+         163822  163821  157355  157354  157353  157306  150390  150421+
+         150419  150386  166844  166845  166841  166797
CHEXA      44009       4  153916  153933  153932  153915  163939  164170+
+         164057  163940  157357  157356  157355  157309  150392  150422+
+         150421  150390  166846  166847  166844  166800
CHEXA      44010       4  153917  153934  153933  153916  163938  164169+
+         164170  163939  157359  157358  157357  157312  150394  150423+
+         150422  150392  166848  166849  166846  166803
CHEXA      44011       4  153918  153935  153934  153917  163937  164168+
+         164169  163938  157361  157360  157359  157315  150396  150424+
+         150423  150394  166850  166851  166848  166806
CHEXA      44012       4  153919  153936  153935  153918  163936  164167+
+         164168  163937  157363  157362  157361  157318  150398  150425+
+         150424  150396  166852  166853  166850  166809
CHEXA      44013       4  153920  153937  153936  153919  163935  164166+
+         164167  163936  157365  157364  157363  157321  150400  150426+
+         150425  150398  166854  166855  166852  166812
CHEXA      44014       4  153921  153938  153937  153920  163934  164165+
+         164166  163935  157367  157366  157365  157324  150402  150427+
+         150426  150400  166856  166857  166854  166815
CHEXA      44015       4  153922  153939  153938  153921  163933  164164+
+         164165  163934  157369  157368  157367  157327  150404  150428+
+         150427  150402  166858  166859  166856  166818
CHEXA      44016       4  153923  153940  153939  153922  163932  164163+
+         164164  163933  157371  157370  157369  157330  150406  150429+
+         150428  150404  166860  166861  166858  166821
CHEXA      44017       4  153924  153941  153940  153923  163931  164162+
+         164163  163932  157373  157372  157371  157333  150408  150430+
+         150429  150406  166862  166863  166860  166824
CHEXA      44018       4  153925  153942  153941  153924  163930  164161+
+         164162  163931  157375  157374  157373  157336  150410  150431+
+         150430  150408  166864  166865  166862  166827
CHEXA      44019       4  153926  153943  153942  153925  163929  164160+
+         164161  163930  157377  157376  157375  157339  150412  150432+
+         150431  150410  166866  166867  166864  166830
CHEXA      44020       4  153927  153944  153943  153926  163928  164056+
+         164160  163929  157379  157378  157377  157342  150414  150433+
+         150432  150412  166868  166869  166866  166833
CHEXA      44021       4  153928  153945  153944  153927  163820  163819+
+         164056  163928  157381  157380  157379  157345  150416  150434+
+         150433  150414  166870  166871  166868  166836
CHEXA      44022       4  153929  153946  153945  153928  163548  163547+
+         163819  163820  157383  157382  157381  157348  150418  150435+
+         150434  150416  166872  166873  166870  166839
CHEXA      44023       4  153931  153948  153947  153930  163822  163823+
+         163556  163555  157386  157385  157384  157352  150419  150436+
+         150437  150420  166874  166875  166876  166842
CHEXA      44024       4  153932  153949  153948  153931  164057  164058+
+         163823  163822  157388  157387  157386  157354  150421  150438+
+         150436  150419  166877  166878  166874  166845
CHEXA      44025       4  153933  153950  153949  153932  164170  164283+
+         164058  164057  157390  157389  157388  157356  150422  150439+
+         150438  150421  166879  166880  166877  166847
CHEXA      44026       4  153934  153951  153950  153933  164169  164393+
+         164283  164170  157392  157391  157390  157358  150423  150440+
+         150439  150422  166881  166882  166879  166849
CHEXA      44027       4  153935  153952  153951  153934  164168  164392+
+         164393  164169  157394  157393  157392  157360  150424  150441+
+         150440  150423  166883  166884  166881  166851
CHEXA      44028       4  153936  153953  153952  153935  164167  164391+
+         164392  164168  157396  157395  157394  157362  150425  150442+
+         150441  150424  166885  166886  166883  166853
CHEXA      44029       4  153937  153954  153953  153936  164166  164390+
+         164391  164167  157398  157397  157396  157364  150426  150443+
+         150442  150425  166887  166888  166885  166855
CHEXA      44030       4  153938  153955  153954  153937  164165  164389+
+         164390  164166  157400  157399  157398  157366  150427  150444+
+         150443  150426  166889  166890  166887  166857
CHEXA      44031       4  153939  153956  153955  153938  164164  164388+
+         164389  164165  157402  157401  157400  157368  150428  150445+
+         150444  150427  166891  166892  166889  166859
CHEXA      44032       4  153940  153957  153956  153939  164163  164387+
+         164388  164164  157404  157403  157402  157370  150429  150446+
+         150445  150428  166893  166894  166891  166861
CHEXA      44033       4  153941  153958  153957  153940  164162  164386+
+         164387  164163  157406  157405  157404  157372  150430  150447+
+         150446  150429  166895  166896  166893  166863
CHEXA      44034       4  153942  153959  153958  153941  164161  164385+
+         164386  164162  157408  157407  157406  157374  150431  150448+
+         150447  150430  166897  166898  166895  166865
CHEXA      44035       4  153943  153960  153959  153942  164160  164282+
+         164385  164161  157410  157409  157408  157376  150432  150449+
+         150448  150431  166899  166900  166897  166867
CHEXA      44036       4  153944  153961  153960  153943  164056  164055+
+         164282  164160  157412  157411  157410  157378  150433  150450+
+         150449  150432  166901  166902  166899  166869
CHEXA      44037       4  153945  153962  153961  153944  163819  163818+
+         164055  164056  157414  157413  157412  157380  150434  150451+
+         150450  150433  166903  166904  166901  166871
CHEXA      44038       4  153946  153963  153962  153945  163547  163546+
+         163818  163819  157416  157415  157414  157382  150435  150452+
+         150451  150434  166905  166906  166903  166873
CHEXA      44039       4  153948  153965  153964  153947  163823  163826+
+         163558  163556  157419  157418  157417  157385  150436  150453+
+         150454  150437  166907  166908  166909  166875
CHEXA      44040       4  153949  153966  153965  153948  164058  164062+
+         163826  163823  157421  157420  157419  157387  150438  150455+
+         150453  150436  166910  166911  166907  166878
CHEXA      44041       4  153950  153967  153966  153949  164283  164287+
+         164062  164058  157423  157422  157421  157389  150439  150456+
+         150455  150438  166912  166913  166910  166880
CHEXA      44042       4  153951  153968  153967  153950  164393  164506+
+         164287  164283  157425  157424  157423  157391  150440  150457+
+         150456  150439  166914  166915  166912  166882
CHEXA      44043       4  153952  153969  153968  153951  164392  164609+
+         164506  164393  157427  157426  157425  157393  150441  150458+
+         150457  150440  166916  166917  166914  166884
CHEXA      44044       4  153953  153970  153969  153952  164391  164608+
+         164609  164392  157429  157428  157427  157395  150442  150459+
+         150458  150441  166918  166919  166916  166886
CHEXA      44045       4  153954  153971  153970  153953  164390  164607+
+         164608  164391  157431  157430  157429  157397  150443  150460+
+         150459  150442  166920  166921  166918  166888
CHEXA      44046       4  153955  153972  153971  153954  164389  164606+
+         164607  164390  157433  157432  157431  157399  150444  150461+
+         150460  150443  166922  166923  166920  166890
CHEXA      44047       4  153956  153973  153972  153955  164388  164605+
+         164606  164389  157435  157434  157433  157401  150445  150462+
+         150461  150444  166924  166925  166922  166892
CHEXA      44048       4  153957  153974  153973  153956  164387  164604+
+         164605  164388  157437  157436  157435  157403  150446  150463+
+         150462  150445  166926  166927  166924  166894
CHEXA      44049       4  153958  153975  153974  153957  164386  164603+
+         164604  164387  157439  157438  157437  157405  150447  150464+
+         150463  150446  166928  166929  166926  166896
CHEXA      44050       4  153959  153976  153975  153958  164385  164502+
+         164603  164386  157441  157440  157439  157407  150448  150465+
+         150464  150447  166930  166931  166928  166898
CHEXA      44051       4  153960  153977  153976  153959  164282  164281+
+         164502  164385  157443  157442  157441  157409  150449  150466+
+         150465  150448  166932  166933  166930  166900
CHEXA      44052       4  153961  153978  153977  153960  164055  164054+
+         164281  164282  157445  157444  157443  157411  150450  150467+
+         150466  150449  166934  166935  166932  166902
CHEXA      44053       4  153962  153979  153978  153961  163818  163817+
+         164054  164055  157447  157446  157445  157413  150451  150468+
+         150467  150450  166936  166937  166934  166904
CHEXA      44054       4  153963  153980  153979  153962  163546  163545+
+         163817  163818  157449  157448  157447  157415  150452  150469+
+         150468  150451  166938  166939  166936  166906
CHEXA      44055       4  153876  153896  153405  153404  163376  163553+
+         163197  163552  157451  157450  156532  157265  150368  150388+
+         150002  150001  166940  166941  166021  166757
CHEXA      44056       4  153896  153913  153406  153405  163553  163554+
+         163198  163197  157302  157452  156535  157450  150388  150387+
+         150003  150002  166794  166942  166025  166941
CHEXA      44057       4  153913  153930  153407  153406  163554  163555+
+         163199  163198  157351  157453  156537  157452  150387  150420+
+         150004  150003  166843  166943  166027  166942
CHEXA      44058       4  153930  153947  153408  153407  163555  163556+
+         163200  163199  157384  157454  156539  157453  150420  150437+
+         150005  150004  166876  166944  166029  166943
CHEXA      44059       4  153947  153964  153409  153408  163556  163558+
+         163201  163200  157417  157455  156541  157454  150437  150454+
+         150006  150005  166909  166945  166031  166944
CHEXA      44060       4  153964  153859  153410  153409  163558  163824+
+         163557  163201  157457  157456  156544  157455  150454  150470+
+         150007  150006  166946  166947  166034  166945
CHEXA      44061       4  153965  153860  153859  153964  163826  164059+
+         163824  163558  157459  157458  157457  157418  150453  150471+
+         150470  150454  166948  166949  166946  166908
CHEXA      44062       4  153966  153861  153860  153965  164062  164284+
+         164059  163826  157461  157460  157459  157420  150455  150472+
+         150471  150453  166950  166951  166948  166911
CHEXA      44063       4  153967  153862  153861  153966  164287  164503+
+         164284  164062  157463  157462  157461  157422  150456  150473+
+         150472  150455  166952  166953  166950  166913
CHEXA      44064       4  153968  153863  153862  153967  164506  164717+
+         164503  164287  157465  157464  157463  157424  150457  150474+
+         150473  150456  166954  166955  166952  166915
CHEXA      44065       4  153969  153864  153863  153968  164609  164821+
+         164717  164506  157467  157466  157465  157426  150458  150475+
+         150474  150457  166956  166957  166954  166917
CHEXA      44066       4  153970  153865  153864  153969  164608  164820+
+         164821  164609  157469  157468  157467  157428  150459  150476+
+         150475  150458  166958  166959  166956  166919
CHEXA      44067       4  153971  153866  153865  153970  164607  164819+
+         164820  164608  157471  157470  157469  157430  150460  150477+
+         150476  150459  166960  166961  166958  166921
CHEXA      44068       4  153972  153867  153866  153971  164606  164818+
+         164819  164607  157473  157472  157471  157432  150461  150478+
+         150477  150460  166962  166963  166960  166923
CHEXA      44069       4  153973  153868  153867  153972  164605  164817+
+         164818  164606  157475  157474  157473  157434  150462  150479+
+         150478  150461  166964  166965  166962  166925
CHEXA      44070       4  153974  153869  153868  153973  164604  164816+
+         164817  164605  157477  157476  157475  157436  150463  150480+
+         150479  150462  166966  166967  166964  166927
CHEXA      44071       4  153975  153870  153869  153974  164603  164815+
+         164816  164604  157479  157478  157477  157438  150464  150481+
+         150480  150463  166968  166969  166966  166929
CHEXA      44072       4  153976  153871  153870  153975  164502  164715+
+         164815  164603  157481  157480  157479  157440  150465  150482+
+         150481  150464  166970  166971  166968  166931
CHEXA      44073       4  153977  153872  153871  153976  164281  164500+
+         164715  164502  157483  157482  157481  157442  150466  150483+
+         150482  150465  166972  166973  166970  166933
CHEXA      44074       4  153978  153873  153872  153977  164054  164279+
+         164500  164281  157485  157484  157483  157444  150467  150484+
+         150483  150466  166974  166975  166972  166935
CHEXA      44075       4  153979  153874  153873  153978  163817  164052+
+         164279  164054  157487  157486  157485  157446  150468  150485+
+         150484  150467  166976  166977  166974  166937
CHEXA      44076       4  153980  153875  153874  153979  163545  163815+
+         164052  163817  157489  157488  157487  157448  150469  150486+
+         150485  150468  166978  166979  166976  166939
CHEXA      44077       4  153431  153430  153875  153980  163179  163543+
+         163815  163545  156578  157490  157489  157491  150027  150026+
+         150486  150469  166067  166980  166978  166981
CHEXA      44078       4  153432  153431  153980  153963  163180  163179+
+         163545  163546  156581  157491  157449  157492  150028  150027+
+         150469  150452  166071  166981  166938  166982
CHEXA      44079       4  153433  153432  153963  153946  163181  163180+
+         163546  163547  156583  157492  157416  157493  150029  150028+
+         150452  150435  166073  166982  166905  166983
CHEXA      44080       4  153434  153433  153946  153929  163182  163181+
+         163547  163548  156585  157493  157383  157494  150030  150029+
+         150435  150418  166075  166983  166872  166984
CHEXA      44081       4  153435  153434  153929  153912  163183  163182+
+         163548  163549  156587  157494  157349  157495  150031  150030+
+         150418  150417  166077  166984  166838  166985
CHEXA      44082       4  153436  153435  153912  153892  163359  163183+
+         163549  163360  156590  157495  157496  157300  150032  150031+
+         150417  150384  166080  166985  166986  166791
CHEXA      44083       4  153892  153912  153911  153891  163360  163549+
+         163677  163361  157496  157350  157497  157298  150384  150417+
+         150415  150383  166986  166840  166987  166789
CHEXA      44084       4  153891  153911  153910  153890  163361  163677+
+         163678  163362  157497  157347  157498  157296  150383  150415+
+         150413  150382  166987  166837  166988  166787
CHEXA      44085       4  153890  153910  153909  153889  163362  163678+
+         163679  163363  157498  157344  157499  157294  150382  150413+
+         150411  150381  166988  166834  166989  166785
CHEXA      44086       4  153889  153909  153908  153888  163363  163679+
+         163680  163364  157499  157341  157500  157292  150381  150411+
+         150409  150380  166989  166831  166990  166783
CHEXA      44087       4  153888  153908  153907  153887  163364  163680+
+         163681  163365  157500  157338  157501  157290  150380  150409+
+         150407  150379  166990  166828  166991  166781
CHEXA      44088       4  153887  153907  153906  153886  163365  163681+
+         163682  163366  157501  157335  157502  157288  150379  150407+
+         150405  150378  166991  166825  166992  166779
CHEXA      44089       4  153886  153906  153905  153885  163366  163682+
+         163683  163367  157502  157332  157503  157286  150378  150405+
+         150403  150377  166992  166822  166993  166777
CHEXA      44090       4  153885  153905  153904  153884  163367  163683+
+         163684  163368  157503  157329  157504  157284  150377  150403+
+         150401  150376  166993  166819  166994  166775
CHEXA      44091       4  153884  153904  153903  153883  163368  163684+
+         163685  163369  157504  157326  157505  157282  150376  150401+
+         150399  150375  166994  166816  166995  166773
CHEXA      44092       4  153883  153903  153902  153882  163369  163685+
+         163686  163370  157505  157323  157506  157280  150375  150399+
+         150397  150374  166995  166813  166996  166771
CHEXA      44093       4  153882  153902  153901  153881  163370  163686+
+         163687  163371  157506  157320  157507  157278  150374  150397+
+         150395  150373  166996  166810  166997  166769
CHEXA      44094       4  153881  153901  153900  153880  163371  163687+
+         163688  163372  157507  157317  157508  157276  150373  150395+
+         150393  150372  166997  166807  166998  166767
CHEXA      44095       4  153880  153900  153899  153879  163372  163688+
+         163689  163373  157508  157314  157509  157274  150372  150393+
+         150391  150371  166998  166804  166999  166765
CHEXA      44096       4  153879  153899  153898  153878  163373  163689+
+         163690  163374  157509  157311  157510  157272  150371  150391+
+         150389  150370  166999  166801  167000  166763
CHEXA      44097       4  153878  153898  153897  153877  163374  163690+
+         163691  163375  157510  157308  157511  157270  150370  150389+
+         150385  150369  167000  166798  167001  166761
CHEXA      44098       4  153877  153897  153896  153876  163375  163691+
+         163553  163376  157511  157305  157451  157268  150369  150385+
+         150388  150368  167001  166795  166940  166759
CHEXA      44099       4  153983  153982  153618  153617  163380  163381+
+         163008  163007  157513  157512  156949  157514  150487  150488+
+         150214  150213  167002  167003  166439  167004
CHEXA      44100       4  153399  153982  153983  153400  163192  163381+
+         163380  163193  157516  157513  157515  156524  149996  150488+
+         150487  149997  167005  167002  167006  166014
CHEXA      44101       4  153984  153398  153620  153619  163382  163383+
+         163010  163009  157518  157517  156954  157519  150489  149995+
+         150216  150215  167007  167008  166444  167009
CHEXA      44102       4  153984  153982  153399  153398  163382  163381+
+         163192  163383  157520  157516  156521  157518  150489  150488+
+         149996  149995  167010  167005  166010  167007
CHEXA      44103       4  153618  153982  153984  153619  163008  163381+
+         163382  163009  157512  157520  157519  156951  150214  150488+
+         150489  150215  167003  167010  167009  166441
CHEXA      44104       4  153985  153417  153416  153981  163386  163207+
+         163563  163388  157522  156554  157521  157523  150490  150014+
+         150013  150491  167011  166043  167012  167013
CHEXA      44105       4  153623  153622  153985  153981  163013  163012+
+         163386  163388  156960  157524  157523  157525  150219  150218+
+         150490  150491  166450  167014  167013  167015
CHEXA      44106       4  153987  153620  153398  153397  163384  163010+
+         163383  163191  157526  157517  156522  157527  150492  150216+
+         149995  149993  167016  167008  166012  167017
CHEXA      44107       4  153987  153986  153621  153620  163384  163385+
+         163011  163010  157529  157528  156956  157526  150492  150493+
+         150217  150216  167018  167019  166446  167016
CHEXA      44108       4  153420  153986  153987  153397  163210  163385+
+         163384  163191  157530  157529  157527  156519  149994  150493+
+         150492  149993  167020  167018  167017  166009
CHEXA      44109       4  153988  153986  153420  153419  163387  163385+
+         163210  163209  157531  157530  156560  157532  150494  150493+
+         149994  150016  167021  167020  166050  167022
CHEXA      44110       4  153621  153986  153988  153622  163011  163385+
+         163387  163012  157528  157531  157533  156958  150217  150493+
+         150494  150218  167019  167021  167023  166448
CHEXA      44111       4  153851  153850  153995  153994  164356  164574+
+         164785  164573  157536  157535  157534  157537  150495  150496+
+         150497  150498  167024  167025  167026  167027
CHEXA      44112       4  153850  153849  153996  153995  164574  164786+
+         164990  164785  157540  157539  157538  157535  150496  150499+
+         150500  150497  167028  167029  167030  167025
CHEXA      44113       4  153849  153848  153997  153996  164786  164991+
+         165194  164990  157543  157542  157541  157539  150499  150501+
+         150502  150500  167031  167032  167033  167029
CHEXA      44114       4  153848  153847  153998  153997  164991  165193+
+         165393  165194  157546  157545  157544  157542  150501  150503+
+         150504  150502  167034  167035  167036  167032
CHEXA      44115       4  153847  153846  153999  153998  165193  165392+
+         165586  165393  157549  157548  157547  157545  150503  150505+
+         150506  150504  167037  167038  167039  167035
CHEXA      44116       4  153846  153845  154000  153999  165392  165585+
+         165768  165586  157552  157551  157550  157548  150505  150507+
+         150508  150506  167040  167041  167042  167038
CHEXA      44117       4  153854  153853  153992  153991  163647  163898+
+         164130  163900  157555  157554  157553  157556  150509  150510+
+         150511  150512  167043  167044  167045  167046
CHEXA      44118       4  153853  153852  153993  153992  163898  164131+
+         164355  164130  157559  157558  157557  157554  150510  150513+
+         150514  150511  167047  167048  167049  167044
CHEXA      44119       4  153852  153851  153994  153993  164131  164356+
+         164573  164355  157561  157537  157560  157558  150513  150495+
+         150498  150514  167050  167027  167051  167048
CHEXA      44120       4  154014  153561  153560  153559  163319  162951+
+         162950  162949  157562  156834  156831  157563  150515  150157+
+         150156  150155  167052  166324  166321  167053
CHEXA      44121       4  154014  154013  153989  153561  163319  163318+
+         163320  162951  157566  157565  157564  157562  150515  150516+
+         150517  150157  167054  167055  167056  167052
CHEXA      44122       4  153558  154013  154014  153559  162948  163318+
+         163319  162949  157567  157566  157563  156829  150154  150516+
+         150515  150155  167057  167054  167053  166319
CHEXA      44123       4  153556  153854  153991  153990  163315  163647+
+         163900  163648  157569  157556  157568  157570  150152  150509+
+         150512  150518  167058  167046  167059  167060
CHEXA      44124       4  154015  154013  153558  153557  163317  163318+
+         162948  162947  157571  157567  156827  157572  150519  150516+
+         150154  150153  167061  167057  166317  167062
CHEXA      44125       4  154015  153990  153989  154013  163317  163648+
+         163320  163318  157574  157573  157565  157571  150519  150518+
+         150517  150516  167063  167064  167055  167061
CHEXA      44126       4  153556  153990  154015  153557  163315  163648+
+         163317  162947  157570  157574  157572  156824  150152  150518+
+         150519  150153  167060  167063  167062  166313
CHEXA      44127       4  153845  153844  154001  154000  165585  165767+
+         165917  165768  157577  157576  157575  157551  150507  150520+
+         150521  150508  167065  167066  167067  167041
CHEXA      44128       4  153844  153843  154002  154001  165767  165643+
+         165820  165917  157580  157579  157578  157576  150520  150522+
+         150523  150521  167068  167069  167070  167066
CHEXA      44129       4  153843  153842  154003  154002  165643  165455+
+         165642  165820  157583  157582  157581  157579  150522  150524+
+         150525  150523  167071  167072  167073  167069
CHEXA      44130       4  153842  153841  154004  154003  165455  165258+
+         165454  165642  157586  157585  157584  157582  150524  150526+
+         150527  150525  167074  167075  167076  167072
CHEXA      44131       4  153841  153840  154005  154004  165258  165055+
+         165257  165454  157589  157588  157587  157585  150526  150528+
+         150529  150527  167077  167078  167079  167075
CHEXA      44132       4  153840  153839  154006  154005  165055  164851+
+         165054  165257  157592  157591  157590  157588  150528  150530+
+         150531  150529  167080  167081  167082  167078
CHEXA      44133       4  153839  153838  154007  154006  164851  164639+
+         164850  165054  157595  157594  157593  157591  150530  150532+
+         150533  150531  167083  167084  167085  167081
CHEXA      44134       4  153838  153837  154008  154007  164639  164423+
+         164638  164850  157598  157597  157596  157594  150532  150534+
+         150535  150533  167086  167087  167088  167084
CHEXA      44135       4  153837  153836  154009  154008  164423  164199+
+         164422  164638  157601  157600  157599  157597  150534  150536+
+         150537  150535  167089  167090  167091  167087
CHEXA      44136       4  153836  153835  154010  154009  164199  163969+
+         164198  164422  157604  157603  157602  157600  150536  150538+
+         150539  150537  167092  167093  167094  167090
CHEXA      44137       4  153835  153834  154011  154010  163969  163723+
+         163968  164198  157607  157606  157605  157603  150538  150540+
+         150541  150539  167095  167096  167097  167093
CHEXA      44138       4  153834  153833  154012  154011  163723  163421+
+         163721  163968  157610  157609  157608  157606  150540  150542+
+         150543  150541  167098  167099  167100  167096
CHEXA      44139       4  153833  153657  153656  154012  163421  163046+
+         163419  163721  157612  157027  157611  157609  150542  150253+
+         150252  150543  167101  166516  167102  167099
CHEXA      44140       4  154064  154042  154041  154070  163941  163942+
+         163696  163695  157615  157614  157613  157616  150544  150545+
+         150546  150547  167103  167104  167105  167106
CHEXA      44141       4  154065  154064  154070  154069  163827  163941+
+         163695  163694  157618  157616  157617  157619  150548  150544+
+         150547  150549  167107  167106  167108  167109
CHEXA      44142       4  153412  153411  154066  154071  163203  163202+
+         163559  163560  156546  157621  157620  157622  150009  150008+
+         150550  150551  166036  167110  167111  167112
CHEXA      44143       4  154067  153413  153412  154071  163561  163204+
+         163203  163560  157623  156548  157622  157624  150552  150010+
+         150009  150551  167113  166038  167112  167114
CHEXA      44144       4  154072  154065  154069  154068  163828  163827+
+         163694  163693  157626  157619  157625  157627  150553  150548+
+         150549  150554  167115  167109  167116  167117
CHEXA      44145       4  154072  154071  154066  154065  163828  163560+
+         163559  163827  157629  157620  157628  157626  150553  150551+
+         150550  150548  167118  167111  167119  167115
CHEXA      44146       4  154067  154071  154072  154068  163561  163560+
+         163828  163693  157624  157629  157627  157630  150552  150551+
+         150553  150554  167114  167118  167117  167120
CHEXA      44147       4  154040  153627  153626  154073  163393  163017+
+         163016  163392  157632  156968  157631  157633  150555  150223+
+         150222  150556  167121  166458  167122  167123
CHEXA      44148       4  154070  154041  154040  154073  163695  163696+
+         163393  163392  157613  157634  157633  157635  150547  150546+
+         150555  150556  167105  167124  167123  167125
CHEXA      44149       4  154074  153624  153623  153981  163389  163014+
+         163013  163388  157636  156962  157525  157637  150557  150220+
+         150219  150491  167126  166452  167015  167127
CHEXA      44150       4  153414  153413  154067  154075  163205  163204+
+         163561  163562  156550  157623  157638  157639  150011  150010+
+         150552  150558  166040  167113  167128  167129
CHEXA      44151       4  153415  153414  154075  154076  163206  163205+
+         163562  163564  156552  157639  157640  157641  150012  150011+
+         150558  150559  166042  167129  167130  167131
CHEXA      44152       4  154073  153626  153625  154077  163392  163016+
+         163015  163391  157631  156966  157642  157643  150556  150222+
+         150221  150560  167122  166456  167132  167133
CHEXA      44153       4  154069  154070  154073  154077  163694  163695+
+         163392  163391  157617  157635  157643  157644  150549  150547+
+         150556  150560  167108  167125  167133  167134
CHEXA      44154       4  154078  154075  154067  154068  163390  163562+
+         163561  163693  157645  157638  157630  157646  150561  150558+
+         150552  150554  167135  167128  167120  167136
CHEXA      44155       4  154069  154077  154078  154068  163694  163391+
+         163390  163693  157644  157647  157646  157625  150549  150560+
+         150561  150554  167134  167137  167136  167116
CHEXA      44156       4  154043  154042  154064  154080  164172  163942+
+         163941  164171  157649  157615  157648  157650  150562  150545+
+         150544  150563  167138  167103  167139  167140
CHEXA      44157       4  154081  154044  154043  154080  164394  164396+
+         164172  164171  157652  157651  157650  157653  150564  150565+
+         150562  150563  167141  167142  167140  167143
CHEXA      44158       4  154082  154045  154044  154081  164610  164612+
+         164396  164394  157655  157654  157652  157656  150566  150567+
+         150565  150564  167144  167145  167141  167146
CHEXA      44159       4  154083  154046  154045  154082  164822  164824+
+         164612  164610  157658  157657  157655  157659  150568  150569+
+         150567  150566  167147  167148  167144  167149
CHEXA      44160       4  154084  154047  154046  154083  165026  165028+
+         164824  164822  157661  157660  157658  157662  150570  150571+
+         150569  150568  167150  167151  167147  167152
CHEXA      44161       4  154085  154048  154047  154084  165229  165231+
+         165028  165026  157664  157663  157661  157665  150572  150573+
+         150571  150570  167153  167154  167150  167155
CHEXA      44162       4  154086  154049  154048  154085  165427  165428+
+         165231  165229  157667  157666  157664  157668  150574  150575+
+         150573  150572  167156  167157  167153  167158
CHEXA      44163       4  154087  154050  154049  154086  165615  165616+
+         165428  165427  157670  157669  157667  157671  150576  150577+
+         150575  150574  167159  167160  167156  167161
CHEXA      44164       4  154088  154051  154050  154087  165614  165794+
+         165616  165615  157673  157672  157670  157674  150578  150579+
+         150577  150576  167162  167163  167159  167164
CHEXA      44165       4  154089  154052  154051  154088  165613  165793+
+         165794  165614  157676  157675  157673  157677  150580  150581+
+         150579  150578  167165  167166  167162  167167
CHEXA      44166       4  154090  154053  154052  154089  165612  165611+
+         165793  165613  157679  157678  157676  157680  150582  150583+
+         150581  150580  167168  167169  167165  167170
CHEXA      44167       4  154091  154054  154053  154090  165419  165418+
+         165611  165612  157682  157681  157679  157683  150584  150585+
+         150583  150582  167171  167172  167168  167173
CHEXA      44168       4  154092  154055  154054  154091  165220  165219+
+         165418  165419  157685  157684  157682  157686  150586  150587+
+         150585  150584  167174  167175  167171  167176
CHEXA      44169       4  154093  154056  154055  154092  165017  165016+
+         165219  165220  157688  157687  157685  157689  150588  150589+
+         150587  150586  167177  167178  167174  167179
CHEXA      44170       4  154094  154057  154056  154093  164813  164812+
+         165016  165017  157691  157690  157688  157692  150590  150591+
+         150589  150588  167180  167181  167177  167182
CHEXA      44171       4  154095  154058  154057  154094  164601  164600+
+         164812  164813  157694  157693  157691  157695  150592  150593+
+         150591  150590  167183  167184  167180  167185
CHEXA      44172       4  154096  154059  154058  154095  164383  164382+
+         164600  164601  157697  157696  157694  157698  150594  150595+
+         150593  150592  167186  167187  167183  167188
CHEXA      44173       4  154097  154060  154059  154096  164158  164157+
+         164382  164383  157700  157699  157697  157701  150596  150597+
+         150595  150594  167189  167190  167186  167191
CHEXA      44174       4  154098  154061  154060  154097  163926  163925+
+         164157  164158  157703  157702  157700  157704  150598  150599+
+         150597  150596  167192  167193  167189  167194
CHEXA      44175       4  154099  154062  154061  154098  163674  163673+
+         163925  163926  157706  157705  157703  157707  150600  150601+
+         150599  150598  167195  167196  167192  167197
CHEXA      44176       4  154100  154063  154062  154099  163346  163345+
+         163673  163674  157709  157708  157706  157710  150602  150603+
+         150601  150600  167198  167199  167195  167200
CHEXA      44177       4  153587  153586  154063  154100  162977  162976+
+         163345  163346  156886  157711  157709  157712  150183  150182+
+         150603  150602  166376  167201  167198  167202
CHEXA      44178       4  154101  153588  153587  154100  163347  162978+
+         162977  163346  157713  156888  157712  157714  150604  150184+
+         150183  150602  167203  166378  167202  167204
CHEXA      44179       4  154102  153589  153588  154101  163348  162979+
+         162978  163347  157715  156890  157713  157716  150605  150185+
+         150184  150604  167205  166380  167203  167206
CHEXA      44180       4  153424  153590  153589  154102  163349  162980+
+         162979  163348  157717  156892  157715  157718  150020  150186+
+         150185  150605  167207  166382  167205  167208
CHEXA      44181       4  154103  153425  153424  154102  163539  163174+
+         163349  163348  157719  156567  157718  157720  150606  150021+
+         150020  150605  167209  166056  167208  167210
CHEXA      44182       4  154104  153426  153425  154103  163540  163175+
+         163174  163539  157721  156570  157719  157722  150607  150022+
+         150021  150606  167211  166060  167209  167212
CHEXA      44183       4  154105  153427  153426  154104  163541  163176+
+         163175  163540  157723  156572  157721  157724  150608  150023+
+         150022  150607  167213  166062  167211  167214
CHEXA      44184       4  154106  153428  153427  154105  163542  163177+
+         163176  163541  157725  156574  157723  157726  150609  150024+
+         150023  150608  167215  166064  167213  167216
CHEXA      44185       4  154107  153429  153428  154106  163544  163178+
+         163177  163542  157727  156576  157725  157728  150610  150025+
+         150024  150609  167217  166066  167215  167218
CHEXA      44186       4  154108  153430  153429  154107  163816  163543+
+         163178  163544  157729  156579  157727  157730  150611  150026+
+         150025  150610  167219  166069  167217  167220
CHEXA      44187       4  154109  153875  153430  154108  164053  163815+
+         163543  163816  157731  157490  157729  157732  150612  150486+
+         150026  150611  167221  166980  167219  167222
CHEXA      44188       4  154110  153874  153875  154109  164280  164052+
+         163815  164053  157733  157488  157731  157734  150613  150485+
+         150486  150612  167223  166979  167221  167224
CHEXA      44189       4  154111  153873  153874  154110  164501  164279+
+         164052  164280  157735  157486  157733  157736  150614  150484+
+         150485  150613  167225  166977  167223  167226
CHEXA      44190       4  154112  153872  153873  154111  164716  164500+
+         164279  164501  157737  157484  157735  157738  150615  150483+
+         150484  150614  167227  166975  167225  167228
CHEXA      44191       4  154113  153871  153872  154112  164926  164715+
+         164500  164716  157739  157482  157737  157740  150616  150482+
+         150483  150615  167229  166973  167227  167230
CHEXA      44192       4  154114  153870  153871  154113  165019  164815+
+         164715  164926  157741  157480  157739  157742  150617  150481+
+         150482  150616  167231  166971  167229  167232
CHEXA      44193       4  154115  153869  153870  154114  165020  164816+
+         164815  165019  157743  157478  157741  157744  150618  150480+
+         150481  150617  167233  166969  167231  167234
CHEXA      44194       4  154116  153868  153869  154115  165021  164817+
+         164816  165020  157745  157476  157743  157746  150619  150479+
+         150480  150618  167235  166967  167233  167236
CHEXA      44195       4  154117  153867  153868  154116  165022  164818+
+         164817  165021  157747  157474  157745  157748  150620  150478+
+         150479  150619  167237  166965  167235  167238
CHEXA      44196       4  154118  153866  153867  154117  165023  164819+
+         164818  165022  157749  157472  157747  157750  150621  150477+
+         150478  150620  167239  166963  167237  167240
CHEXA      44197       4  154119  153865  153866  154118  165024  164820+
+         164819  165023  157751  157470  157749  157752  150622  150476+
+         150477  150621  167241  166961  167239  167242
CHEXA      44198       4  154120  153864  153865  154119  165025  164821+
+         164820  165024  157753  157468  157751  157754  150623  150475+
+         150476  150622  167243  166959  167241  167244
CHEXA      44199       4  154121  153863  153864  154120  164927  164717+
+         164821  165025  157755  157466  157753  157756  150624  150474+
+         150475  150623  167245  166957  167243  167246
CHEXA      44200       4  154122  153862  153863  154121  164718  164503+
+         164717  164927  157757  157464  157755  157758  150625  150473+
+         150474  150624  167247  166955  167245  167248
CHEXA      44201       4  154123  153861  153862  154122  164504  164284+
+         164503  164718  157759  157462  157757  157760  150626  150472+
+         150473  150625  167249  166953  167247  167250
CHEXA      44202       4  154124  153860  153861  154123  164285  164059+
+         164284  164504  157761  157460  157759  157762  150627  150471+
+         150472  150626  167251  166951  167249  167252
CHEXA      44203       4  154125  153859  153860  154124  164060  163824+
+         164059  164285  157763  157458  157761  157764  150628  150470+
+         150471  150627  167253  166949  167251  167254
CHEXA      44204       4  154126  153410  153859  154125  163825  163557+
+         163824  164060  157765  157456  157763  157766  150629  150007+
+         150470  150628  167255  166947  167253  167256
CHEXA      44205       4  154066  153411  153410  154126  163559  163202+
+         163557  163825  157621  156543  157765  157767  150550  150008+
+         150007  150629  167110  166032  167255  167257
CHEXA      44206       4  154127  154065  154066  154126  164061  163827+
+         163559  163825  157768  157628  157767  157769  150630  150548+
+         150550  150629  167258  167119  167257  167259
CHEXA      44207       4  154080  154064  154065  154127  164171  163941+
+         163827  164061  157648  157618  157768  157770  150563  150544+
+         150548  150630  167139  167107  167258  167260
CHEXA      44208       4  154101  154100  154099  154131  163347  163346+
+         163674  163675  157714  157710  157771  157772  150604  150602+
+         150600  150631  167204  167200  167261  167262
CHEXA      44209       4  154132  154130  154104  154103  163676  163813+
+         163540  163539  157774  157773  157722  157775  150632  150633+
+         150607  150606  167263  167264  167212  167265
CHEXA      44210       4  154132  154101  154131  154130  163676  163347+
+         163675  163813  157777  157772  157776  157774  150632  150604+
+         150631  150633  167266  167262  167267  167263
CHEXA      44211       4  154102  154101  154132  154103  163348  163347+
+         163676  163539  157716  157777  157775  157720  150605  150604+
+         150632  150606  167206  167266  167265  167210
CHEXA      44212       4  154131  154099  154098  154129  163675  163674+
+         163926  163927  157771  157707  157778  157779  150631  150600+
+         150598  150634  167261  167197  167268  167269
CHEXA      44213       4  154128  154130  154131  154129  163814  163813+
+         163675  163927  157780  157776  157779  157781  150635  150633+
+         150631  150634  167270  167267  167269  167271
CHEXA      44214       4  154128  154107  154106  154105  163814  163544+
+         163542  163541  157782  157728  157726  157783  150635  150610+
+         150609  150608  167272  167218  167216  167273
CHEXA      44215       4  154104  154130  154128  154105  163540  163813+
+         163814  163541  157773  157780  157783  157724  150607  150633+
+         150635  150608  167264  167270  167273  167214
CHEXA      44216       4  154125  154124  154136  154137  164060  164285+
+         164505  164286  157764  157785  157784  157786  150628  150627+
+         150636  150637  167254  167274  167275  167276
CHEXA      44217       4  154127  154126  154125  154137  164061  163825+
+         164060  164286  157769  157766  157786  157787  150630  150629+
+         150628  150637  167259  167256  167276  167277
CHEXA      44218       4  154138  154135  154081  154080  164395  164611+
+         164394  164171  157789  157788  157653  157790  150638  150639+
+         150564  150563  167278  167279  167143  167280
CHEXA      44219       4  154138  154137  154136  154135  164395  164286+
+         164505  164611  157792  157784  157791  157789  150638  150637+
+         150636  150639  167281  167275  167282  167278
CHEXA      44220       4  154127  154137  154138  154080  164061  164286+
+         164395  164171  157787  157792  157790  157770  150630  150637+
+         150638  150563  167277  167281  167280  167260
CHEXA      44221       4  154081  154135  154133  154082  164394  164611+
+         164823  164610  157788  157794  157793  157656  150564  150639+
+         150640  150566  167279  167283  167284  167146
CHEXA      44222       4  154135  154136  154134  154133  164611  164505+
+         164719  164823  157791  157796  157795  157794  150639  150636+
+         150641  150640  167282  167285  167286  167283
CHEXA      44223       4  154136  154124  154123  154134  164505  164285+
+         164504  164719  157785  157762  157797  157796  150636  150627+
+         150626  150641  167274  167252  167287  167285
CHEXA      44224       4  154140  154142  154141  154139  164928  165131+
+         165230  165027  157800  157799  157798  157801  150642  150643+
+         150644  150645  167288  167289  167290  167291
CHEXA      44225       4  154142  154144  154143  154141  165131  165228+
+         165426  165230  157804  157803  157802  157799  150643  150646+
+         150647  150644  167292  167293  167294  167289
CHEXA      44226       4  154144  154146  154145  154143  165228  165227+
+         165425  165426  157807  157806  157805  157803  150646  150648+
+         150649  150647  167295  167296  167297  167293
CHEXA      44227       4  154146  154148  154147  154145  165227  165226+
+         165424  165425  157810  157809  157808  157806  150648  150650+
+         150651  150649  167298  167299  167300  167296
CHEXA      44228       4  154148  154150  154149  154147  165226  165225+
+         165423  165424  157813  157812  157811  157809  150650  150652+
+         150653  150651  167301  167302  167303  167299
CHEXA      44229       4  154150  154152  154151  154149  165225  165224+
+         165422  165423  157816  157815  157814  157812  150652  150654+
+         150655  150653  167304  167305  167306  167302
CHEXA      44230       4  154152  154154  154153  154151  165224  165223+
+         165421  165422  157819  157818  157817  157815  150654  150656+
+         150657  150655  167307  167308  167309  167305
CHEXA      44231       4  154154  154156  154155  154153  165223  165222+
+         165420  165421  157822  157821  157820  157818  150656  150658+
+         150659  150657  167310  167311  167312  167308
CHEXA      44232       4  154156  154158  154157  154155  165222  165130+
+         165221  165420  157825  157824  157823  157821  150658  150660+
+         150661  150659  167313  167314  167315  167311
CHEXA      44233       4  154158  154160  154159  154157  165130  164925+
+         165018  165221  157828  157827  157826  157824  150660  150662+
+         150663  150661  167316  167317  167318  167314
CHEXA      44234       4  154160  154162  154161  154159  164925  164714+
+         164814  165018  157831  157830  157829  157827  150662  150664+
+         150665  150663  167319  167320  167321  167317
CHEXA      44235       4  154162  154164  154163  154161  164714  164499+
+         164602  164814  157834  157833  157832  157830  150664  150666+
+         150667  150665  167322  167323  167324  167320
CHEXA      44236       4  154164  154166  154165  154163  164499  164278+
+         164384  164602  157837  157836  157835  157833  150666  150668+
+         150669  150667  167325  167326  167327  167323
CHEXA      44237       4  154166  154168  154167  154165  164278  164051+
+         164159  164384  157840  157839  157838  157836  150668  150670+
+         150671  150669  167328  167329  167330  167326
CHEXA      44238       4  154133  154139  154083  154082  164823  165027+
+         164822  164610  157842  157841  157659  157793  150640  150645+
+         150568  150566  167331  167332  167149  167284
CHEXA      44239       4  154139  154141  154084  154083  165027  165230+
+         165026  164822  157798  157843  157662  157841  150645  150644+
+         150570  150568  167290  167333  167152  167332
CHEXA      44240       4  154141  154143  154085  154084  165230  165426+
+         165229  165026  157802  157844  157665  157843  150644  150647+
+         150572  150570  167294  167334  167155  167333
CHEXA      44241       4  154143  154145  154086  154085  165426  165425+
+         165427  165229  157805  157845  157668  157844  150647  150649+
+         150574  150572  167297  167335  167158  167334
CHEXA      44242       4  154145  154147  154087  154086  165425  165424+
+         165615  165427  157808  157846  157671  157845  150649  150651+
+         150576  150574  167300  167336  167161  167335
CHEXA      44243       4  154147  154149  154088  154087  165424  165423+
+         165614  165615  157811  157847  157674  157846  150651  150653+
+         150578  150576  167303  167337  167164  167336
CHEXA      44244       4  154149  154151  154089  154088  165423  165422+
+         165613  165614  157814  157848  157677  157847  150653  150655+
+         150580  150578  167306  167338  167167  167337
CHEXA      44245       4  154151  154153  154090  154089  165422  165421+
+         165612  165613  157817  157849  157680  157848  150655  150657+
+         150582  150580  167309  167339  167170  167338
CHEXA      44246       4  154153  154155  154091  154090  165421  165420+
+         165419  165612  157820  157850  157683  157849  150657  150659+
+         150584  150582  167312  167340  167173  167339
CHEXA      44247       4  154155  154157  154092  154091  165420  165221+
+         165220  165419  157823  157851  157686  157850  150659  150661+
+         150586  150584  167315  167341  167176  167340
CHEXA      44248       4  154157  154159  154093  154092  165221  165018+
+         165017  165220  157826  157852  157689  157851  150661  150663+
+         150588  150586  167318  167342  167179  167341
CHEXA      44249       4  154159  154161  154094  154093  165018  164814+
+         164813  165017  157829  157853  157692  157852  150663  150665+
+         150590  150588  167321  167343  167182  167342
CHEXA      44250       4  154161  154163  154095  154094  164814  164602+
+         164601  164813  157832  157854  157695  157853  150665  150667+
+         150592  150590  167324  167344  167185  167343
CHEXA      44251       4  154163  154165  154096  154095  164602  164384+
+         164383  164601  157835  157855  157698  157854  150667  150669+
+         150594  150592  167327  167345  167188  167344
CHEXA      44252       4  154165  154167  154097  154096  164384  164159+
+         164158  164383  157838  157856  157701  157855  150669  150671+
+         150596  150594  167330  167346  167191  167345
CHEXA      44253       4  154167  154129  154098  154097  164159  163927+
+         163926  164158  157857  157778  157704  157856  150671  150634+
+         150598  150596  167347  167268  167194  167346
CHEXA      44254       4  154168  154128  154129  154167  164051  163814+
+         163927  164159  157858  157781  157857  157839  150670  150635+
+         150634  150671  167348  167271  167347  167329
CHEXA      44255       4  154108  154107  154128  154168  163816  163544+
+         163814  164051  157730  157782  157858  157859  150611  150610+
+         150635  150670  167220  167272  167348  167349
CHEXA      44256       4  154109  154108  154168  154166  164053  163816+
+         164051  164278  157732  157859  157840  157860  150612  150611+
+         150670  150668  167222  167349  167328  167350
CHEXA      44257       4  154110  154109  154166  154164  164280  164053+
+         164278  164499  157734  157860  157837  157861  150613  150612+
+         150668  150666  167224  167350  167325  167351
CHEXA      44258       4  154111  154110  154164  154162  164501  164280+
+         164499  164714  157736  157861  157834  157862  150614  150613+
+         150666  150664  167226  167351  167322  167352
CHEXA      44259       4  154112  154111  154162  154160  164716  164501+
+         164714  164925  157738  157862  157831  157863  150615  150614+
+         150664  150662  167228  167352  167319  167353
CHEXA      44260       4  154113  154112  154160  154158  164926  164716+
+         164925  165130  157740  157863  157828  157864  150616  150615+
+         150662  150660  167230  167353  167316  167354
CHEXA      44261       4  154114  154113  154158  154156  165019  164926+
+         165130  165222  157742  157864  157825  157865  150617  150616+
+         150660  150658  167232  167354  167313  167355
CHEXA      44262       4  154115  154114  154156  154154  165020  165019+
+         165222  165223  157744  157865  157822  157866  150618  150617+
+         150658  150656  167234  167355  167310  167356
CHEXA      44263       4  154116  154115  154154  154152  165021  165020+
+         165223  165224  157746  157866  157819  157867  150619  150618+
+         150656  150654  167236  167356  167307  167357
CHEXA      44264       4  154117  154116  154152  154150  165022  165021+
+         165224  165225  157748  157867  157816  157868  150620  150619+
+         150654  150652  167238  167357  167304  167358
CHEXA      44265       4  154118  154117  154150  154148  165023  165022+
+         165225  165226  157750  157868  157813  157869  150621  150620+
+         150652  150650  167240  167358  167301  167359
CHEXA      44266       4  154119  154118  154148  154146  165024  165023+
+         165226  165227  157752  157869  157810  157870  150622  150621+
+         150650  150648  167242  167359  167298  167360
CHEXA      44267       4  154120  154119  154146  154144  165025  165024+
+         165227  165228  157754  157870  157807  157871  150623  150622+
+         150648  150646  167244  167360  167295  167361
CHEXA      44268       4  154121  154120  154144  154142  164927  165025+
+         165228  165131  157756  157871  157804  157872  150624  150623+
+         150646  150643  167246  167361  167292  167362
CHEXA      44269       4  154122  154121  154142  154140  164718  164927+
+         165131  164928  157758  157872  157800  157873  150625  150624+
+         150643  150642  167248  167362  167288  167363
CHEXA      44270       4  154123  154122  154140  154134  164504  164718+
+         164928  164719  157760  157873  157874  157797  150626  150625+
+         150642  150641  167250  167363  167364  167287
CHEXA      44271       4  154134  154140  154139  154133  164719  164928+
+         165027  164823  157874  157801  157842  157795  150641  150642+
+         150645  150640  167364  167291  167331  167286
CHEXA      44272       4  153628  153627  154040  154169  163018  163017+
+         163393  163394  156970  157632  157875  157876  150224  150223+
+         150555  150672  166460  167121  167365  167366
CHEXA      44273       4  154170  153629  153628  154169  163395  163019+
+         163018  163394  157877  156972  157876  157878  150673  150225+
+         150224  150672  167367  166462  167366  167368
CHEXA      44274       4  154171  153630  153629  154170  163396  163020+
+         163019  163395  157879  156974  157877  157880  150674  150226+
+         150225  150673  167369  166464  167367  167370
CHEXA      44275       4  154172  153631  153630  154171  163397  163021+
+         163020  163396  157881  156976  157879  157882  150675  150227+
+         150226  150674  167371  166466  167369  167372
CHEXA      44276       4  154173  153632  153631  154172  163398  163022+
+         163021  163397  157883  156978  157881  157884  150676  150228+
+         150227  150675  167373  166468  167371  167374
CHEXA      44277       4  154174  153633  153632  154173  163399  163023+
+         163022  163398  157885  156980  157883  157886  150677  150229+
+         150228  150676  167375  166470  167373  167376
CHEXA      44278       4  154175  153634  153633  154174  163400  163024+
+         163023  163399  157887  156982  157885  157888  150678  150230+
+         150229  150677  167377  166472  167375  167378
CHEXA      44279       4  154176  153635  153634  154175  163401  163025+
+         163024  163400  157889  156984  157887  157890  150679  150231+
+         150230  150678  167379  166474  167377  167380
CHEXA      44280       4  154016  153636  153635  154176  163402  163026+
+         163025  163401  157891  156986  157889  157892  150680  150232+
+         150231  150679  167381  166476  167379  167382
CHEXA      44281       4  154177  154017  154016  154176  163704  163705+
+         163402  163401  157894  157893  157892  157895  150681  150682+
+         150680  150679  167383  167384  167382  167385
CHEXA      44282       4  154178  154018  154017  154177  163950  163951+
+         163705  163704  157897  157896  157894  157898  150683  150684+
+         150682  150681  167386  167387  167383  167388
CHEXA      44283       4  154179  154019  154018  154178  164180  164181+
+         163951  163950  157900  157899  157897  157901  150685  150686+
+         150684  150683  167389  167390  167386  167391
CHEXA      44284       4  154180  154020  154019  154179  164404  164405+
+         164181  164180  157903  157902  157900  157904  150687  150688+
+         150686  150685  167392  167393  167389  167394
CHEXA      44285       4  154181  154021  154020  154180  164620  164621+
+         164405  164404  157906  157905  157903  157907  150689  150690+
+         150688  150687  167395  167396  167392  167397
CHEXA      44286       4  154182  154022  154021  154181  164832  164833+
+         164621  164620  157909  157908  157906  157910  150691  150692+
+         150690  150689  167398  167399  167395  167400
CHEXA      44287       4  154183  154023  154022  154182  165036  165037+
+         164833  164832  157912  157911  157909  157913  150693  150694+
+         150692  150691  167401  167402  167398  167403
CHEXA      44288       4  154184  154024  154023  154183  165239  165240+
+         165037  165036  157915  157914  157912  157916  150695  150696+
+         150694  150693  167404  167405  167401  167406
CHEXA      44289       4  154185  154025  154024  154184  165436  165437+
+         165240  165239  157918  157917  157915  157919  150697  150698+
+         150696  150695  167407  167408  167404  167409
CHEXA      44290       4  154186  154026  154025  154185  165624  165625+
+         165437  165436  157921  157920  157918  157922  150699  150700+
+         150698  150697  167410  167411  167407  167412
CHEXA      44291       4  154187  154027  154026  154186  165802  165803+
+         165625  165624  157924  157923  157921  157925  150701  150702+
+         150700  150699  167413  167414  167410  167415
CHEXA      44292       4  154188  154028  154027  154187  165785  165784+
+         165803  165802  157927  157926  157924  157928  150703  150704+
+         150702  150701  167416  167417  167413  167418
CHEXA      44293       4  154189  154029  154028  154188  165603  165602+
+         165784  165785  157930  157929  157927  157931  150705  150706+
+         150704  150703  167419  167420  167416  167421
CHEXA      44294       4  154190  154030  154029  154189  165410  165409+
+         165602  165603  157933  157932  157930  157934  150707  150708+
+         150706  150705  167422  167423  167419  167424
CHEXA      44295       4  154191  154031  154030  154190  165211  165210+
+         165409  165410  157936  157935  157933  157937  150709  150710+
+         150708  150707  167425  167426  167422  167427
CHEXA      44296       4  154192  154032  154031  154191  165008  165007+
+         165210  165211  157939  157938  157936  157940  150711  150712+
+         150710  150709  167428  167429  167425  167430
CHEXA      44297       4  154193  154033  154032  154192  164804  164803+
+         165007  165008  157942  157941  157939  157943  150713  150714+
+         150712  150711  167431  167432  167428  167433
CHEXA      44298       4  154194  154034  154033  154193  164592  164591+
+         164803  164804  157945  157944  157942  157946  150715  150716+
+         150714  150713  167434  167435  167431  167436
CHEXA      44299       4  154195  154035  154034  154194  164374  164373+
+         164591  164592  157948  157947  157945  157949  150717  150718+
+         150716  150715  167437  167438  167434  167439
CHEXA      44300       4  154196  154036  154035  154195  164149  164148+
+         164373  164374  157951  157950  157948  157952  150719  150720+
+         150718  150717  167440  167441  167437  167442
CHEXA      44301       4  154197  154037  154036  154196  163917  163916+
+         164148  164149  157954  157953  157951  157955  150721  150722+
+         150720  150719  167443  167444  167440  167445
CHEXA      44302       4  154198  154038  154037  154197  163665  163664+
+         163916  163917  157957  157956  157954  157958  150723  150724+
+         150722  150721  167446  167447  167443  167448
CHEXA      44303       4  154199  154039  154038  154198  163337  163336+
+         163664  163665  157960  157959  157957  157961  150725  150726+
+         150724  150723  167449  167450  167446  167451
CHEXA      44304       4  153578  153577  154039  154199  162968  162967+
+         163336  163337  156868  157962  157960  157963  150174  150173+
+         150726  150725  166358  167452  167449  167453
CHEXA      44305       4  154200  153579  153578  154199  163338  162969+
+         162968  163337  157964  156870  157963  157965  150727  150175+
+         150174  150725  167454  166360  167453  167455
CHEXA      44306       4  154201  153580  153579  154200  163339  162970+
+         162969  163338  157966  156872  157964  157967  150728  150176+
+         150175  150727  167456  166362  167454  167457
CHEXA      44307       4  154202  153581  153580  154201  163340  162971+
+         162970  163339  157968  156874  157966  157969  150729  150177+
+         150176  150728  167458  166364  167456  167459
CHEXA      44308       4  154203  153582  153581  154202  163341  162972+
+         162971  163340  157970  156876  157968  157971  150730  150178+
+         150177  150729  167460  166366  167458  167461
CHEXA      44309       4  154204  153583  153582  154203  163342  162973+
+         162972  163341  157972  156878  157970  157973  150731  150179+
+         150178  150730  167462  166368  167460  167463
CHEXA      44310       4  154205  153584  153583  154204  163343  162974+
+         162973  163342  157974  156880  157972  157975  150732  150180+
+         150179  150731  167464  166370  167462  167465
CHEXA      44311       4  154206  153585  153584  154205  163344  162975+
+         162974  163343  157976  156882  157974  157977  150733  150181+
+         150180  150732  167466  166372  167464  167467
CHEXA      44312       4  154063  153586  153585  154206  163345  162976+
+         162975  163344  157711  156884  157976  157978  150603  150182+
+         150181  150733  167201  166374  167466  167468
CHEXA      44313       4  154207  154062  154063  154206  163672  163673+
+         163345  163344  157979  157708  157978  157980  150734  150601+
+         150603  150733  167469  167199  167468  167470
CHEXA      44314       4  154208  154061  154062  154207  163924  163925+
+         163673  163672  157981  157705  157979  157982  150735  150599+
+         150601  150734  167471  167196  167469  167472
CHEXA      44315       4  154209  154060  154061  154208  164156  164157+
+         163925  163924  157983  157702  157981  157984  150736  150597+
+         150599  150735  167473  167193  167471  167474
CHEXA      44316       4  154210  154059  154060  154209  164381  164382+
+         164157  164156  157985  157699  157983  157986  150737  150595+
+         150597  150736  167475  167190  167473  167476
CHEXA      44317       4  154211  154058  154059  154210  164599  164600+
+         164382  164381  157987  157696  157985  157988  150738  150593+
+         150595  150737  167477  167187  167475  167478
CHEXA      44318       4  154212  154057  154058  154211  164811  164812+
+         164600  164599  157989  157693  157987  157990  150739  150591+
+         150593  150738  167479  167184  167477  167480
CHEXA      44319       4  154213  154056  154057  154212  165015  165016+
+         164812  164811  157991  157690  157989  157992  150740  150589+
+         150591  150739  167481  167181  167479  167482
CHEXA      44320       4  154214  154055  154056  154213  165218  165219+
+         165016  165015  157993  157687  157991  157994  150741  150587+
+         150589  150740  167483  167178  167481  167484
CHEXA      44321       4  154215  154054  154055  154214  165417  165418+
+         165219  165218  157995  157684  157993  157996  150742  150585+
+         150587  150741  167485  167175  167483  167486
CHEXA      44322       4  154216  154053  154054  154215  165610  165611+
+         165418  165417  157997  157681  157995  157998  150743  150583+
+         150585  150742  167487  167172  167485  167488
CHEXA      44323       4  154217  154052  154053  154216  165792  165793+
+         165611  165610  157999  157678  157997  158000  150744  150581+
+         150583  150743  167489  167169  167487  167490
CHEXA      44324       4  154218  154051  154052  154217  165795  165794+
+         165793  165792  158001  157675  157999  158002  150745  150579+
+         150581  150744  167491  167166  167489  167492
CHEXA      44325       4  154219  154050  154051  154218  165617  165616+
+         165794  165795  158003  157672  158001  158004  150746  150577+
+         150579  150745  167493  167163  167491  167494
CHEXA      44326       4  154220  154049  154050  154219  165429  165428+
+         165616  165617  158005  157669  158003  158006  150747  150575+
+         150577  150746  167495  167160  167493  167496
CHEXA      44327       4  154221  154048  154049  154220  165232  165231+
+         165428  165429  158007  157666  158005  158008  150748  150573+
+         150575  150747  167497  167157  167495  167498
CHEXA      44328       4  154222  154047  154048  154221  165029  165028+
+         165231  165232  158009  157663  158007  158010  150749  150571+
+         150573  150748  167499  167154  167497  167500
CHEXA      44329       4  154223  154046  154047  154222  164825  164824+
+         165028  165029  158011  157660  158009  158012  150750  150569+
+         150571  150749  167501  167151  167499  167502
CHEXA      44330       4  154224  154045  154046  154223  164613  164612+
+         164824  164825  158013  157657  158011  158014  150751  150567+
+         150569  150750  167503  167148  167501  167504
CHEXA      44331       4  154225  154044  154045  154224  164397  164396+
+         164612  164613  158015  157654  158013  158016  150752  150565+
+         150567  150751  167505  167145  167503  167506
CHEXA      44332       4  154226  154043  154044  154225  164173  164172+
+         164396  164397  158017  157651  158015  158018  150753  150562+
+         150565  150752  167507  167142  167505  167508
CHEXA      44333       4  154227  154042  154043  154226  163943  163942+
+         164172  164173  158019  157649  158017  158020  150754  150545+
+         150562  150753  167509  167138  167507  167510
CHEXA      44334       4  154228  154041  154042  154227  163697  163696+
+         163942  163943  158021  157614  158019  158022  150755  150546+
+         150545  150754  167511  167104  167509  167512
CHEXA      44335       4  154169  154040  154041  154228  163394  163393+
+         163696  163697  157875  157634  158021  158023  150672  150555+
+         150546  150755  167365  167124  167511  167513
CHEXA      44336       4  154170  154169  154228  154229  163395  163394+
+         163697  163698  157878  158023  158024  158025  150673  150672+
+         150755  150756  167368  167513  167514  167515
CHEXA      44337       4  154230  154171  154170  154229  163699  163396+
+         163395  163698  158026  157880  158025  158027  150757  150674+
+         150673  150756  167516  167370  167515  167517
CHEXA      44338       4  154231  154172  154171  154230  163700  163397+
+         163396  163699  158028  157882  158026  158029  150758  150675+
+         150674  150757  167518  167372  167516  167519
CHEXA      44339       4  154232  154173  154172  154231  163701  163398+
+         163397  163700  158030  157884  158028  158031  150759  150676+
+         150675  150758  167520  167374  167518  167521
CHEXA      44340       4  154233  154174  154173  154232  163702  163399+
+         163398  163701  158032  157886  158030  158033  150760  150677+
+         150676  150759  167522  167376  167520  167523
CHEXA      44341       4  154234  154175  154174  154233  163703  163400+
+         163399  163702  158034  157888  158032  158035  150761  150678+
+         150677  150760  167524  167378  167522  167525
CHEXA      44342       4  154177  154176  154175  154234  163704  163401+
+         163400  163703  157895  157890  158034  158036  150681  150679+
+         150678  150761  167385  167380  167524  167526
CHEXA      44343       4  154235  154178  154177  154234  163949  163950+
+         163704  163703  158037  157898  158036  158038  150762  150683+
+         150681  150761  167527  167388  167526  167528
CHEXA      44344       4  154236  154179  154178  154235  164179  164180+
+         163950  163949  158039  157901  158037  158040  150763  150685+
+         150683  150762  167529  167391  167527  167530
CHEXA      44345       4  154237  154180  154179  154236  164403  164404+
+         164180  164179  158041  157904  158039  158042  150764  150687+
+         150685  150763  167531  167394  167529  167532
CHEXA      44346       4  154238  154181  154180  154237  164619  164620+
+         164404  164403  158043  157907  158041  158044  150765  150689+
+         150687  150764  167533  167397  167531  167534
CHEXA      44347       4  154239  154182  154181  154238  164831  164832+
+         164620  164619  158045  157910  158043  158046  150766  150691+
+         150689  150765  167535  167400  167533  167536
CHEXA      44348       4  154240  154183  154182  154239  165035  165036+
+         164832  164831  158047  157913  158045  158048  150767  150693+
+         150691  150766  167537  167403  167535  167538
CHEXA      44349       4  154241  154184  154183  154240  165238  165239+
+         165036  165035  158049  157916  158047  158050  150768  150695+
+         150693  150767  167539  167406  167537  167540
CHEXA      44350       4  154242  154185  154184  154241  165435  165436+
+         165239  165238  158051  157919  158049  158052  150769  150697+
+         150695  150768  167541  167409  167539  167542
CHEXA      44351       4  154243  154186  154185  154242  165623  165624+
+         165436  165435  158053  157922  158051  158054  150770  150699+
+         150697  150769  167543  167412  167541  167544
CHEXA      44352       4  154244  154187  154186  154243  165801  165802+
+         165624  165623  158055  157925  158053  158056  150771  150701+
+         150699  150770  167545  167415  167543  167546
CHEXA      44353       4  154245  154188  154187  154244  165786  165785+
+         165802  165801  158057  157928  158055  158058  150772  150703+
+         150701  150771  167547  167418  167545  167548
CHEXA      44354       4  154246  154189  154188  154245  165604  165603+
+         165785  165786  158059  157931  158057  158060  150773  150705+
+         150703  150772  167549  167421  167547  167550
CHEXA      44355       4  154247  154190  154189  154246  165411  165410+
+         165603  165604  158061  157934  158059  158062  150774  150707+
+         150705  150773  167551  167424  167549  167552
CHEXA      44356       4  154248  154191  154190  154247  165212  165211+
+         165410  165411  158063  157937  158061  158064  150775  150709+
+         150707  150774  167553  167427  167551  167554
CHEXA      44357       4  154249  154192  154191  154248  165009  165008+
+         165211  165212  158065  157940  158063  158066  150776  150711+
+         150709  150775  167555  167430  167553  167556
CHEXA      44358       4  154250  154193  154192  154249  164805  164804+
+         165008  165009  158067  157943  158065  158068  150777  150713+
+         150711  150776  167557  167433  167555  167558
CHEXA      44359       4  154251  154194  154193  154250  164593  164592+
+         164804  164805  158069  157946  158067  158070  150778  150715+
+         150713  150777  167559  167436  167557  167560
CHEXA      44360       4  154252  154195  154194  154251  164375  164374+
+         164592  164593  158071  157949  158069  158072  150779  150717+
+         150715  150778  167561  167439  167559  167562
CHEXA      44361       4  154253  154196  154195  154252  164150  164149+
+         164374  164375  158073  157952  158071  158074  150780  150719+
+         150717  150779  167563  167442  167561  167564
CHEXA      44362       4  154254  154197  154196  154253  163918  163917+
+         164149  164150  158075  157955  158073  158076  150781  150721+
+         150719  150780  167565  167445  167563  167566
CHEXA      44363       4  154255  154198  154197  154254  163666  163665+
+         163917  163918  158077  157958  158075  158078  150782  150723+
+         150721  150781  167567  167448  167565  167568
CHEXA      44364       4  154200  154199  154198  154255  163338  163337+
+         163665  163666  157965  157961  158077  158079  150727  150725+
+         150723  150782  167455  167451  167567  167569
CHEXA      44365       4  154256  154201  154200  154255  163667  163339+
+         163338  163666  158080  157967  158079  158081  150783  150728+
+         150727  150782  167570  167457  167569  167571
CHEXA      44366       4  154257  154202  154201  154256  163668  163340+
+         163339  163667  158082  157969  158080  158083  150784  150729+
+         150728  150783  167572  167459  167570  167573
CHEXA      44367       4  154258  154203  154202  154257  163669  163341+
+         163340  163668  158084  157971  158082  158085  150785  150730+
+         150729  150784  167574  167461  167572  167575
CHEXA      44368       4  154259  154204  154203  154258  163670  163342+
+         163341  163669  158086  157973  158084  158087  150786  150731+
+         150730  150785  167576  167463  167574  167577
CHEXA      44369       4  154260  154205  154204  154259  163671  163343+
+         163342  163670  158088  157975  158086  158089  150787  150732+
+         150731  150786  167578  167465  167576  167579
CHEXA      44370       4  154207  154206  154205  154260  163672  163344+
+         163343  163671  157980  157977  158088  158090  150734  150733+
+         150732  150787  167470  167467  167578  167580
CHEXA      44371       4  154261  154208  154207  154260  163923  163924+
+         163672  163671  158091  157982  158090  158092  150788  150735+
+         150734  150787  167581  167472  167580  167582
CHEXA      44372       4  154262  154209  154208  154261  164155  164156+
+         163924  163923  158093  157984  158091  158094  150789  150736+
+         150735  150788  167583  167474  167581  167584
CHEXA      44373       4  154263  154210  154209  154262  164380  164381+
+         164156  164155  158095  157986  158093  158096  150790  150737+
+         150736  150789  167585  167476  167583  167586
CHEXA      44374       4  154264  154211  154210  154263  164598  164599+
+         164381  164380  158097  157988  158095  158098  150791  150738+
+         150737  150790  167587  167478  167585  167588
CHEXA      44375       4  154265  154212  154211  154264  164810  164811+
+         164599  164598  158099  157990  158097  158100  150792  150739+
+         150738  150791  167589  167480  167587  167590
CHEXA      44376       4  154266  154213  154212  154265  165014  165015+
+         164811  164810  158101  157992  158099  158102  150793  150740+
+         150739  150792  167591  167482  167589  167592
CHEXA      44377       4  154267  154214  154213  154266  165217  165218+
+         165015  165014  158103  157994  158101  158104  150794  150741+
+         150740  150793  167593  167484  167591  167594
CHEXA      44378       4  154268  154215  154214  154267  165416  165417+
+         165218  165217  158105  157996  158103  158106  150795  150742+
+         150741  150794  167595  167486  167593  167596
CHEXA      44379       4  154269  154216  154215  154268  165609  165610+
+         165417  165416  158107  157998  158105  158108  150796  150743+
+         150742  150795  167597  167488  167595  167598
CHEXA      44380       4  154270  154217  154216  154269  165791  165792+
+         165610  165609  158109  158000  158107  158110  150797  150744+
+         150743  150796  167599  167490  167597  167600
CHEXA      44381       4  154271  154218  154217  154270  165796  165795+
+         165792  165791  158111  158002  158109  158112  150798  150745+
+         150744  150797  167601  167492  167599  167602
CHEXA      44382       4  154272  154219  154218  154271  165618  165617+
+         165795  165796  158113  158004  158111  158114  150799  150746+
+         150745  150798  167603  167494  167601  167604
CHEXA      44383       4  154273  154220  154219  154272  165430  165429+
+         165617  165618  158115  158006  158113  158116  150800  150747+
+         150746  150799  167605  167496  167603  167606
CHEXA      44384       4  154274  154221  154220  154273  165233  165232+
+         165429  165430  158117  158008  158115  158118  150801  150748+
+         150747  150800  167607  167498  167605  167608
CHEXA      44385       4  154275  154222  154221  154274  165030  165029+
+         165232  165233  158119  158010  158117  158120  150802  150749+
+         150748  150801  167609  167500  167607  167610
CHEXA      44386       4  154276  154223  154222  154275  164826  164825+
+         165029  165030  158121  158012  158119  158122  150803  150750+
+         150749  150802  167611  167502  167609  167612
CHEXA      44387       4  154277  154224  154223  154276  164614  164613+
+         164825  164826  158123  158014  158121  158124  150804  150751+
+         150750  150803  167613  167504  167611  167614
CHEXA      44388       4  154278  154225  154224  154277  164398  164397+
+         164613  164614  158125  158016  158123  158126  150805  150752+
+         150751  150804  167615  167506  167613  167616
CHEXA      44389       4  154279  154226  154225  154278  164174  164173+
+         164397  164398  158127  158018  158125  158128  150806  150753+
+         150752  150805  167617  167508  167615  167618
CHEXA      44390       4  154280  154227  154226  154279  163944  163943+
+         164173  164174  158129  158020  158127  158130  150807  150754+
+         150753  150806  167619  167510  167617  167620
CHEXA      44391       4  154229  154228  154227  154280  163698  163697+
+         163943  163944  158024  158022  158129  158131  150756  150755+
+         150754  150807  167514  167512  167619  167621
CHEXA      44392       4  154230  154229  154280  154281  163699  163698+
+         163944  163945  158027  158131  158132  158133  150757  150756+
+         150807  150808  167517  167621  167622  167623
CHEXA      44393       4  154282  154231  154230  154281  163946  163700+
+         163699  163945  158134  158029  158133  158135  150809  150758+
+         150757  150808  167624  167519  167623  167625
CHEXA      44394       4  154283  154232  154231  154282  163947  163701+
+         163700  163946  158136  158031  158134  158137  150810  150759+
+         150758  150809  167626  167521  167624  167627
CHEXA      44395       4  154284  154233  154232  154283  163948  163702+
+         163701  163947  158138  158033  158136  158139  150811  150760+
+         150759  150810  167628  167523  167626  167629
CHEXA      44396       4  154235  154234  154233  154284  163949  163703+
+         163702  163948  158038  158035  158138  158140  150762  150761+
+         150760  150811  167528  167525  167628  167630
CHEXA      44397       4  154285  154236  154235  154284  164178  164179+
+         163949  163948  158141  158040  158140  158142  150812  150763+
+         150762  150811  167631  167530  167630  167632
CHEXA      44398       4  154286  154237  154236  154285  164402  164403+
+         164179  164178  158143  158042  158141  158144  150813  150764+
+         150763  150812  167633  167532  167631  167634
CHEXA      44399       4  154287  154238  154237  154286  164618  164619+
+         164403  164402  158145  158044  158143  158146  150814  150765+
+         150764  150813  167635  167534  167633  167636
CHEXA      44400       4  154288  154239  154238  154287  164830  164831+
+         164619  164618  158147  158046  158145  158148  150815  150766+
+         150765  150814  167637  167536  167635  167638
CHEXA      44401       4  154289  154240  154239  154288  165034  165035+
+         164831  164830  158149  158048  158147  158150  150816  150767+
+         150766  150815  167639  167538  167637  167640
CHEXA      44402       4  154290  154241  154240  154289  165237  165238+
+         165035  165034  158151  158050  158149  158152  150817  150768+
+         150767  150816  167641  167540  167639  167642
CHEXA      44403       4  154291  154242  154241  154290  165434  165435+
+         165238  165237  158153  158052  158151  158154  150818  150769+
+         150768  150817  167643  167542  167641  167644
CHEXA      44404       4  154292  154243  154242  154291  165622  165623+
+         165435  165434  158155  158054  158153  158156  150819  150770+
+         150769  150818  167645  167544  167643  167646
CHEXA      44405       4  154293  154244  154243  154292  165800  165801+
+         165623  165622  158157  158056  158155  158158  150820  150771+
+         150770  150819  167647  167546  167645  167648
CHEXA      44406       4  154294  154245  154244  154293  165787  165786+
+         165801  165800  158159  158058  158157  158160  150821  150772+
+         150771  150820  167649  167548  167647  167650
CHEXA      44407       4  154295  154246  154245  154294  165605  165604+
+         165786  165787  158161  158060  158159  158162  150822  150773+
+         150772  150821  167651  167550  167649  167652
CHEXA      44408       4  154296  154247  154246  154295  165412  165411+
+         165604  165605  158163  158062  158161  158164  150823  150774+
+         150773  150822  167653  167552  167651  167654
CHEXA      44409       4  154297  154248  154247  154296  165213  165212+
+         165411  165412  158165  158064  158163  158166  150824  150775+
+         150774  150823  167655  167554  167653  167656
CHEXA      44410       4  154298  154249  154248  154297  165010  165009+
+         165212  165213  158167  158066  158165  158168  150825  150776+
+         150775  150824  167657  167556  167655  167658
CHEXA      44411       4  154299  154250  154249  154298  164806  164805+
+         165009  165010  158169  158068  158167  158170  150826  150777+
+         150776  150825  167659  167558  167657  167660
CHEXA      44412       4  154300  154251  154250  154299  164594  164593+
+         164805  164806  158171  158070  158169  158172  150827  150778+
+         150777  150826  167661  167560  167659  167662
CHEXA      44413       4  154301  154252  154251  154300  164376  164375+
+         164593  164594  158173  158072  158171  158174  150828  150779+
+         150778  150827  167663  167562  167661  167664
CHEXA      44414       4  154302  154253  154252  154301  164151  164150+
+         164375  164376  158175  158074  158173  158176  150829  150780+
+         150779  150828  167665  167564  167663  167666
CHEXA      44415       4  154303  154254  154253  154302  163919  163918+
+         164150  164151  158177  158076  158175  158178  150830  150781+
+         150780  150829  167667  167566  167665  167668
CHEXA      44416       4  154256  154255  154254  154303  163667  163666+
+         163918  163919  158081  158078  158177  158179  150783  150782+
+         150781  150830  167571  167568  167667  167669
CHEXA      44417       4  154304  154257  154256  154303  163920  163668+
+         163667  163919  158180  158083  158179  158181  150831  150784+
+         150783  150830  167670  167573  167669  167671
CHEXA      44418       4  154305  154258  154257  154304  163921  163669+
+         163668  163920  158182  158085  158180  158183  150832  150785+
+         150784  150831  167672  167575  167670  167673
CHEXA      44419       4  154306  154259  154258  154305  163922  163670+
+         163669  163921  158184  158087  158182  158185  150833  150786+
+         150785  150832  167674  167577  167672  167675
CHEXA      44420       4  154261  154260  154259  154306  163923  163671+
+         163670  163922  158092  158089  158184  158186  150788  150787+
+         150786  150833  167582  167579  167674  167676
CHEXA      44421       4  154307  154262  154261  154306  164154  164155+
+         163923  163922  158187  158094  158186  158188  150834  150789+
+         150788  150833  167677  167584  167676  167678
CHEXA      44422       4  154308  154263  154262  154307  164379  164380+
+         164155  164154  158189  158096  158187  158190  150835  150790+
+         150789  150834  167679  167586  167677  167680
CHEXA      44423       4  154309  154264  154263  154308  164597  164598+
+         164380  164379  158191  158098  158189  158192  150836  150791+
+         150790  150835  167681  167588  167679  167682
CHEXA      44424       4  154310  154265  154264  154309  164809  164810+
+         164598  164597  158193  158100  158191  158194  150837  150792+
+         150791  150836  167683  167590  167681  167684
CHEXA      44425       4  154311  154266  154265  154310  165013  165014+
+         164810  164809  158195  158102  158193  158196  150838  150793+
+         150792  150837  167685  167592  167683  167686
CHEXA      44426       4  154312  154267  154266  154311  165216  165217+
+         165014  165013  158197  158104  158195  158198  150839  150794+
+         150793  150838  167687  167594  167685  167688
CHEXA      44427       4  154313  154268  154267  154312  165415  165416+
+         165217  165216  158199  158106  158197  158200  150840  150795+
+         150794  150839  167689  167596  167687  167690
CHEXA      44428       4  154314  154269  154268  154313  165608  165609+
+         165416  165415  158201  158108  158199  158202  150841  150796+
+         150795  150840  167691  167598  167689  167692
CHEXA      44429       4  154315  154270  154269  154314  165790  165791+
+         165609  165608  158203  158110  158201  158204  150842  150797+
+         150796  150841  167693  167600  167691  167694
CHEXA      44430       4  154316  154271  154270  154315  165797  165796+
+         165791  165790  158205  158112  158203  158206  150843  150798+
+         150797  150842  167695  167602  167693  167696
CHEXA      44431       4  154317  154272  154271  154316  165619  165618+
+         165796  165797  158207  158114  158205  158208  150844  150799+
+         150798  150843  167697  167604  167695  167698
CHEXA      44432       4  154318  154273  154272  154317  165431  165430+
+         165618  165619  158209  158116  158207  158210  150845  150800+
+         150799  150844  167699  167606  167697  167700
CHEXA      44433       4  154319  154274  154273  154318  165234  165233+
+         165430  165431  158211  158118  158209  158212  150846  150801+
+         150800  150845  167701  167608  167699  167702
CHEXA      44434       4  154320  154275  154274  154319  165031  165030+
+         165233  165234  158213  158120  158211  158214  150847  150802+
+         150801  150846  167703  167610  167701  167704
CHEXA      44435       4  154321  154276  154275  154320  164827  164826+
+         165030  165031  158215  158122  158213  158216  150848  150803+
+         150802  150847  167705  167612  167703  167706
CHEXA      44436       4  154322  154277  154276  154321  164615  164614+
+         164826  164827  158217  158124  158215  158218  150849  150804+
+         150803  150848  167707  167614  167705  167708
CHEXA      44437       4  154323  154278  154277  154322  164399  164398+
+         164614  164615  158219  158126  158217  158220  150850  150805+
+         150804  150849  167709  167616  167707  167710
CHEXA      44438       4  154324  154279  154278  154323  164175  164174+
+         164398  164399  158221  158128  158219  158222  150851  150806+
+         150805  150850  167711  167618  167709  167712
CHEXA      44439       4  154281  154280  154279  154324  163945  163944+
+         164174  164175  158132  158130  158221  158223  150808  150807+
+         150806  150851  167622  167620  167711  167713
CHEXA      44440       4  154282  154281  154324  154325  163946  163945+
+         164175  164176  158135  158223  158224  158225  150809  150808+
+         150851  150852  167625  167713  167714  167715
CHEXA      44441       4  154326  154283  154282  154325  164177  163947+
+         163946  164176  158226  158137  158225  158227  150853  150810+
+         150809  150852  167716  167627  167715  167717
CHEXA      44442       4  154285  154284  154283  154326  164178  163948+
+         163947  164177  158142  158139  158226  158228  150812  150811+
+         150810  150853  167632  167629  167716  167718
CHEXA      44443       4  154327  154286  154285  154326  164401  164402+
+         164178  164177  158229  158144  158228  158230  150854  150813+
+         150812  150853  167719  167634  167718  167720
CHEXA      44444       4  154328  154287  154286  154327  164617  164618+
+         164402  164401  158231  158146  158229  158232  150855  150814+
+         150813  150854  167721  167636  167719  167722
CHEXA      44445       4  154329  154288  154287  154328  164829  164830+
+         164618  164617  158233  158148  158231  158234  150856  150815+
+         150814  150855  167723  167638  167721  167724
CHEXA      44446       4  154330  154289  154288  154329  165033  165034+
+         164830  164829  158235  158150  158233  158236  150857  150816+
+         150815  150856  167725  167640  167723  167726
CHEXA      44447       4  154331  154290  154289  154330  165236  165237+
+         165034  165033  158237  158152  158235  158238  150858  150817+
+         150816  150857  167727  167642  167725  167728
CHEXA      44448       4  154332  154291  154290  154331  165433  165434+
+         165237  165236  158239  158154  158237  158240  150859  150818+
+         150817  150858  167729  167644  167727  167730
CHEXA      44449       4  154333  154292  154291  154332  165621  165622+
+         165434  165433  158241  158156  158239  158242  150860  150819+
+         150818  150859  167731  167646  167729  167732
CHEXA      44450       4  154334  154293  154292  154333  165799  165800+
+         165622  165621  158243  158158  158241  158244  150861  150820+
+         150819  150860  167733  167648  167731  167734
CHEXA      44451       4  154335  154294  154293  154334  165788  165787+
+         165800  165799  158245  158160  158243  158246  150862  150821+
+         150820  150861  167735  167650  167733  167736
CHEXA      44452       4  154336  154295  154294  154335  165606  165605+
+         165787  165788  158247  158162  158245  158248  150863  150822+
+         150821  150862  167737  167652  167735  167738
CHEXA      44453       4  154337  154296  154295  154336  165413  165412+
+         165605  165606  158249  158164  158247  158250  150864  150823+
+         150822  150863  167739  167654  167737  167740
CHEXA      44454       4  154338  154297  154296  154337  165214  165213+
+         165412  165413  158251  158166  158249  158252  150865  150824+
+         150823  150864  167741  167656  167739  167742
CHEXA      44455       4  154339  154298  154297  154338  165011  165010+
+         165213  165214  158253  158168  158251  158254  150866  150825+
+         150824  150865  167743  167658  167741  167744
CHEXA      44456       4  154340  154299  154298  154339  164807  164806+
+         165010  165011  158255  158170  158253  158256  150867  150826+
+         150825  150866  167745  167660  167743  167746
CHEXA      44457       4  154341  154300  154299  154340  164595  164594+
+         164806  164807  158257  158172  158255  158258  150868  150827+
+         150826  150867  167747  167662  167745  167748
CHEXA      44458       4  154342  154301  154300  154341  164377  164376+
+         164594  164595  158259  158174  158257  158260  150869  150828+
+         150827  150868  167749  167664  167747  167750
CHEXA      44459       4  154343  154302  154301  154342  164152  164151+
+         164376  164377  158261  158176  158259  158262  150870  150829+
+         150828  150869  167751  167666  167749  167752
CHEXA      44460       4  154304  154303  154302  154343  163920  163919+
+         164151  164152  158181  158178  158261  158263  150831  150830+
+         150829  150870  167671  167668  167751  167753
CHEXA      44461       4  154344  154305  154304  154343  164153  163921+
+         163920  164152  158264  158183  158263  158265  150871  150832+
+         150831  150870  167754  167673  167753  167755
CHEXA      44462       4  154307  154306  154305  154344  164154  163922+
+         163921  164153  158188  158185  158264  158266  150834  150833+
+         150832  150871  167678  167675  167754  167756
CHEXA      44463       4  154345  154308  154307  154344  164378  164379+
+         164154  164153  158267  158190  158266  158268  150872  150835+
+         150834  150871  167757  167680  167756  167758
CHEXA      44464       4  154346  154309  154308  154345  164596  164597+
+         164379  164378  158269  158192  158267  158270  150873  150836+
+         150835  150872  167759  167682  167757  167760
CHEXA      44465       4  154347  154310  154309  154346  164808  164809+
+         164597  164596  158271  158194  158269  158272  150874  150837+
+         150836  150873  167761  167684  167759  167762
CHEXA      44466       4  154348  154311  154310  154347  165012  165013+
+         164809  164808  158273  158196  158271  158274  150875  150838+
+         150837  150874  167763  167686  167761  167764
CHEXA      44467       4  154349  154312  154311  154348  165215  165216+
+         165013  165012  158275  158198  158273  158276  150876  150839+
+         150838  150875  167765  167688  167763  167766
CHEXA      44468       4  154350  154313  154312  154349  165414  165415+
+         165216  165215  158277  158200  158275  158278  150877  150840+
+         150839  150876  167767  167690  167765  167768
CHEXA      44469       4  154351  154314  154313  154350  165607  165608+
+         165415  165414  158279  158202  158277  158280  150878  150841+
+         150840  150877  167769  167692  167767  167770
CHEXA      44470       4  154352  154315  154314  154351  165789  165790+
+         165608  165607  158281  158204  158279  158282  150879  150842+
+         150841  150878  167771  167694  167769  167772
CHEXA      44471       4  154353  154316  154315  154352  165798  165797+
+         165790  165789  158283  158206  158281  158284  150880  150843+
+         150842  150879  167773  167696  167771  167774
CHEXA      44472       4  154354  154317  154316  154353  165620  165619+
+         165797  165798  158285  158208  158283  158286  150881  150844+
+         150843  150880  167775  167698  167773  167776
CHEXA      44473       4  154355  154318  154317  154354  165432  165431+
+         165619  165620  158287  158210  158285  158288  150882  150845+
+         150844  150881  167777  167700  167775  167778
CHEXA      44474       4  154356  154319  154318  154355  165235  165234+
+         165431  165432  158289  158212  158287  158290  150883  150846+
+         150845  150882  167779  167702  167777  167780
CHEXA      44475       4  154357  154320  154319  154356  165032  165031+
+         165234  165235  158291  158214  158289  158292  150884  150847+
+         150846  150883  167781  167704  167779  167782
CHEXA      44476       4  154358  154321  154320  154357  164828  164827+
+         165031  165032  158293  158216  158291  158294  150885  150848+
+         150847  150884  167783  167706  167781  167784
CHEXA      44477       4  154359  154322  154321  154358  164616  164615+
+         164827  164828  158295  158218  158293  158296  150886  150849+
+         150848  150885  167785  167708  167783  167786
CHEXA      44478       4  154360  154323  154322  154359  164400  164399+
+         164615  164616  158297  158220  158295  158298  150887  150850+
+         150849  150886  167787  167710  167785  167788
CHEXA      44479       4  154325  154324  154323  154360  164176  164175+
+         164399  164400  158224  158222  158297  158299  150852  150851+
+         150850  150887  167714  167712  167787  167789
CHEXA      44480       4  154325  154360  154327  154326  164176  164400+
+         164401  164177  158299  158300  158230  158227  150852  150887+
+         150854  150853  167789  167790  167720  167717
CHEXA      44481       4  154360  154359  154328  154327  164400  164616+
+         164617  164401  158298  158301  158232  158300  150887  150886+
+         150855  150854  167788  167791  167722  167790
CHEXA      44482       4  154359  154358  154329  154328  164616  164828+
+         164829  164617  158296  158302  158234  158301  150886  150885+
+         150856  150855  167786  167792  167724  167791
CHEXA      44483       4  154358  154357  154330  154329  164828  165032+
+         165033  164829  158294  158303  158236  158302  150885  150884+
+         150857  150856  167784  167793  167726  167792
CHEXA      44484       4  154357  154356  154331  154330  165032  165235+
+         165236  165033  158292  158304  158238  158303  150884  150883+
+         150858  150857  167782  167794  167728  167793
CHEXA      44485       4  154356  154355  154332  154331  165235  165432+
+         165433  165236  158290  158305  158240  158304  150883  150882+
+         150859  150858  167780  167795  167730  167794
CHEXA      44486       4  154355  154354  154333  154332  165432  165620+
+         165621  165433  158288  158306  158242  158305  150882  150881+
+         150860  150859  167778  167796  167732  167795
CHEXA      44487       4  154354  154353  154334  154333  165620  165798+
+         165799  165621  158286  158307  158244  158306  150881  150880+
+         150861  150860  167776  167797  167734  167796
CHEXA      44488       4  154353  154352  154335  154334  165798  165789+
+         165788  165799  158284  158308  158246  158307  150880  150879+
+         150862  150861  167774  167798  167736  167797
CHEXA      44489       4  154352  154351  154336  154335  165789  165607+
+         165606  165788  158282  158309  158248  158308  150879  150878+
+         150863  150862  167772  167799  167738  167798
CHEXA      44490       4  154351  154350  154337  154336  165607  165414+
+         165413  165606  158280  158310  158250  158309  150878  150877+
+         150864  150863  167770  167800  167740  167799
CHEXA      44491       4  154350  154349  154338  154337  165414  165215+
+         165214  165413  158278  158311  158252  158310  150877  150876+
+         150865  150864  167768  167801  167742  167800
CHEXA      44492       4  154349  154348  154339  154338  165215  165012+
+         165011  165214  158276  158312  158254  158311  150876  150875+
+         150866  150865  167766  167802  167744  167801
CHEXA      44493       4  154348  154347  154340  154339  165012  164808+
+         164807  165011  158274  158313  158256  158312  150875  150874+
+         150867  150866  167764  167803  167746  167802
CHEXA      44494       4  154347  154346  154341  154340  164808  164596+
+         164595  164807  158272  158314  158258  158313  150874  150873+
+         150868  150867  167762  167804  167748  167803
CHEXA      44495       4  154346  154345  154342  154341  164596  164378+
+         164377  164595  158270  158315  158260  158314  150873  150872+
+         150869  150868  167760  167805  167750  167804
CHEXA      44496       4  154345  154344  154343  154342  164378  164153+
+         164152  164377  158268  158265  158262  158315  150872  150871+
+         150870  150869  167758  167755  167752  167805
CHEXA      44497       4  153637  153636  154016  154361  163027  163026+
+         163402  163403  156988  157891  158316  158317  150233  150232+
+         150680  150888  166478  167381  167806  167807
CHEXA      44498       4  154362  153638  153637  154361  163404  163028+
+         163027  163403  158318  156990  158317  158319  150889  150234+
+         150233  150888  167808  166480  167807  167809
CHEXA      44499       4  154363  153639  153638  154362  163405  163029+
+         163028  163404  158320  156992  158318  158321  150890  150235+
+         150234  150889  167810  166482  167808  167811
CHEXA      44500       4  154364  153640  153639  154363  163406  163030+
+         163029  163405  158322  156994  158320  158323  150891  150236+
+         150235  150890  167812  166484  167810  167813
CHEXA      44501       4  154365  153641  153640  154364  163407  163031+
+         163030  163406  158324  156996  158322  158325  150892  150237+
+         150236  150891  167814  166486  167812  167815
CHEXA      44502       4  154366  153642  153641  154365  163408  163032+
+         163031  163407  158326  156998  158324  158327  150893  150238+
+         150237  150892  167816  166488  167814  167817
CHEXA      44503       4  154367  153643  153642  154366  163409  163033+
+         163032  163408  158328  157000  158326  158329  150894  150239+
+         150238  150893  167818  166490  167816  167819
CHEXA      44504       4  154368  153644  153643  154367  163410  163034+
+         163033  163409  158330  157002  158328  158331  150895  150240+
+         150239  150894  167820  166492  167818  167821
CHEXA      44505       4  154369  153645  153644  154368  163411  163035+
+         163034  163410  158332  157004  158330  158333  150896  150241+
+         150240  150895  167822  166494  167820  167823
CHEXA      44506       4  154370  153646  153645  154369  163412  163036+
+         163035  163411  158334  157006  158332  158335  150897  150242+
+         150241  150896  167824  166496  167822  167825
CHEXA      44507       4  154371  153647  153646  154370  163413  163037+
+         163036  163412  158336  157008  158334  158337  150898  150243+
+         150242  150897  167826  166498  167824  167827
CHEXA      44508       4  154372  153648  153647  154371  163414  163038+
+         163037  163413  158338  157010  158336  158339  150899  150244+
+         150243  150898  167828  166500  167826  167829
CHEXA      44509       4  154373  153649  153648  154372  163415  163039+
+         163038  163414  158340  157012  158338  158341  150900  150245+
+         150244  150899  167830  166502  167828  167831
CHEXA      44510       4  154374  153650  153649  154373  163416  163040+
+         163039  163415  158342  157014  158340  158343  150901  150246+
+         150245  150900  167832  166504  167830  167833
CHEXA      44511       4  154375  153651  153650  154374  163417  163041+
+         163040  163416  158344  157016  158342  158345  150902  150247+
+         150246  150901  167834  166506  167832  167835
CHEXA      44512       4  154376  153652  153651  154375  163418  163042+
+         163041  163417  158346  157018  158344  158347  150903  150248+
+         150247  150902  167836  166508  167834  167837
CHEXA      44513       4  153654  153653  153652  154376  163044  163043+
+         163042  163418  157023  157020  158346  158348  150250  150249+
+         150248  150903  166513  166510  167836  167838
CHEXA      44514       4  154377  153655  153654  154376  163420  163045+
+         163044  163418  158349  157025  158348  158350  150904  150251+
+         150250  150903  167839  166515  167838  167840
CHEXA      44515       4  154378  153656  153655  154377  163722  163419+
+         163045  163420  158351  157028  158349  158352  150905  150252+
+         150251  150904  167841  166518  167839  167842
CHEXA      44516       4  154379  154012  153656  154378  163966  163721+
+         163419  163722  158353  157611  158351  158354  150906  150543+
+         150252  150905  167843  167102  167841  167844
CHEXA      44517       4  154380  154011  154012  154379  164196  163968+
+         163721  163966  158355  157608  158353  158356  150907  150541+
+         150543  150906  167845  167100  167843  167846
CHEXA      44518       4  154381  154010  154011  154380  164420  164198+
+         163968  164196  158357  157605  158355  158358  150908  150539+
+         150541  150907  167847  167097  167845  167848
CHEXA      44519       4  154382  154009  154010  154381  164636  164422+
+         164198  164420  158359  157602  158357  158360  150909  150537+
+         150539  150908  167849  167094  167847  167850
CHEXA      44520       4  154383  154008  154009  154382  164848  164638+
+         164422  164636  158361  157599  158359  158362  150910  150535+
+         150537  150909  167851  167091  167849  167852
CHEXA      44521       4  154384  154007  154008  154383  165052  164850+
+         164638  164848  158363  157596  158361  158364  150911  150533+
+         150535  150910  167853  167088  167851  167854
CHEXA      44522       4  154385  154006  154007  154384  165255  165054+
+         164850  165052  158365  157593  158363  158366  150912  150531+
+         150533  150911  167855  167085  167853  167856
CHEXA      44523       4  154386  154005  154006  154385  165452  165257+
+         165054  165255  158367  157590  158365  158368  150913  150529+
+         150531  150912  167857  167082  167855  167858
CHEXA      44524       4  154387  154004  154005  154386  165640  165454+
+         165257  165452  158369  157587  158367  158370  150914  150527+
+         150529  150913  167859  167079  167857  167860
CHEXA      44525       4  154388  154003  154004  154387  165818  165642+
+         165454  165640  158371  157584  158369  158372  150915  150525+
+         150527  150914  167861  167076  167859  167862
CHEXA      44526       4  154389  154002  154003  154388  165926  165820+
+         165642  165818  158373  157581  158371  158374  150916  150523+
+         150525  150915  167863  167073  167861  167864
CHEXA      44527       4  154390  154001  154002  154389  165918  165917+
+         165820  165926  158375  157578  158373  158376  150917  150521+
+         150523  150916  167865  167070  167863  167866
CHEXA      44528       4  154391  154000  154001  154390  165769  165768+
+         165917  165918  158377  157575  158375  158378  150918  150508+
+         150521  150917  167867  167067  167865  167868
CHEXA      44529       4  154392  153999  154000  154391  165587  165586+
+         165768  165769  158379  157550  158377  158380  150919  150506+
+         150508  150918  167869  167042  167867  167870
CHEXA      44530       4  154393  153998  153999  154392  165394  165393+
+         165586  165587  158381  157547  158379  158382  150920  150504+
+         150506  150919  167871  167039  167869  167872
CHEXA      44531       4  154394  153997  153998  154393  165195  165194+
+         165393  165394  158383  157544  158381  158384  150921  150502+
+         150504  150920  167873  167036  167871  167874
CHEXA      44532       4  154395  153996  153997  154394  164992  164990+
+         165194  165195  158385  157541  158383  158386  150922  150500+
+         150502  150921  167875  167033  167873  167876
CHEXA      44533       4  154396  153995  153996  154395  164788  164785+
+         164990  164992  158387  157538  158385  158388  150923  150497+
+         150500  150922  167877  167030  167875  167878
CHEXA      44534       4  154397  153994  153995  154396  164576  164573+
+         164785  164788  158389  157534  158387  158390  150924  150498+
+         150497  150923  167879  167026  167877  167880
CHEXA      44535       4  154398  153993  153994  154397  164358  164355+
+         164573  164576  158391  157560  158389  158392  150925  150514+
+         150498  150924  167881  167051  167879  167882
CHEXA      44536       4  154399  153992  153993  154398  164133  164130+
+         164355  164358  158393  157557  158391  158394  150926  150511+
+         150514  150925  167883  167049  167881  167884
CHEXA      44537       4  154400  153991  153992  154399  163901  163900+
+         164130  164133  158395  157553  158393  158396  150927  150512+
+         150511  150926  167885  167045  167883  167886
CHEXA      44538       4  154401  153990  153991  154400  163649  163648+
+         163900  163901  158397  157568  158395  158398  150928  150518+
+         150512  150927  167887  167059  167885  167888
CHEXA      44539       4  154402  153989  153990  154401  163321  163320+
+         163648  163649  158399  157573  158397  158400  150929  150517+
+         150518  150928  167889  167064  167887  167890
CHEXA      44540       4  153562  153561  153989  154402  162952  162951+
+         163320  163321  156836  157564  158399  158401  150158  150157+
+         150517  150929  166326  167056  167889  167891
CHEXA      44541       4  154403  153563  153562  154402  163322  162953+
+         162952  163321  158402  156838  158401  158403  150930  150159+
+         150158  150929  167892  166328  167891  167893
CHEXA      44542       4  154404  153564  153563  154403  163323  162954+
+         162953  163322  158404  156840  158402  158405  150931  150160+
+         150159  150930  167894  166330  167892  167895
CHEXA      44543       4  154405  153565  153564  154404  163324  162955+
+         162954  163323  158406  156842  158404  158407  150932  150161+
+         150160  150931  167896  166332  167894  167897
CHEXA      44544       4  154406  153566  153565  154405  163325  162956+
+         162955  163324  158408  156844  158406  158409  150933  150162+
+         150161  150932  167898  166334  167896  167899
CHEXA      44545       4  154407  153567  153566  154406  163326  162957+
+         162956  163325  158410  156846  158408  158411  150934  150163+
+         150162  150933  167900  166336  167898  167901
CHEXA      44546       4  154408  153568  153567  154407  163327  162958+
+         162957  163326  158412  156848  158410  158413  150935  150164+
+         150163  150934  167902  166338  167900  167903
CHEXA      44547       4  154409  153569  153568  154408  163328  162959+
+         162958  163327  158414  156850  158412  158415  150936  150165+
+         150164  150935  167904  166340  167902  167905
CHEXA      44548       4  154410  153570  153569  154409  163329  162960+
+         162959  163328  158416  156852  158414  158417  150937  150166+
+         150165  150936  167906  166342  167904  167907
CHEXA      44549       4  154411  153571  153570  154410  163330  162961+
+         162960  163329  158418  156854  158416  158419  150938  150167+
+         150166  150937  167908  166344  167906  167909
CHEXA      44550       4  154412  153572  153571  154411  163331  162962+
+         162961  163330  158420  156856  158418  158421  150939  150168+
+         150167  150938  167910  166346  167908  167911
CHEXA      44551       4  154413  153573  153572  154412  163332  162963+
+         162962  163331  158422  156858  158420  158423  150940  150169+
+         150168  150939  167912  166348  167910  167913
CHEXA      44552       4  154414  153574  153573  154413  163333  162964+
+         162963  163332  158424  156860  158422  158425  150941  150170+
+         150169  150940  167914  166350  167912  167915
CHEXA      44553       4  154415  153575  153574  154414  163334  162965+
+         162964  163333  158426  156862  158424  158427  150942  150171+
+         150170  150941  167916  166352  167914  167917
CHEXA      44554       4  154416  153576  153575  154415  163335  162966+
+         162965  163334  158428  156864  158426  158429  150943  150172+
+         150171  150942  167918  166354  167916  167919
CHEXA      44555       4  154039  153577  153576  154416  163336  162967+
+         162966  163335  157962  156866  158428  158430  150726  150173+
+         150172  150943  167452  166356  167918  167920
CHEXA      44556       4  154417  154038  154039  154416  163663  163664+
+         163336  163335  158431  157959  158430  158432  150944  150724+
+         150726  150943  167921  167450  167920  167922
CHEXA      44557       4  154418  154037  154038  154417  163915  163916+
+         163664  163663  158433  157956  158431  158434  150945  150722+
+         150724  150944  167923  167447  167921  167924
CHEXA      44558       4  154419  154036  154037  154418  164147  164148+
+         163916  163915  158435  157953  158433  158436  150946  150720+
+         150722  150945  167925  167444  167923  167926
CHEXA      44559       4  154420  154035  154036  154419  164372  164373+
+         164148  164147  158437  157950  158435  158438  150947  150718+
+         150720  150946  167927  167441  167925  167928
CHEXA      44560       4  154421  154034  154035  154420  164590  164591+
+         164373  164372  158439  157947  158437  158440  150948  150716+
+         150718  150947  167929  167438  167927  167930
CHEXA      44561       4  154422  154033  154034  154421  164802  164803+
+         164591  164590  158441  157944  158439  158442  150949  150714+
+         150716  150948  167931  167435  167929  167932
CHEXA      44562       4  154423  154032  154033  154422  165006  165007+
+         164803  164802  158443  157941  158441  158444  150950  150712+
+         150714  150949  167933  167432  167931  167934
CHEXA      44563       4  154424  154031  154032  154423  165209  165210+
+         165007  165006  158445  157938  158443  158446  150951  150710+
+         150712  150950  167935  167429  167933  167936
CHEXA      44564       4  154425  154030  154031  154424  165408  165409+
+         165210  165209  158447  157935  158445  158448  150952  150708+
+         150710  150951  167937  167426  167935  167938
CHEXA      44565       4  154426  154029  154030  154425  165601  165602+
+         165409  165408  158449  157932  158447  158450  150953  150706+
+         150708  150952  167939  167423  167937  167940
CHEXA      44566       4  154427  154028  154029  154426  165783  165784+
+         165602  165601  158451  157929  158449  158452  150954  150704+
+         150706  150953  167941  167420  167939  167942
CHEXA      44567       4  154428  154027  154028  154427  165804  165803+
+         165784  165783  158453  157926  158451  158454  150955  150702+
+         150704  150954  167943  167417  167941  167944
CHEXA      44568       4  154429  154026  154027  154428  165626  165625+
+         165803  165804  158455  157923  158453  158456  150956  150700+
+         150702  150955  167945  167414  167943  167946
CHEXA      44569       4  154430  154025  154026  154429  165438  165437+
+         165625  165626  158457  157920  158455  158458  150957  150698+
+         150700  150956  167947  167411  167945  167948
CHEXA      44570       4  154431  154024  154025  154430  165241  165240+
+         165437  165438  158459  157917  158457  158460  150958  150696+
+         150698  150957  167949  167408  167947  167950
CHEXA      44571       4  154432  154023  154024  154431  165038  165037+
+         165240  165241  158461  157914  158459  158462  150959  150694+
+         150696  150958  167951  167405  167949  167952
CHEXA      44572       4  154433  154022  154023  154432  164834  164833+
+         165037  165038  158463  157911  158461  158464  150960  150692+
+         150694  150959  167953  167402  167951  167954
CHEXA      44573       4  154434  154021  154022  154433  164622  164621+
+         164833  164834  158465  157908  158463  158466  150961  150690+
+         150692  150960  167955  167399  167953  167956
CHEXA      44574       4  154435  154020  154021  154434  164406  164405+
+         164621  164622  158467  157905  158465  158468  150962  150688+
+         150690  150961  167957  167396  167955  167958
CHEXA      44575       4  154436  154019  154020  154435  164182  164181+
+         164405  164406  158469  157902  158467  158470  150963  150686+
+         150688  150962  167959  167393  167957  167960
CHEXA      44576       4  154437  154018  154019  154436  163952  163951+
+         164181  164182  158471  157899  158469  158472  150964  150684+
+         150686  150963  167961  167390  167959  167962
CHEXA      44577       4  154438  154017  154018  154437  163706  163705+
+         163951  163952  158473  157896  158471  158474  150965  150682+
+         150684  150964  167963  167387  167961  167964
CHEXA      44578       4  154361  154016  154017  154438  163403  163402+
+         163705  163706  158316  157893  158473  158475  150888  150680+
+         150682  150965  167806  167384  167963  167965
CHEXA      44579       4  154362  154361  154438  154439  163404  163403+
+         163706  163707  158319  158475  158476  158477  150889  150888+
+         150965  150966  167809  167965  167966  167967
CHEXA      44580       4  154440  154363  154362  154439  163708  163405+
+         163404  163707  158478  158321  158477  158479  150967  150890+
+         150889  150966  167968  167811  167967  167969
CHEXA      44581       4  154441  154364  154363  154440  163709  163406+
+         163405  163708  158480  158323  158478  158481  150968  150891+
+         150890  150967  167970  167813  167968  167971
CHEXA      44582       4  154442  154365  154364  154441  163710  163407+
+         163406  163709  158482  158325  158480  158483  150969  150892+
+         150891  150968  167972  167815  167970  167973
CHEXA      44583       4  154443  154366  154365  154442  163711  163408+
+         163407  163710  158484  158327  158482  158485  150970  150893+
+         150892  150969  167974  167817  167972  167975
CHEXA      44584       4  154444  154367  154366  154443  163712  163409+
+         163408  163711  158486  158329  158484  158487  150971  150894+
+         150893  150970  167976  167819  167974  167977
CHEXA      44585       4  154445  154368  154367  154444  163713  163410+
+         163409  163712  158488  158331  158486  158489  150972  150895+
+         150894  150971  167978  167821  167976  167979
CHEXA      44586       4  154446  154369  154368  154445  163714  163411+
+         163410  163713  158490  158333  158488  158491  150973  150896+
+         150895  150972  167980  167823  167978  167981
CHEXA      44587       4  154447  154370  154369  154446  163715  163412+
+         163411  163714  158492  158335  158490  158493  150974  150897+
+         150896  150973  167982  167825  167980  167983
CHEXA      44588       4  154448  154371  154370  154447  163716  163413+
+         163412  163715  158494  158337  158492  158495  150975  150898+
+         150897  150974  167984  167827  167982  167985
CHEXA      44589       4  154449  154372  154371  154448  163717  163414+
+         163413  163716  158496  158339  158494  158497  150976  150899+
+         150898  150975  167986  167829  167984  167987
CHEXA      44590       4  154450  154373  154372  154449  163718  163415+
+         163414  163717  158498  158341  158496  158499  150977  150900+
+         150899  150976  167988  167831  167986  167989
CHEXA      44591       4  154451  154374  154373  154450  163719  163416+
+         163415  163718  158500  158343  158498  158501  150978  150901+
+         150900  150977  167990  167833  167988  167991
CHEXA      44592       4  154452  154375  154374  154451  163720  163417+
+         163416  163719  158502  158345  158500  158503  150979  150902+
+         150901  150978  167992  167835  167990  167993
CHEXA      44593       4  154377  154376  154375  154452  163420  163418+
+         163417  163720  158350  158347  158502  158504  150904  150903+
+         150902  150979  167840  167837  167992  167994
CHEXA      44594       4  154379  154378  154377  154452  163966  163722+
+         163420  163720  158354  158352  158504  158505  150906  150905+
+         150904  150979  167844  167842  167994  167995
CHEXA      44595       4  154453  154380  154379  154452  163967  164196+
+         163966  163720  158506  158356  158505  158507  150980  150907+
+         150906  150979  167996  167846  167995  167997
CHEXA      44596       4  154454  154381  154380  154453  164197  164420+
+         164196  163967  158508  158358  158506  158509  150981  150908+
+         150907  150980  167998  167848  167996  167999
CHEXA      44597       4  154455  154382  154381  154454  164421  164636+
+         164420  164197  158510  158360  158508  158511  150982  150909+
+         150908  150981  168000  167850  167998  168001
CHEXA      44598       4  154456  154383  154382  154455  164637  164848+
+         164636  164421  158512  158362  158510  158513  150983  150910+
+         150909  150982  168002  167852  168000  168003
CHEXA      44599       4  154457  154384  154383  154456  164849  165052+
+         164848  164637  158514  158364  158512  158515  150984  150911+
+         150910  150983  168004  167854  168002  168005
CHEXA      44600       4  154458  154385  154384  154457  165053  165255+
+         165052  164849  158516  158366  158514  158517  150985  150912+
+         150911  150984  168006  167856  168004  168007
CHEXA      44601       4  154459  154386  154385  154458  165256  165452+
+         165255  165053  158518  158368  158516  158519  150986  150913+
+         150912  150985  168008  167858  168006  168009
CHEXA      44602       4  154460  154387  154386  154459  165453  165640+
+         165452  165256  158520  158370  158518  158521  150987  150914+
+         150913  150986  168010  167860  168008  168011
CHEXA      44603       4  154461  154388  154387  154460  165641  165818+
+         165640  165453  158522  158372  158520  158523  150988  150915+
+         150914  150987  168012  167862  168010  168013
CHEXA      44604       4  154462  154389  154388  154461  165819  165926+
+         165818  165641  158524  158374  158522  158525  150989  150916+
+         150915  150988  168014  167864  168012  168015
CHEXA      44605       4  154463  154390  154389  154462  165919  165918+
+         165926  165819  158526  158376  158524  158527  150990  150917+
+         150916  150989  168016  167866  168014  168017
CHEXA      44606       4  154464  154391  154390  154463  165770  165769+
+         165918  165919  158528  158378  158526  158529  150991  150918+
+         150917  150990  168018  167868  168016  168019
CHEXA      44607       4  154465  154392  154391  154464  165588  165587+
+         165769  165770  158530  158380  158528  158531  150992  150919+
+         150918  150991  168020  167870  168018  168021
CHEXA      44608       4  154466  154393  154392  154465  165395  165394+
+         165587  165588  158532  158382  158530  158533  150993  150920+
+         150919  150992  168022  167872  168020  168023
CHEXA      44609       4  154467  154394  154393  154466  165196  165195+
+         165394  165395  158534  158384  158532  158535  150994  150921+
+         150920  150993  168024  167874  168022  168025
CHEXA      44610       4  154468  154395  154394  154467  164993  164992+
+         165195  165196  158536  158386  158534  158537  150995  150922+
+         150921  150994  168026  167876  168024  168027
CHEXA      44611       4  154469  154396  154395  154468  164789  164788+
+         164992  164993  158538  158388  158536  158539  150996  150923+
+         150922  150995  168028  167878  168026  168029
CHEXA      44612       4  154470  154397  154396  154469  164577  164576+
+         164788  164789  158540  158390  158538  158541  150997  150924+
+         150923  150996  168030  167880  168028  168031
CHEXA      44613       4  154471  154398  154397  154470  164359  164358+
+         164576  164577  158542  158392  158540  158543  150998  150925+
+         150924  150997  168032  167882  168030  168033
CHEXA      44614       4  154472  154399  154398  154471  164134  164133+
+         164358  164359  158544  158394  158542  158545  150999  150926+
+         150925  150998  168034  167884  168032  168035
CHEXA      44615       4  154473  154400  154399  154472  163902  163901+
+         164133  164134  158546  158396  158544  158547  151000  150927+
+         150926  150999  168036  167886  168034  168037
CHEXA      44616       4  154474  154401  154400  154473  163650  163649+
+         163901  163902  158548  158398  158546  158549  151001  150928+
+         150927  151000  168038  167888  168036  168039
CHEXA      44617       4  154403  154402  154401  154474  163322  163321+
+         163649  163650  158403  158400  158548  158550  150930  150929+
+         150928  151001  167893  167890  168038  168040
CHEXA      44618       4  154475  154404  154403  154474  163651  163323+
+         163322  163650  158551  158405  158550  158552  151002  150931+
+         150930  151001  168041  167895  168040  168042
CHEXA      44619       4  154476  154405  154404  154475  163652  163324+
+         163323  163651  158553  158407  158551  158554  151003  150932+
+         150931  151002  168043  167897  168041  168044
CHEXA      44620       4  154477  154406  154405  154476  163653  163325+
+         163324  163652  158555  158409  158553  158556  151004  150933+
+         150932  151003  168045  167899  168043  168046
CHEXA      44621       4  154478  154407  154406  154477  163654  163326+
+         163325  163653  158557  158411  158555  158558  151005  150934+
+         150933  151004  168047  167901  168045  168048
CHEXA      44622       4  154479  154408  154407  154478  163655  163327+
+         163326  163654  158559  158413  158557  158560  151006  150935+
+         150934  151005  168049  167903  168047  168050
CHEXA      44623       4  154480  154409  154408  154479  163656  163328+
+         163327  163655  158561  158415  158559  158562  151007  150936+
+         150935  151006  168051  167905  168049  168052
CHEXA      44624       4  154481  154410  154409  154480  163657  163329+
+         163328  163656  158563  158417  158561  158564  151008  150937+
+         150936  151007  168053  167907  168051  168054
CHEXA      44625       4  154482  154411  154410  154481  163658  163330+
+         163329  163657  158565  158419  158563  158566  151009  150938+
+         150937  151008  168055  167909  168053  168056
CHEXA      44626       4  154483  154412  154411  154482  163659  163331+
+         163330  163658  158567  158421  158565  158568  151010  150939+
+         150938  151009  168057  167911  168055  168058
CHEXA      44627       4  154484  154413  154412  154483  163660  163332+
+         163331  163659  158569  158423  158567  158570  151011  150940+
+         150939  151010  168059  167913  168057  168060
CHEXA      44628       4  154485  154414  154413  154484  163661  163333+
+         163332  163660  158571  158425  158569  158572  151012  150941+
+         150940  151011  168061  167915  168059  168062
CHEXA      44629       4  154486  154415  154414  154485  163662  163334+
+         163333  163661  158573  158427  158571  158574  151013  150942+
+         150941  151012  168063  167917  168061  168064
CHEXA      44630       4  154417  154416  154415  154486  163663  163335+
+         163334  163662  158432  158429  158573  158575  150944  150943+
+         150942  151013  167922  167919  168063  168065
CHEXA      44631       4  154487  154418  154417  154486  163914  163915+
+         163663  163662  158576  158434  158575  158577  151014  150945+
+         150944  151013  168066  167924  168065  168067
CHEXA      44632       4  154488  154419  154418  154487  164146  164147+
+         163915  163914  158578  158436  158576  158579  151015  150946+
+         150945  151014  168068  167926  168066  168069
CHEXA      44633       4  154489  154420  154419  154488  164371  164372+
+         164147  164146  158580  158438  158578  158581  151016  150947+
+         150946  151015  168070  167928  168068  168071
CHEXA      44634       4  154490  154421  154420  154489  164589  164590+
+         164372  164371  158582  158440  158580  158583  151017  150948+
+         150947  151016  168072  167930  168070  168073
CHEXA      44635       4  154491  154422  154421  154490  164801  164802+
+         164590  164589  158584  158442  158582  158585  151018  150949+
+         150948  151017  168074  167932  168072  168075
CHEXA      44636       4  154492  154423  154422  154491  165005  165006+
+         164802  164801  158586  158444  158584  158587  151019  150950+
+         150949  151018  168076  167934  168074  168077
CHEXA      44637       4  154493  154424  154423  154492  165208  165209+
+         165006  165005  158588  158446  158586  158589  151020  150951+
+         150950  151019  168078  167936  168076  168079
CHEXA      44638       4  154494  154425  154424  154493  165407  165408+
+         165209  165208  158590  158448  158588  158591  151021  150952+
+         150951  151020  168080  167938  168078  168081
CHEXA      44639       4  154495  154426  154425  154494  165600  165601+
+         165408  165407  158592  158450  158590  158593  151022  150953+
+         150952  151021  168082  167940  168080  168083
CHEXA      44640       4  154496  154427  154426  154495  165782  165783+
+         165601  165600  158594  158452  158592  158595  151023  150954+
+         150953  151022  168084  167942  168082  168085
CHEXA      44641       4  154497  154428  154427  154496  165805  165804+
+         165783  165782  158596  158454  158594  158597  151024  150955+
+         150954  151023  168086  167944  168084  168087
CHEXA      44642       4  154498  154429  154428  154497  165627  165626+
+         165804  165805  158598  158456  158596  158599  151025  150956+
+         150955  151024  168088  167946  168086  168089
CHEXA      44643       4  154499  154430  154429  154498  165439  165438+
+         165626  165627  158600  158458  158598  158601  151026  150957+
+         150956  151025  168090  167948  168088  168091
CHEXA      44644       4  154500  154431  154430  154499  165242  165241+
+         165438  165439  158602  158460  158600  158603  151027  150958+
+         150957  151026  168092  167950  168090  168093
CHEXA      44645       4  154501  154432  154431  154500  165039  165038+
+         165241  165242  158604  158462  158602  158605  151028  150959+
+         150958  151027  168094  167952  168092  168095
CHEXA      44646       4  154502  154433  154432  154501  164835  164834+
+         165038  165039  158606  158464  158604  158607  151029  150960+
+         150959  151028  168096  167954  168094  168097
CHEXA      44647       4  154503  154434  154433  154502  164623  164622+
+         164834  164835  158608  158466  158606  158609  151030  150961+
+         150960  151029  168098  167956  168096  168099
CHEXA      44648       4  154504  154435  154434  154503  164407  164406+
+         164622  164623  158610  158468  158608  158611  151031  150962+
+         150961  151030  168100  167958  168098  168101
CHEXA      44649       4  154505  154436  154435  154504  164183  164182+
+         164406  164407  158612  158470  158610  158613  151032  150963+
+         150962  151031  168102  167960  168100  168103
CHEXA      44650       4  154506  154437  154436  154505  163953  163952+
+         164182  164183  158614  158472  158612  158615  151033  150964+
+         150963  151032  168104  167962  168102  168105
CHEXA      44651       4  154439  154438  154437  154506  163707  163706+
+         163952  163953  158476  158474  158614  158616  150966  150965+
+         150964  151033  167966  167964  168104  168106
CHEXA      44652       4  154440  154439  154506  154507  163708  163707+
+         163953  163954  158479  158616  158617  158618  150967  150966+
+         151033  151034  167969  168106  168107  168108
CHEXA      44653       4  154508  154441  154440  154507  163955  163709+
+         163708  163954  158619  158481  158618  158620  151035  150968+
+         150967  151034  168109  167971  168108  168110
CHEXA      44654       4  154509  154442  154441  154508  163956  163710+
+         163709  163955  158621  158483  158619  158622  151036  150969+
+         150968  151035  168111  167973  168109  168112
CHEXA      44655       4  154510  154443  154442  154509  163957  163711+
+         163710  163956  158623  158485  158621  158624  151037  150970+
+         150969  151036  168113  167975  168111  168114
CHEXA      44656       4  154511  154444  154443  154510  163958  163712+
+         163711  163957  158625  158487  158623  158626  151038  150971+
+         150970  151037  168115  167977  168113  168116
CHEXA      44657       4  154512  154445  154444  154511  163959  163713+
+         163712  163958  158627  158489  158625  158628  151039  150972+
+         150971  151038  168117  167979  168115  168118
CHEXA      44658       4  154513  154446  154445  154512  163960  163714+
+         163713  163959  158629  158491  158627  158630  151040  150973+
+         150972  151039  168119  167981  168117  168120
CHEXA      44659       4  154514  154447  154446  154513  163961  163715+
+         163714  163960  158631  158493  158629  158632  151041  150974+
+         150973  151040  168121  167983  168119  168122
CHEXA      44660       4  154515  154448  154447  154514  163962  163716+
+         163715  163961  158633  158495  158631  158634  151042  150975+
+         150974  151041  168123  167985  168121  168124
CHEXA      44661       4  154516  154449  154448  154515  163963  163717+
+         163716  163962  158635  158497  158633  158636  151043  150976+
+         150975  151042  168125  167987  168123  168126
CHEXA      44662       4  154517  154450  154449  154516  163964  163718+
+         163717  163963  158637  158499  158635  158638  151044  150977+
+         150976  151043  168127  167989  168125  168128
CHEXA      44663       4  154518  154451  154450  154517  163965  163719+
+         163718  163964  158639  158501  158637  158640  151045  150978+
+         150977  151044  168129  167991  168127  168130
CHEXA      44664       4  154453  154452  154451  154518  163967  163720+
+         163719  163965  158507  158503  158639  158641  150980  150979+
+         150978  151045  167997  167993  168129  168131
CHEXA      44665       4  154519  154454  154453  154518  164195  164197+
+         163967  163965  158642  158509  158641  158643  151046  150981+
+         150980  151045  168132  167999  168131  168133
CHEXA      44666       4  154520  154455  154454  154519  164419  164421+
+         164197  164195  158644  158511  158642  158645  151047  150982+
+         150981  151046  168134  168001  168132  168135
CHEXA      44667       4  154521  154456  154455  154520  164635  164637+
+         164421  164419  158646  158513  158644  158647  151048  150983+
+         150982  151047  168136  168003  168134  168137
CHEXA      44668       4  154522  154457  154456  154521  164847  164849+
+         164637  164635  158648  158515  158646  158649  151049  150984+
+         150983  151048  168138  168005  168136  168139
CHEXA      44669       4  154523  154458  154457  154522  165051  165053+
+         164849  164847  158650  158517  158648  158651  151050  150985+
+         150984  151049  168140  168007  168138  168141
CHEXA      44670       4  154524  154459  154458  154523  165254  165256+
+         165053  165051  158652  158519  158650  158653  151051  150986+
+         150985  151050  168142  168009  168140  168143
CHEXA      44671       4  154525  154460  154459  154524  165451  165453+
+         165256  165254  158654  158521  158652  158655  151052  150987+
+         150986  151051  168144  168011  168142  168145
CHEXA      44672       4  154526  154461  154460  154525  165639  165641+
+         165453  165451  158656  158523  158654  158657  151053  150988+
+         150987  151052  168146  168013  168144  168147
CHEXA      44673       4  154527  154462  154461  154526  165817  165819+
+         165641  165639  158658  158525  158656  158659  151054  150989+
+         150988  151053  168148  168015  168146  168149
CHEXA      44674       4  154528  154463  154462  154527  165920  165919+
+         165819  165817  158660  158527  158658  158661  151055  150990+
+         150989  151054  168150  168017  168148  168151
CHEXA      44675       4  154529  154464  154463  154528  165771  165770+
+         165919  165920  158662  158529  158660  158663  151056  150991+
+         150990  151055  168152  168019  168150  168153
CHEXA      44676       4  154530  154465  154464  154529  165589  165588+
+         165770  165771  158664  158531  158662  158665  151057  150992+
+         150991  151056  168154  168021  168152  168155
CHEXA      44677       4  154531  154466  154465  154530  165396  165395+
+         165588  165589  158666  158533  158664  158667  151058  150993+
+         150992  151057  168156  168023  168154  168157
CHEXA      44678       4  154532  154467  154466  154531  165197  165196+
+         165395  165396  158668  158535  158666  158669  151059  150994+
+         150993  151058  168158  168025  168156  168159
CHEXA      44679       4  154533  154468  154467  154532  164994  164993+
+         165196  165197  158670  158537  158668  158671  151060  150995+
+         150994  151059  168160  168027  168158  168161
CHEXA      44680       4  154534  154469  154468  154533  164790  164789+
+         164993  164994  158672  158539  158670  158673  151061  150996+
+         150995  151060  168162  168029  168160  168163
CHEXA      44681       4  154535  154470  154469  154534  164578  164577+
+         164789  164790  158674  158541  158672  158675  151062  150997+
+         150996  151061  168164  168031  168162  168165
CHEXA      44682       4  154536  154471  154470  154535  164360  164359+
+         164577  164578  158676  158543  158674  158677  151063  150998+
+         150997  151062  168166  168033  168164  168167
CHEXA      44683       4  154537  154472  154471  154536  164135  164134+
+         164359  164360  158678  158545  158676  158679  151064  150999+
+         150998  151063  168168  168035  168166  168169
CHEXA      44684       4  154538  154473  154472  154537  163903  163902+
+         164134  164135  158680  158547  158678  158681  151065  151000+
+         150999  151064  168170  168037  168168  168171
CHEXA      44685       4  154475  154474  154473  154538  163651  163650+
+         163902  163903  158552  158549  158680  158682  151002  151001+
+         151000  151065  168042  168039  168170  168172
CHEXA      44686       4  154539  154476  154475  154538  163904  163652+
+         163651  163903  158683  158554  158682  158684  151066  151003+
+         151002  151065  168173  168044  168172  168174
CHEXA      44687       4  154540  154477  154476  154539  163905  163653+
+         163652  163904  158685  158556  158683  158686  151067  151004+
+         151003  151066  168175  168046  168173  168176
CHEXA      44688       4  154541  154478  154477  154540  163906  163654+
+         163653  163905  158687  158558  158685  158688  151068  151005+
+         151004  151067  168177  168048  168175  168178
CHEXA      44689       4  154542  154479  154478  154541  163907  163655+
+         163654  163906  158689  158560  158687  158690  151069  151006+
+         151005  151068  168179  168050  168177  168180
CHEXA      44690       4  154543  154480  154479  154542  163908  163656+
+         163655  163907  158691  158562  158689  158692  151070  151007+
+         151006  151069  168181  168052  168179  168182
CHEXA      44691       4  154544  154481  154480  154543  163909  163657+
+         163656  163908  158693  158564  158691  158694  151071  151008+
+         151007  151070  168183  168054  168181  168184
CHEXA      44692       4  154545  154482  154481  154544  163910  163658+
+         163657  163909  158695  158566  158693  158696  151072  151009+
+         151008  151071  168185  168056  168183  168186
CHEXA      44693       4  154546  154483  154482  154545  163911  163659+
+         163658  163910  158697  158568  158695  158698  151073  151010+
+         151009  151072  168187  168058  168185  168188
CHEXA      44694       4  154547  154484  154483  154546  163912  163660+
+         163659  163911  158699  158570  158697  158700  151074  151011+
+         151010  151073  168189  168060  168187  168190
CHEXA      44695       4  154548  154485  154484  154547  163913  163661+
+         163660  163912  158701  158572  158699  158702  151075  151012+
+         151011  151074  168191  168062  168189  168192
CHEXA      44696       4  154487  154486  154485  154548  163914  163662+
+         163661  163913  158577  158574  158701  158703  151014  151013+
+         151012  151075  168067  168064  168191  168193
CHEXA      44697       4  154549  154488  154487  154548  164145  164146+
+         163914  163913  158704  158579  158703  158705  151076  151015+
+         151014  151075  168194  168069  168193  168195
CHEXA      44698       4  154550  154489  154488  154549  164370  164371+
+         164146  164145  158706  158581  158704  158707  151077  151016+
+         151015  151076  168196  168071  168194  168197
CHEXA      44699       4  154551  154490  154489  154550  164588  164589+
+         164371  164370  158708  158583  158706  158709  151078  151017+
+         151016  151077  168198  168073  168196  168199
CHEXA      44700       4  154552  154491  154490  154551  164800  164801+
+         164589  164588  158710  158585  158708  158711  151079  151018+
+         151017  151078  168200  168075  168198  168201
CHEXA      44701       4  154553  154492  154491  154552  165004  165005+
+         164801  164800  158712  158587  158710  158713  151080  151019+
+         151018  151079  168202  168077  168200  168203
CHEXA      44702       4  154554  154493  154492  154553  165207  165208+
+         165005  165004  158714  158589  158712  158715  151081  151020+
+         151019  151080  168204  168079  168202  168205
CHEXA      44703       4  154555  154494  154493  154554  165406  165407+
+         165208  165207  158716  158591  158714  158717  151082  151021+
+         151020  151081  168206  168081  168204  168207
CHEXA      44704       4  154556  154495  154494  154555  165599  165600+
+         165407  165406  158718  158593  158716  158719  151083  151022+
+         151021  151082  168208  168083  168206  168209
CHEXA      44705       4  154557  154496  154495  154556  165781  165782+
+         165600  165599  158720  158595  158718  158721  151084  151023+
+         151022  151083  168210  168085  168208  168211
CHEXA      44706       4  154558  154497  154496  154557  165806  165805+
+         165782  165781  158722  158597  158720  158723  151085  151024+
+         151023  151084  168212  168087  168210  168213
CHEXA      44707       4  154559  154498  154497  154558  165628  165627+
+         165805  165806  158724  158599  158722  158725  151086  151025+
+         151024  151085  168214  168089  168212  168215
CHEXA      44708       4  154560  154499  154498  154559  165440  165439+
+         165627  165628  158726  158601  158724  158727  151087  151026+
+         151025  151086  168216  168091  168214  168217
CHEXA      44709       4  154561  154500  154499  154560  165243  165242+
+         165439  165440  158728  158603  158726  158729  151088  151027+
+         151026  151087  168218  168093  168216  168219
CHEXA      44710       4  154562  154501  154500  154561  165040  165039+
+         165242  165243  158730  158605  158728  158731  151089  151028+
+         151027  151088  168220  168095  168218  168221
CHEXA      44711       4  154563  154502  154501  154562  164836  164835+
+         165039  165040  158732  158607  158730  158733  151090  151029+
+         151028  151089  168222  168097  168220  168223
CHEXA      44712       4  154564  154503  154502  154563  164624  164623+
+         164835  164836  158734  158609  158732  158735  151091  151030+
+         151029  151090  168224  168099  168222  168225
CHEXA      44713       4  154565  154504  154503  154564  164408  164407+
+         164623  164624  158736  158611  158734  158737  151092  151031+
+         151030  151091  168226  168101  168224  168227
CHEXA      44714       4  154566  154505  154504  154565  164184  164183+
+         164407  164408  158738  158613  158736  158739  151093  151032+
+         151031  151092  168228  168103  168226  168229
CHEXA      44715       4  154507  154506  154505  154566  163954  163953+
+         164183  164184  158617  158615  158738  158740  151034  151033+
+         151032  151093  168107  168105  168228  168230
CHEXA      44716       4  154508  154507  154566  154567  163955  163954+
+         164184  164185  158620  158740  158741  158742  151035  151034+
+         151093  151094  168110  168230  168231  168232
CHEXA      44717       4  154568  154509  154508  154567  164186  163956+
+         163955  164185  158743  158622  158742  158744  151095  151036+
+         151035  151094  168233  168112  168232  168234
CHEXA      44718       4  154569  154510  154509  154568  164187  163957+
+         163956  164186  158745  158624  158743  158746  151096  151037+
+         151036  151095  168235  168114  168233  168236
CHEXA      44719       4  154570  154511  154510  154569  164188  163958+
+         163957  164187  158747  158626  158745  158748  151097  151038+
+         151037  151096  168237  168116  168235  168238
CHEXA      44720       4  154571  154512  154511  154570  164189  163959+
+         163958  164188  158749  158628  158747  158750  151098  151039+
+         151038  151097  168239  168118  168237  168240
CHEXA      44721       4  154572  154513  154512  154571  164190  163960+
+         163959  164189  158751  158630  158749  158752  151099  151040+
+         151039  151098  168241  168120  168239  168242
CHEXA      44722       4  154573  154514  154513  154572  164191  163961+
+         163960  164190  158753  158632  158751  158754  151100  151041+
+         151040  151099  168243  168122  168241  168244
CHEXA      44723       4  154574  154515  154514  154573  164192  163962+
+         163961  164191  158755  158634  158753  158756  151101  151042+
+         151041  151100  168245  168124  168243  168246
CHEXA      44724       4  154575  154516  154515  154574  164193  163963+
+         163962  164192  158757  158636  158755  158758  151102  151043+
+         151042  151101  168247  168126  168245  168248
CHEXA      44725       4  154576  154517  154516  154575  164194  163964+
+         163963  164193  158759  158638  158757  158760  151103  151044+
+         151043  151102  168249  168128  168247  168250
CHEXA      44726       4  154519  154518  154517  154576  164195  163965+
+         163964  164194  158643  158640  158759  158761  151046  151045+
+         151044  151103  168133  168130  168249  168251
CHEXA      44727       4  154577  154520  154519  154576  164418  164419+
+         164195  164194  158762  158645  158761  158763  151104  151047+
+         151046  151103  168252  168135  168251  168253
CHEXA      44728       4  154578  154521  154520  154577  164634  164635+
+         164419  164418  158764  158647  158762  158765  151105  151048+
+         151047  151104  168254  168137  168252  168255
CHEXA      44729       4  154579  154522  154521  154578  164846  164847+
+         164635  164634  158766  158649  158764  158767  151106  151049+
+         151048  151105  168256  168139  168254  168257
CHEXA      44730       4  154580  154523  154522  154579  165050  165051+
+         164847  164846  158768  158651  158766  158769  151107  151050+
+         151049  151106  168258  168141  168256  168259
CHEXA      44731       4  154581  154524  154523  154580  165253  165254+
+         165051  165050  158770  158653  158768  158771  151108  151051+
+         151050  151107  168260  168143  168258  168261
CHEXA      44732       4  154582  154525  154524  154581  165450  165451+
+         165254  165253  158772  158655  158770  158773  151109  151052+
+         151051  151108  168262  168145  168260  168263
CHEXA      44733       4  154583  154526  154525  154582  165638  165639+
+         165451  165450  158774  158657  158772  158775  151110  151053+
+         151052  151109  168264  168147  168262  168265
CHEXA      44734       4  154584  154527  154526  154583  165816  165817+
+         165639  165638  158776  158659  158774  158777  151111  151054+
+         151053  151110  168266  168149  168264  168267
CHEXA      44735       4  154585  154528  154527  154584  165921  165920+
+         165817  165816  158778  158661  158776  158779  151112  151055+
+         151054  151111  168268  168151  168266  168269
CHEXA      44736       4  154586  154529  154528  154585  165772  165771+
+         165920  165921  158780  158663  158778  158781  151113  151056+
+         151055  151112  168270  168153  168268  168271
CHEXA      44737       4  154587  154530  154529  154586  165590  165589+
+         165771  165772  158782  158665  158780  158783  151114  151057+
+         151056  151113  168272  168155  168270  168273
CHEXA      44738       4  154588  154531  154530  154587  165397  165396+
+         165589  165590  158784  158667  158782  158785  151115  151058+
+         151057  151114  168274  168157  168272  168275
CHEXA      44739       4  154589  154532  154531  154588  165198  165197+
+         165396  165397  158786  158669  158784  158787  151116  151059+
+         151058  151115  168276  168159  168274  168277
CHEXA      44740       4  154590  154533  154532  154589  164995  164994+
+         165197  165198  158788  158671  158786  158789  151117  151060+
+         151059  151116  168278  168161  168276  168279
CHEXA      44741       4  154591  154534  154533  154590  164791  164790+
+         164994  164995  158790  158673  158788  158791  151118  151061+
+         151060  151117  168280  168163  168278  168281
CHEXA      44742       4  154592  154535  154534  154591  164579  164578+
+         164790  164791  158792  158675  158790  158793  151119  151062+
+         151061  151118  168282  168165  168280  168283
CHEXA      44743       4  154593  154536  154535  154592  164361  164360+
+         164578  164579  158794  158677  158792  158795  151120  151063+
+         151062  151119  168284  168167  168282  168285
CHEXA      44744       4  154594  154537  154536  154593  164136  164135+
+         164360  164361  158796  158679  158794  158797  151121  151064+
+         151063  151120  168286  168169  168284  168287
CHEXA      44745       4  154539  154538  154537  154594  163904  163903+
+         164135  164136  158684  158681  158796  158798  151066  151065+
+         151064  151121  168174  168171  168286  168288
CHEXA      44746       4  154595  154540  154539  154594  164137  163905+
+         163904  164136  158799  158686  158798  158800  151122  151067+
+         151066  151121  168289  168176  168288  168290
CHEXA      44747       4  154596  154541  154540  154595  164138  163906+
+         163905  164137  158801  158688  158799  158802  151123  151068+
+         151067  151122  168291  168178  168289  168292
CHEXA      44748       4  154597  154542  154541  154596  164139  163907+
+         163906  164138  158803  158690  158801  158804  151124  151069+
+         151068  151123  168293  168180  168291  168294
CHEXA      44749       4  154598  154543  154542  154597  164140  163908+
+         163907  164139  158805  158692  158803  158806  151125  151070+
+         151069  151124  168295  168182  168293  168296
CHEXA      44750       4  154599  154544  154543  154598  164141  163909+
+         163908  164140  158807  158694  158805  158808  151126  151071+
+         151070  151125  168297  168184  168295  168298
CHEXA      44751       4  154600  154545  154544  154599  164142  163910+
+         163909  164141  158809  158696  158807  158810  151127  151072+
+         151071  151126  168299  168186  168297  168300
CHEXA      44752       4  154601  154546  154545  154600  164143  163911+
+         163910  164142  158811  158698  158809  158812  151128  151073+
+         151072  151127  168301  168188  168299  168302
CHEXA      44753       4  154602  154547  154546  154601  164144  163912+
+         163911  164143  158813  158700  158811  158814  151129  151074+
+         151073  151128  168303  168190  168301  168304
CHEXA      44754       4  154549  154548  154547  154602  164145  163913+
+         163912  164144  158705  158702  158813  158815  151076  151075+
+         151074  151129  168195  168192  168303  168305
CHEXA      44755       4  154603  154550  154549  154602  164369  164370+
+         164145  164144  158816  158707  158815  158817  151130  151077+
+         151076  151129  168306  168197  168305  168307
CHEXA      44756       4  154604  154551  154550  154603  164587  164588+
+         164370  164369  158818  158709  158816  158819  151131  151078+
+         151077  151130  168308  168199  168306  168309
CHEXA      44757       4  154605  154552  154551  154604  164799  164800+
+         164588  164587  158820  158711  158818  158821  151132  151079+
+         151078  151131  168310  168201  168308  168311
CHEXA      44758       4  154606  154553  154552  154605  165003  165004+
+         164800  164799  158822  158713  158820  158823  151133  151080+
+         151079  151132  168312  168203  168310  168313
CHEXA      44759       4  154607  154554  154553  154606  165206  165207+
+         165004  165003  158824  158715  158822  158825  151134  151081+
+         151080  151133  168314  168205  168312  168315
CHEXA      44760       4  154608  154555  154554  154607  165405  165406+
+         165207  165206  158826  158717  158824  158827  151135  151082+
+         151081  151134  168316  168207  168314  168317
CHEXA      44761       4  154609  154556  154555  154608  165598  165599+
+         165406  165405  158828  158719  158826  158829  151136  151083+
+         151082  151135  168318  168209  168316  168319
CHEXA      44762       4  154610  154557  154556  154609  165780  165781+
+         165599  165598  158830  158721  158828  158831  151137  151084+
+         151083  151136  168320  168211  168318  168321
CHEXA      44763       4  154611  154558  154557  154610  165807  165806+
+         165781  165780  158832  158723  158830  158833  151138  151085+
+         151084  151137  168322  168213  168320  168323
CHEXA      44764       4  154612  154559  154558  154611  165629  165628+
+         165806  165807  158834  158725  158832  158835  151139  151086+
+         151085  151138  168324  168215  168322  168325
CHEXA      44765       4  154613  154560  154559  154612  165441  165440+
+         165628  165629  158836  158727  158834  158837  151140  151087+
+         151086  151139  168326  168217  168324  168327
CHEXA      44766       4  154614  154561  154560  154613  165244  165243+
+         165440  165441  158838  158729  158836  158839  151141  151088+
+         151087  151140  168328  168219  168326  168329
CHEXA      44767       4  154615  154562  154561  154614  165041  165040+
+         165243  165244  158840  158731  158838  158841  151142  151089+
+         151088  151141  168330  168221  168328  168331
CHEXA      44768       4  154616  154563  154562  154615  164837  164836+
+         165040  165041  158842  158733  158840  158843  151143  151090+
+         151089  151142  168332  168223  168330  168333
CHEXA      44769       4  154617  154564  154563  154616  164625  164624+
+         164836  164837  158844  158735  158842  158845  151144  151091+
+         151090  151143  168334  168225  168332  168335
CHEXA      44770       4  154618  154565  154564  154617  164409  164408+
+         164624  164625  158846  158737  158844  158847  151145  151092+
+         151091  151144  168336  168227  168334  168337
CHEXA      44771       4  154567  154566  154565  154618  164185  164184+
+         164408  164409  158741  158739  158846  158848  151094  151093+
+         151092  151145  168231  168229  168336  168338
CHEXA      44772       4  154568  154567  154618  154619  164186  164185+
+         164409  164410  158744  158848  158849  158850  151095  151094+
+         151145  151146  168234  168338  168339  168340
CHEXA      44773       4  154620  154569  154568  154619  164411  164187+
+         164186  164410  158851  158746  158850  158852  151147  151096+
+         151095  151146  168341  168236  168340  168342
CHEXA      44774       4  154621  154570  154569  154620  164412  164188+
+         164187  164411  158853  158748  158851  158854  151148  151097+
+         151096  151147  168343  168238  168341  168344
CHEXA      44775       4  154622  154571  154570  154621  164413  164189+
+         164188  164412  158855  158750  158853  158856  151149  151098+
+         151097  151148  168345  168240  168343  168346
CHEXA      44776       4  154623  154572  154571  154622  164414  164190+
+         164189  164413  158857  158752  158855  158858  151150  151099+
+         151098  151149  168347  168242  168345  168348
CHEXA      44777       4  154624  154573  154572  154623  164415  164191+
+         164190  164414  158859  158754  158857  158860  151151  151100+
+         151099  151150  168349  168244  168347  168350
CHEXA      44778       4  154625  154574  154573  154624  164416  164192+
+         164191  164415  158861  158756  158859  158862  151152  151101+
+         151100  151151  168351  168246  168349  168352
CHEXA      44779       4  154626  154575  154574  154625  164417  164193+
+         164192  164416  158863  158758  158861  158864  151153  151102+
+         151101  151152  168353  168248  168351  168354
CHEXA      44780       4  154577  154576  154575  154626  164418  164194+
+         164193  164417  158763  158760  158863  158865  151104  151103+
+         151102  151153  168253  168250  168353  168355
CHEXA      44781       4  154627  154578  154577  154626  164633  164634+
+         164418  164417  158866  158765  158865  158867  151154  151105+
+         151104  151153  168356  168255  168355  168357
CHEXA      44782       4  154628  154579  154578  154627  164845  164846+
+         164634  164633  158868  158767  158866  158869  151155  151106+
+         151105  151154  168358  168257  168356  168359
CHEXA      44783       4  154629  154580  154579  154628  165049  165050+
+         164846  164845  158870  158769  158868  158871  151156  151107+
+         151106  151155  168360  168259  168358  168361
CHEXA      44784       4  154630  154581  154580  154629  165252  165253+
+         165050  165049  158872  158771  158870  158873  151157  151108+
+         151107  151156  168362  168261  168360  168363
CHEXA      44785       4  154631  154582  154581  154630  165449  165450+
+         165253  165252  158874  158773  158872  158875  151158  151109+
+         151108  151157  168364  168263  168362  168365
CHEXA      44786       4  154632  154583  154582  154631  165637  165638+
+         165450  165449  158876  158775  158874  158877  151159  151110+
+         151109  151158  168366  168265  168364  168367
CHEXA      44787       4  154633  154584  154583  154632  165815  165816+
+         165638  165637  158878  158777  158876  158879  151160  151111+
+         151110  151159  168368  168267  168366  168369
CHEXA      44788       4  154634  154585  154584  154633  165922  165921+
+         165816  165815  158880  158779  158878  158881  151161  151112+
+         151111  151160  168370  168269  168368  168371
CHEXA      44789       4  154635  154586  154585  154634  165773  165772+
+         165921  165922  158882  158781  158880  158883  151162  151113+
+         151112  151161  168372  168271  168370  168373
CHEXA      44790       4  154636  154587  154586  154635  165591  165590+
+         165772  165773  158884  158783  158882  158885  151163  151114+
+         151113  151162  168374  168273  168372  168375
CHEXA      44791       4  154637  154588  154587  154636  165398  165397+
+         165590  165591  158886  158785  158884  158887  151164  151115+
+         151114  151163  168376  168275  168374  168377
CHEXA      44792       4  154638  154589  154588  154637  165199  165198+
+         165397  165398  158888  158787  158886  158889  151165  151116+
+         151115  151164  168378  168277  168376  168379
CHEXA      44793       4  154639  154590  154589  154638  164996  164995+
+         165198  165199  158890  158789  158888  158891  151166  151117+
+         151116  151165  168380  168279  168378  168381
CHEXA      44794       4  154640  154591  154590  154639  164792  164791+
+         164995  164996  158892  158791  158890  158893  151167  151118+
+         151117  151166  168382  168281  168380  168383
CHEXA      44795       4  154641  154592  154591  154640  164580  164579+
+         164791  164792  158894  158793  158892  158895  151168  151119+
+         151118  151167  168384  168283  168382  168385
CHEXA      44796       4  154642  154593  154592  154641  164362  164361+
+         164579  164580  158896  158795  158894  158897  151169  151120+
+         151119  151168  168386  168285  168384  168387
CHEXA      44797       4  154595  154594  154593  154642  164137  164136+
+         164361  164362  158800  158797  158896  158898  151122  151121+
+         151120  151169  168290  168287  168386  168388
CHEXA      44798       4  154643  154596  154595  154642  164363  164138+
+         164137  164362  158899  158802  158898  158900  151170  151123+
+         151122  151169  168389  168292  168388  168390
CHEXA      44799       4  154644  154597  154596  154643  164364  164139+
+         164138  164363  158901  158804  158899  158902  151171  151124+
+         151123  151170  168391  168294  168389  168392
CHEXA      44800       4  154645  154598  154597  154644  164365  164140+
+         164139  164364  158903  158806  158901  158904  151172  151125+
+         151124  151171  168393  168296  168391  168394
CHEXA      44801       4  154646  154599  154598  154645  164366  164141+
+         164140  164365  158905  158808  158903  158906  151173  151126+
+         151125  151172  168395  168298  168393  168396
CHEXA      44802       4  154647  154600  154599  154646  164367  164142+
+         164141  164366  158907  158810  158905  158908  151174  151127+
+         151126  151173  168397  168300  168395  168398
CHEXA      44803       4  154648  154601  154600  154647  164368  164143+
+         164142  164367  158909  158812  158907  158910  151175  151128+
+         151127  151174  168399  168302  168397  168400
CHEXA      44804       4  154603  154602  154601  154648  164369  164144+
+         164143  164368  158817  158814  158909  158911  151130  151129+
+         151128  151175  168307  168304  168399  168401
CHEXA      44805       4  154649  154604  154603  154648  164586  164587+
+         164369  164368  158912  158819  158911  158913  151176  151131+
+         151130  151175  168402  168309  168401  168403
CHEXA      44806       4  154650  154605  154604  154649  164798  164799+
+         164587  164586  158914  158821  158912  158915  151177  151132+
+         151131  151176  168404  168311  168402  168405
CHEXA      44807       4  154651  154606  154605  154650  165002  165003+
+         164799  164798  158916  158823  158914  158917  151178  151133+
+         151132  151177  168406  168313  168404  168407
CHEXA      44808       4  154652  154607  154606  154651  165205  165206+
+         165003  165002  158918  158825  158916  158919  151179  151134+
+         151133  151178  168408  168315  168406  168409
CHEXA      44809       4  154653  154608  154607  154652  165404  165405+
+         165206  165205  158920  158827  158918  158921  151180  151135+
+         151134  151179  168410  168317  168408  168411
CHEXA      44810       4  154654  154609  154608  154653  165597  165598+
+         165405  165404  158922  158829  158920  158923  151181  151136+
+         151135  151180  168412  168319  168410  168413
CHEXA      44811       4  154655  154610  154609  154654  165779  165780+
+         165598  165597  158924  158831  158922  158925  151182  151137+
+         151136  151181  168414  168321  168412  168415
CHEXA      44812       4  154656  154611  154610  154655  165808  165807+
+         165780  165779  158926  158833  158924  158927  151183  151138+
+         151137  151182  168416  168323  168414  168417
CHEXA      44813       4  154657  154612  154611  154656  165630  165629+
+         165807  165808  158928  158835  158926  158929  151184  151139+
+         151138  151183  168418  168325  168416  168419
CHEXA      44814       4  154658  154613  154612  154657  165442  165441+
+         165629  165630  158930  158837  158928  158931  151185  151140+
+         151139  151184  168420  168327  168418  168421
CHEXA      44815       4  154659  154614  154613  154658  165245  165244+
+         165441  165442  158932  158839  158930  158933  151186  151141+
+         151140  151185  168422  168329  168420  168423
CHEXA      44816       4  154660  154615  154614  154659  165042  165041+
+         165244  165245  158934  158841  158932  158935  151187  151142+
+         151141  151186  168424  168331  168422  168425
CHEXA      44817       4  154661  154616  154615  154660  164838  164837+
+         165041  165042  158936  158843  158934  158937  151188  151143+
+         151142  151187  168426  168333  168424  168427
CHEXA      44818       4  154662  154617  154616  154661  164626  164625+
+         164837  164838  158938  158845  158936  158939  151189  151144+
+         151143  151188  168428  168335  168426  168429
CHEXA      44819       4  154619  154618  154617  154662  164410  164409+
+         164625  164626  158849  158847  158938  158940  151146  151145+
+         151144  151189  168339  168337  168428  168430
CHEXA      44820       4  154620  154619  154662  154663  164411  164410+
+         164626  164627  158852  158940  158941  158942  151147  151146+
+         151189  151190  168342  168430  168431  168432
CHEXA      44821       4  154664  154621  154620  154663  164628  164412+
+         164411  164627  158943  158854  158942  158944  151191  151148+
+         151147  151190  168433  168344  168432  168434
CHEXA      44822       4  154665  154622  154621  154664  164629  164413+
+         164412  164628  158945  158856  158943  158946  151192  151149+
+         151148  151191  168435  168346  168433  168436
CHEXA      44823       4  154666  154623  154622  154665  164630  164414+
+         164413  164629  158947  158858  158945  158948  151193  151150+
+         151149  151192  168437  168348  168435  168438
CHEXA      44824       4  154667  154624  154623  154666  164631  164415+
+         164414  164630  158949  158860  158947  158950  151194  151151+
+         151150  151193  168439  168350  168437  168440
CHEXA      44825       4  154668  154625  154624  154667  164632  164416+
+         164415  164631  158951  158862  158949  158952  151195  151152+
+         151151  151194  168441  168352  168439  168442
CHEXA      44826       4  154627  154626  154625  154668  164633  164417+
+         164416  164632  158867  158864  158951  158953  151154  151153+
+         151152  151195  168357  168354  168441  168443
CHEXA      44827       4  154669  154628  154627  154668  164844  164845+
+         164633  164632  158954  158869  158953  158955  151196  151155+
+         151154  151195  168444  168359  168443  168445
CHEXA      44828       4  154670  154629  154628  154669  165048  165049+
+         164845  164844  158956  158871  158954  158957  151197  151156+
+         151155  151196  168446  168361  168444  168447
CHEXA      44829       4  154671  154630  154629  154670  165251  165252+
+         165049  165048  158958  158873  158956  158959  151198  151157+
+         151156  151197  168448  168363  168446  168449
CHEXA      44830       4  154672  154631  154630  154671  165448  165449+
+         165252  165251  158960  158875  158958  158961  151199  151158+
+         151157  151198  168450  168365  168448  168451
CHEXA      44831       4  154673  154632  154631  154672  165636  165637+
+         165449  165448  158962  158877  158960  158963  151200  151159+
+         151158  151199  168452  168367  168450  168453
CHEXA      44832       4  154674  154633  154632  154673  165814  165815+
+         165637  165636  158964  158879  158962  158965  151201  151160+
+         151159  151200  168454  168369  168452  168455
CHEXA      44833       4  154675  154634  154633  154674  165923  165922+
+         165815  165814  158966  158881  158964  158967  151202  151161+
+         151160  151201  168456  168371  168454  168457
CHEXA      44834       4  154676  154635  154634  154675  165774  165773+
+         165922  165923  158968  158883  158966  158969  151203  151162+
+         151161  151202  168458  168373  168456  168459
CHEXA      44835       4  154677  154636  154635  154676  165592  165591+
+         165773  165774  158970  158885  158968  158971  151204  151163+
+         151162  151203  168460  168375  168458  168461
CHEXA      44836       4  154678  154637  154636  154677  165399  165398+
+         165591  165592  158972  158887  158970  158973  151205  151164+
+         151163  151204  168462  168377  168460  168463
CHEXA      44837       4  154679  154638  154637  154678  165200  165199+
+         165398  165399  158974  158889  158972  158975  151206  151165+
+         151164  151205  168464  168379  168462  168465
CHEXA      44838       4  154680  154639  154638  154679  164997  164996+
+         165199  165200  158976  158891  158974  158977  151207  151166+
+         151165  151206  168466  168381  168464  168467
CHEXA      44839       4  154681  154640  154639  154680  164793  164792+
+         164996  164997  158978  158893  158976  158979  151208  151167+
+         151166  151207  168468  168383  168466  168469
CHEXA      44840       4  154682  154641  154640  154681  164581  164580+
+         164792  164793  158980  158895  158978  158981  151209  151168+
+         151167  151208  168470  168385  168468  168471
CHEXA      44841       4  154643  154642  154641  154682  164363  164362+
+         164580  164581  158900  158897  158980  158982  151170  151169+
+         151168  151209  168390  168387  168470  168472
CHEXA      44842       4  154683  154644  154643  154682  164582  164364+
+         164363  164581  158983  158902  158982  158984  151210  151171+
+         151170  151209  168473  168392  168472  168474
CHEXA      44843       4  154684  154645  154644  154683  164583  164365+
+         164364  164582  158985  158904  158983  158986  151211  151172+
+         151171  151210  168475  168394  168473  168476
CHEXA      44844       4  154685  154646  154645  154684  164584  164366+
+         164365  164583  158987  158906  158985  158988  151212  151173+
+         151172  151211  168477  168396  168475  168478
CHEXA      44845       4  154686  154647  154646  154685  164585  164367+
+         164366  164584  158989  158908  158987  158990  151213  151174+
+         151173  151212  168479  168398  168477  168480
CHEXA      44846       4  154649  154648  154647  154686  164586  164368+
+         164367  164585  158913  158910  158989  158991  151176  151175+
+         151174  151213  168403  168400  168479  168481
CHEXA      44847       4  154687  154650  154649  154686  164797  164798+
+         164586  164585  158992  158915  158991  158993  151214  151177+
+         151176  151213  168482  168405  168481  168483
CHEXA      44848       4  154688  154651  154650  154687  165001  165002+
+         164798  164797  158994  158917  158992  158995  151215  151178+
+         151177  151214  168484  168407  168482  168485
CHEXA      44849       4  154689  154652  154651  154688  165204  165205+
+         165002  165001  158996  158919  158994  158997  151216  151179+
+         151178  151215  168486  168409  168484  168487
CHEXA      44850       4  154690  154653  154652  154689  165403  165404+
+         165205  165204  158998  158921  158996  158999  151217  151180+
+         151179  151216  168488  168411  168486  168489
CHEXA      44851       4  154691  154654  154653  154690  165596  165597+
+         165404  165403  159000  158923  158998  159001  151218  151181+
+         151180  151217  168490  168413  168488  168491
CHEXA      44852       4  154692  154655  154654  154691  165778  165779+
+         165597  165596  159002  158925  159000  159003  151219  151182+
+         151181  151218  168492  168415  168490  168493
CHEXA      44853       4  154693  154656  154655  154692  165809  165808+
+         165779  165778  159004  158927  159002  159005  151220  151183+
+         151182  151219  168494  168417  168492  168495
CHEXA      44854       4  154694  154657  154656  154693  165631  165630+
+         165808  165809  159006  158929  159004  159007  151221  151184+
+         151183  151220  168496  168419  168494  168497
CHEXA      44855       4  154695  154658  154657  154694  165443  165442+
+         165630  165631  159008  158931  159006  159009  151222  151185+
+         151184  151221  168498  168421  168496  168499
CHEXA      44856       4  154696  154659  154658  154695  165246  165245+
+         165442  165443  159010  158933  159008  159011  151223  151186+
+         151185  151222  168500  168423  168498  168501
CHEXA      44857       4  154697  154660  154659  154696  165043  165042+
+         165245  165246  159012  158935  159010  159013  151224  151187+
+         151186  151223  168502  168425  168500  168503
CHEXA      44858       4  154698  154661  154660  154697  164839  164838+
+         165042  165043  159014  158937  159012  159015  151225  151188+
+         151187  151224  168504  168427  168502  168505
CHEXA      44859       4  154663  154662  154661  154698  164627  164626+
+         164838  164839  158941  158939  159014  159016  151190  151189+
+         151188  151225  168431  168429  168504  168506
CHEXA      44860       4  154664  154663  154698  154699  164628  164627+
+         164839  164840  158944  159016  159017  159018  151191  151190+
+         151225  151226  168434  168506  168507  168508
CHEXA      44861       4  154700  154665  154664  154699  164841  164629+
+         164628  164840  159019  158946  159018  159020  151227  151192+
+         151191  151226  168509  168436  168508  168510
CHEXA      44862       4  154701  154666  154665  154700  164842  164630+
+         164629  164841  159021  158948  159019  159022  151228  151193+
+         151192  151227  168511  168438  168509  168512
CHEXA      44863       4  154702  154667  154666  154701  164843  164631+
+         164630  164842  159023  158950  159021  159024  151229  151194+
+         151193  151228  168513  168440  168511  168514
CHEXA      44864       4  154669  154668  154667  154702  164844  164632+
+         164631  164843  158955  158952  159023  159025  151196  151195+
+         151194  151229  168445  168442  168513  168515
CHEXA      44865       4  154703  154670  154669  154702  165047  165048+
+         164844  164843  159026  158957  159025  159027  151230  151197+
+         151196  151229  168516  168447  168515  168517
CHEXA      44866       4  154704  154671  154670  154703  165250  165251+
+         165048  165047  159028  158959  159026  159029  151231  151198+
+         151197  151230  168518  168449  168516  168519
CHEXA      44867       4  154705  154672  154671  154704  165447  165448+
+         165251  165250  159030  158961  159028  159031  151232  151199+
+         151198  151231  168520  168451  168518  168521
CHEXA      44868       4  154706  154673  154672  154705  165635  165636+
+         165448  165447  159032  158963  159030  159033  151233  151200+
+         151199  151232  168522  168453  168520  168523
CHEXA      44869       4  154707  154674  154673  154706  165813  165814+
+         165636  165635  159034  158965  159032  159035  151234  151201+
+         151200  151233  168524  168455  168522  168525
CHEXA      44870       4  154708  154675  154674  154707  165924  165923+
+         165814  165813  159036  158967  159034  159037  151235  151202+
+         151201  151234  168526  168457  168524  168527
CHEXA      44871       4  154709  154676  154675  154708  165775  165774+
+         165923  165924  159038  158969  159036  159039  151236  151203+
+         151202  151235  168528  168459  168526  168529
CHEXA      44872       4  154710  154677  154676  154709  165593  165592+
+         165774  165775  159040  158971  159038  159041  151237  151204+
+         151203  151236  168530  168461  168528  168531
CHEXA      44873       4  154711  154678  154677  154710  165400  165399+
+         165592  165593  159042  158973  159040  159043  151238  151205+
+         151204  151237  168532  168463  168530  168533
CHEXA      44874       4  154712  154679  154678  154711  165201  165200+
+         165399  165400  159044  158975  159042  159045  151239  151206+
+         151205  151238  168534  168465  168532  168535
CHEXA      44875       4  154713  154680  154679  154712  164998  164997+
+         165200  165201  159046  158977  159044  159047  151240  151207+
+         151206  151239  168536  168467  168534  168537
CHEXA      44876       4  154714  154681  154680  154713  164794  164793+
+         164997  164998  159048  158979  159046  159049  151241  151208+
+         151207  151240  168538  168469  168536  168539
CHEXA      44877       4  154683  154682  154681  154714  164582  164581+
+         164793  164794  158984  158981  159048  159050  151210  151209+
+         151208  151241  168474  168471  168538  168540
CHEXA      44878       4  154715  154684  154683  154714  164795  164583+
+         164582  164794  159051  158986  159050  159052  151242  151211+
+         151210  151241  168541  168476  168540  168542
CHEXA      44879       4  154716  154685  154684  154715  164796  164584+
+         164583  164795  159053  158988  159051  159054  151243  151212+
+         151211  151242  168543  168478  168541  168544
CHEXA      44880       4  154687  154686  154685  154716  164797  164585+
+         164584  164796  158993  158990  159053  159055  151214  151213+
+         151212  151243  168483  168480  168543  168545
CHEXA      44881       4  154717  154688  154687  154716  165000  165001+
+         164797  164796  159056  158995  159055  159057  151244  151215+
+         151214  151243  168546  168485  168545  168547
CHEXA      44882       4  154718  154689  154688  154717  165203  165204+
+         165001  165000  159058  158997  159056  159059  151245  151216+
+         151215  151244  168548  168487  168546  168549
CHEXA      44883       4  154719  154690  154689  154718  165402  165403+
+         165204  165203  159060  158999  159058  159061  151246  151217+
+         151216  151245  168550  168489  168548  168551
CHEXA      44884       4  154720  154691  154690  154719  165595  165596+
+         165403  165402  159062  159001  159060  159063  151247  151218+
+         151217  151246  168552  168491  168550  168553
CHEXA      44885       4  154721  154692  154691  154720  165777  165778+
+         165596  165595  159064  159003  159062  159065  151248  151219+
+         151218  151247  168554  168493  168552  168555
CHEXA      44886       4  154722  154693  154692  154721  165810  165809+
+         165778  165777  159066  159005  159064  159067  151249  151220+
+         151219  151248  168556  168495  168554  168557
CHEXA      44887       4  154723  154694  154693  154722  165632  165631+
+         165809  165810  159068  159007  159066  159069  151250  151221+
+         151220  151249  168558  168497  168556  168559
CHEXA      44888       4  154724  154695  154694  154723  165444  165443+
+         165631  165632  159070  159009  159068  159071  151251  151222+
+         151221  151250  168560  168499  168558  168561
CHEXA      44889       4  154725  154696  154695  154724  165247  165246+
+         165443  165444  159072  159011  159070  159073  151252  151223+
+         151222  151251  168562  168501  168560  168563
CHEXA      44890       4  154726  154697  154696  154725  165044  165043+
+         165246  165247  159074  159013  159072  159075  151253  151224+
+         151223  151252  168564  168503  168562  168565
CHEXA      44891       4  154699  154698  154697  154726  164840  164839+
+         165043  165044  159017  159015  159074  159076  151226  151225+
+         151224  151253  168507  168505  168564  168566
CHEXA      44892       4  154700  154699  154726  154727  164841  164840+
+         165044  165045  159020  159076  159077  159078  151227  151226+
+         151253  151254  168510  168566  168567  168568
CHEXA      44893       4  154728  154701  154700  154727  165046  164842+
+         164841  165045  159079  159022  159078  159080  151255  151228+
+         151227  151254  168569  168512  168568  168570
CHEXA      44894       4  154703  154702  154701  154728  165047  164843+
+         164842  165046  159027  159024  159079  159081  151230  151229+
+         151228  151255  168517  168514  168569  168571
CHEXA      44895       4  154729  154704  154703  154728  165249  165250+
+         165047  165046  159082  159029  159081  159083  151256  151231+
+         151230  151255  168572  168519  168571  168573
CHEXA      44896       4  154730  154705  154704  154729  165446  165447+
+         165250  165249  159084  159031  159082  159085  151257  151232+
+         151231  151256  168574  168521  168572  168575
CHEXA      44897       4  154731  154706  154705  154730  165634  165635+
+         165447  165446  159086  159033  159084  159087  151258  151233+
+         151232  151257  168576  168523  168574  168577
CHEXA      44898       4  154732  154707  154706  154731  165812  165813+
+         165635  165634  159088  159035  159086  159089  151259  151234+
+         151233  151258  168578  168525  168576  168579
CHEXA      44899       4  154733  154708  154707  154732  165925  165924+
+         165813  165812  159090  159037  159088  159091  151260  151235+
+         151234  151259  168580  168527  168578  168581
CHEXA      44900       4  154734  154709  154708  154733  165776  165775+
+         165924  165925  159092  159039  159090  159093  151261  151236+
+         151235  151260  168582  168529  168580  168583
CHEXA      44901       4  154735  154710  154709  154734  165594  165593+
+         165775  165776  159094  159041  159092  159095  151262  151237+
+         151236  151261  168584  168531  168582  168585
CHEXA      44902       4  154736  154711  154710  154735  165401  165400+
+         165593  165594  159096  159043  159094  159097  151263  151238+
+         151237  151262  168586  168533  168584  168587
CHEXA      44903       4  154737  154712  154711  154736  165202  165201+
+         165400  165401  159098  159045  159096  159099  151264  151239+
+         151238  151263  168588  168535  168586  168589
CHEXA      44904       4  154738  154713  154712  154737  164999  164998+
+         165201  165202  159100  159047  159098  159101  151265  151240+
+         151239  151264  168590  168537  168588  168591
CHEXA      44905       4  154715  154714  154713  154738  164795  164794+
+         164998  164999  159052  159049  159100  159102  151242  151241+
+         151240  151265  168542  168539  168590  168592
CHEXA      44906       4  154717  154716  154715  154738  165000  164796+
+         164795  164999  159057  159054  159102  159103  151244  151243+
+         151242  151265  168547  168544  168592  168593
CHEXA      44907       4  154737  154718  154717  154738  165202  165203+
+         165000  164999  159104  159059  159103  159101  151264  151245+
+         151244  151265  168594  168549  168593  168591
CHEXA      44908       4  154736  154719  154718  154737  165401  165402+
+         165203  165202  159105  159061  159104  159099  151263  151246+
+         151245  151264  168595  168551  168594  168589
CHEXA      44909       4  154735  154720  154719  154736  165594  165595+
+         165402  165401  159106  159063  159105  159097  151262  151247+
+         151246  151263  168596  168553  168595  168587
CHEXA      44910       4  154734  154721  154720  154735  165776  165777+
+         165595  165594  159107  159065  159106  159095  151261  151248+
+         151247  151262  168597  168555  168596  168585
CHEXA      44911       4  154739  154722  154721  154734  165811  165810+
+         165777  165776  159108  159067  159107  159109  151266  151249+
+         151248  151261  168598  168557  168597  168599
CHEXA      44912       4  154740  154723  154722  154739  165633  165632+
+         165810  165811  159110  159069  159108  159111  151267  151250+
+         151249  151266  168600  168559  168598  168601
CHEXA      44913       4  154741  154724  154723  154740  165445  165444+
+         165632  165633  159112  159071  159110  159113  151268  151251+
+         151250  151267  168602  168561  168600  168603
CHEXA      44914       4  154742  154725  154724  154741  165248  165247+
+         165444  165445  159114  159073  159112  159115  151269  151252+
+         151251  151268  168604  168563  168602  168605
CHEXA      44915       4  154727  154726  154725  154742  165045  165044+
+         165247  165248  159077  159075  159114  159116  151254  151253+
+         151252  151269  168567  168565  168604  168606
CHEXA      44916       4  154729  154728  154727  154742  165249  165046+
+         165045  165248  159083  159080  159116  159117  151256  151255+
+         151254  151269  168573  168570  168606  168607
CHEXA      44917       4  154730  154729  154742  154741  165446  165249+
+         165248  165445  159085  159117  159115  159118  151257  151256+
+         151269  151268  168575  168607  168605  168608
CHEXA      44918       4  154731  154730  154741  154740  165634  165446+
+         165445  165633  159087  159118  159113  159119  151258  151257+
+         151268  151267  168577  168608  168603  168609
CHEXA      44919       4  154739  154734  154733  154732  165811  165776+
+         165925  165812  159109  159093  159091  159120  151266  151261+
+         151260  151259  168599  168583  168581  168610
CHEXA      44920       4  154731  154740  154739  154732  165634  165633+
+         165811  165812  159119  159111  159120  159089  151258  151267+
+         151266  151259  168609  168601  168610  168579
CHEXA      44921       4  154743  153443  153442  153855  163352  163189+
+         163355  163354  159121  156600  157245  159122  151270  150039+
+         150038  150361  168611  166089  166736  168612
CHEXA      44922       4  153593  153592  154743  153855  162983  162982+
+         163352  163354  156898  159123  159122  157246  150189  150188+
+         151270  150361  166388  168613  168612  166735
CHEXA      44923       4  154745  153590  153424  153423  163350  162980+
+         163349  163173  159124  157717  156568  159125  151271  150186+
+         150020  150019  168614  167207  166058  168615
CHEXA      44924       4  154745  154744  153591  153590  163350  163351+
+         162981  162980  159127  159126  156894  159124  151271  151272+
+         150187  150186  168616  168617  166384  168614
CHEXA      44925       4  153422  154744  154745  153423  163172  163351+
+         163350  163173  159128  159127  159125  156565  150017  151272+
+         151271  150019  168618  168616  168615  166055
CHEXA      44926       4  154746  154744  153422  153421  163353  163351+
+         163172  163171  159129  159128  156563  159130  151273  151272+
+         150017  150018  168619  168618  166053  168620
CHEXA      44927       4  153591  154744  154746  153592  162981  163351+
+         163353  162982  159126  159129  159131  156896  150187  151272+
+         151273  150188  168617  168619  168621  166386
CHEXA      44928       4  153823  153822  154747  154748  165583  165766+
+         165584  165391  159134  159133  159132  159135  151274  151275+
+         151276  151277  168622  168623  168624  168625
CHEXA      44929       4  154749  153824  153823  154748  165192  165390+
+         165583  165391  159137  159136  159135  159138  151278  151279+
+         151274  151277  168626  168627  168625  168628
CHEXA      44930       4  154750  153825  153824  154749  164989  165191+
+         165390  165192  159140  159139  159137  159141  151280  151281+
+         151279  151278  168629  168630  168626  168631
CHEXA      44931       4  154751  153826  153825  154750  164783  164988+
+         165191  164989  159143  159142  159140  159144  151282  151283+
+         151281  151280  168632  168633  168629  168634
CHEXA      44932       4  154752  153827  153826  154751  164571  164782+
+         164988  164783  159146  159145  159143  159147  151284  151285+
+         151283  151282  168635  168636  168632  168637
CHEXA      44933       4  154753  153828  153827  154752  164353  164570+
+         164782  164571  159149  159148  159146  159150  151286  151287+
+         151285  151284  168638  168639  168635  168640
CHEXA      44934       4  154754  153829  153828  154753  164128  164352+
+         164570  164353  159152  159151  159149  159153  151288  151289+
+         151287  151286  168641  168642  168638  168643
CHEXA      44935       4  154755  153830  153829  154754  163896  164127+
+         164352  164128  159155  159154  159152  159156  151290  151291+
+         151289  151288  168644  168645  168641  168646
CHEXA      44936       4  154756  153831  153830  154755  163644  163895+
+         164127  163896  159158  159157  159155  159159  151292  151293+
+         151291  151290  168647  168648  168644  168649
CHEXA      44937       4  154757  153832  153831  154756  163311  163643+
+         163895  163644  159161  159160  159158  159162  151294  151295+
+         151293  151292  168650  168651  168647  168652
CHEXA      44938       4  153551  153550  153832  154757  162942  163309+
+         163643  163311  156813  159163  159161  159164  150147  150146+
+         151295  151294  166302  168653  168650  168654
CHEXA      44939       4  154758  153552  153551  154757  163312  162943+
+         162942  163311  159165  156816  159164  159166  151296  150148+
+         150147  151294  168655  166306  168654  168656
CHEXA      44940       4  154759  153553  153552  154758  163313  162944+
+         162943  163312  159167  156818  159165  159168  151297  150149+
+         150148  151296  168657  166308  168655  168658
CHEXA      44941       4  154760  153554  153553  154759  163314  162945+
+         162944  163313  159169  156820  159167  159170  151298  150150+
+         150149  151297  168659  166310  168657  168660
CHEXA      44942       4  154761  153555  153554  154760  163316  162946+
+         162945  163314  159171  156822  159169  159172  151299  150151+
+         150150  151298  168661  166312  168659  168662
CHEXA      44943       4  153854  153556  153555  154761  163647  163315+
+         162946  163316  157569  156825  159171  159173  150509  150152+
+         150151  151299  167058  166315  168661  168663
CHEXA      44944       4  154762  153853  153854  154761  163646  163898+
+         163647  163316  159174  157555  159173  159175  151300  150510+
+         150509  151299  168664  167043  168663  168665
CHEXA      44945       4  154763  153852  153853  154762  163899  164131+
+         163898  163646  159176  157559  159174  159177  151301  150513+
+         150510  151300  168666  167047  168664  168667
CHEXA      44946       4  154764  153851  153852  154763  164132  164356+
+         164131  163899  159178  157561  159176  159179  151302  150495+
+         150513  151301  168668  167050  168666  168669
CHEXA      44947       4  154765  153850  153851  154764  164357  164574+
+         164356  164132  159180  157536  159178  159181  151303  150496+
+         150495  151302  168670  167024  168668  168671
CHEXA      44948       4  154766  153849  153850  154765  164575  164786+
+         164574  164357  159182  157540  159180  159183  151304  150499+
+         150496  151303  168672  167028  168670  168673
CHEXA      44949       4  154767  153848  153849  154766  164787  164991+
+         164786  164575  159184  157543  159182  159185  151305  150501+
+         150499  151304  168674  167031  168672  168675
CHEXA      44950       4  154750  153847  153848  154767  164989  165193+
+         164991  164787  159186  157546  159184  159187  151280  150503+
+         150501  151305  168676  167034  168674  168677
CHEXA      44951       4  154749  153846  153847  154750  165192  165392+
+         165193  164989  159188  157549  159186  159141  151278  150505+
+         150503  151280  168678  167037  168676  168631
CHEXA      44952       4  154748  153845  153846  154749  165391  165585+
+         165392  165192  159189  157552  159188  159138  151277  150507+
+         150505  151278  168679  167040  168678  168628
CHEXA      44953       4  154747  153844  153845  154748  165584  165767+
+         165585  165391  159190  157577  159189  159132  151276  150520+
+         150507  151277  168680  167065  168679  168624
CHEXA      44954       4  154758  154757  154756  154768  163312  163311+
+         163644  163645  159166  159162  159191  159192  151296  151294+
+         151292  151306  168656  168652  168681  168682
CHEXA      44955       4  154762  154761  154760  154759  163646  163316+
+         163314  163313  159175  159172  159170  159193  151300  151299+
+         151298  151297  168665  168662  168660  168683
CHEXA      44956       4  154758  154768  154762  154759  163312  163645+
+         163646  163313  159192  159194  159193  159168  151296  151306+
+         151300  151297  168682  168684  168683  168658
CHEXA      44957       4  154771  154751  154750  154767  164784  164783+
+         164989  164787  159195  159144  159187  159196  151307  151282+
+         151280  151305  168685  168634  168677  168686
CHEXA      44958       4  154771  154770  154752  154751  164784  164572+
+         164571  164783  159198  159197  159147  159195  151307  151308+
+         151284  151282  168687  168688  168637  168685
CHEXA      44959       4  154766  154770  154771  154767  164575  164572+
+         164784  164787  159199  159198  159196  159185  151304  151308+
+         151307  151305  168689  168687  168686  168675
CHEXA      44960       4  154770  154766  154765  154769  164572  164575+
+         164357  164354  159199  159183  159200  159201  151308  151304+
+         151303  151309  168689  168673  168690  168691
CHEXA      44961       4  154753  154752  154770  154769  164353  164571+
+         164572  164354  159150  159197  159201  159202  151286  151284+
+         151308  151309  168640  168688  168691  168692
CHEXA      44962       4  154769  154772  154754  154753  164354  164129+
+         164128  164353  159204  159203  159153  159202  151309  151310+
+         151288  151286  168693  168694  168643  168692
CHEXA      44963       4  154772  154773  154755  154754  164129  163897+
+         163896  164128  159206  159205  159156  159203  151310  151311+
+         151290  151288  168695  168696  168646  168694
CHEXA      44964       4  154773  154768  154756  154755  163897  163645+
+         163644  163896  159207  159191  159159  159205  151311  151306+
+         151292  151290  168697  168681  168649  168696
CHEXA      44965       4  154763  154762  154768  154773  163899  163646+
+         163645  163897  159177  159194  159207  159208  151301  151300+
+         151306  151311  168667  168684  168697  168698
CHEXA      44966       4  154764  154763  154773  154772  164132  163899+
+         163897  164129  159179  159208  159206  159209  151302  151301+
+         151311  151310  168669  168698  168695  168699
CHEXA      44967       4  154765  154764  154772  154769  164357  164132+
+         164129  164354  159181  159209  159204  159200  151303  151302+
+         151310  151309  168671  168699  168693  168690
CHEXA      44968       4  153836  153837  154774  154778  164199  164423+
+         164424  164200  157601  159211  159210  159212  150536  150534+
+         151312  151313  167089  168700  168701  168702
CHEXA      44969       4  153835  153836  154778  154777  163969  164199+
+         164200  163970  157604  159212  159213  159214  150538  150536+
+         151313  151314  167092  168702  168703  168704
CHEXA      44970       4  153834  153835  154777  154776  163723  163969+
+         163970  163724  157607  159214  159215  159216  150540  150538+
+         151314  151315  167095  168704  168705  168706
CHEXA      44971       4  153658  153657  153833  154779  163047  163046+
+         163421  163422  157030  157612  159217  159218  150254  150253+
+         150542  151316  166520  167101  168707  168708
CHEXA      44972       4  154775  153659  153658  154779  163423  163048+
+         163047  163422  159219  157032  159218  159220  151317  150255+
+         150254  151316  168709  166522  168708  168710
CHEXA      44973       4  154778  154774  153815  153814  164200  164424+
+         164428  164204  159210  159222  159221  159223  151313  151312+
+         151318  151319  168701  168711  168712  168713
CHEXA      44974       4  154777  154778  153814  153813  163970  164200+
+         164204  163974  159213  159223  159224  159225  151314  151313+
+         151319  151320  168703  168713  168714  168715
CHEXA      44975       4  154776  154777  153813  153812  163724  163970+
+         163974  163727  159215  159225  159226  159227  151315  151314+
+         151320  151321  168705  168715  168716  168717
CHEXA      44976       4  153660  153659  154775  154780  163049  163048+
+         163423  163424  157034  159219  159228  159229  150256  150255+
+         151317  151322  166524  168709  168718  168719
CHEXA      44977       4  153811  153661  153660  154780  163426  163050+
+         163049  163424  159230  157036  159229  159231  151323  150257+
+         150256  151322  168720  166526  168719  168721
CHEXA      44978       4  154774  154781  153816  153815  164424  164640+
+         164644  164428  159234  159233  159232  159222  151312  151324+
+         151325  151318  168722  168723  168724  168711
CHEXA      44979       4  154781  154782  153817  153816  164640  164852+
+         164856  164644  159237  159236  159235  159233  151324  151326+
+         151327  151325  168725  168726  168727  168723
CHEXA      44980       4  154782  154783  153818  153817  164852  165056+
+         165060  164856  159240  159239  159238  159236  151326  151328+
+         151329  151327  168728  168729  168730  168726
CHEXA      44981       4  154783  154784  153819  153818  165056  165259+
+         165263  165060  159243  159242  159241  159239  151328  151330+
+         151331  151329  168731  168732  168733  168729
CHEXA      44982       4  154784  154785  153820  153819  165259  165456+
+         165460  165263  159246  159245  159244  159242  151330  151332+
+         151333  151331  168734  168735  168736  168732
CHEXA      44983       4  154785  154786  153821  153820  165456  165644+
+         165648  165460  159249  159248  159247  159245  151332  151334+
+         151335  151333  168737  168738  168739  168735
CHEXA      44984       4  154786  154747  153822  153821  165644  165584+
+         165766  165648  159251  159133  159250  159248  151334  151276+
+         151275  151335  168740  168623  168741  168738
CHEXA      44985       4  153843  153844  154747  154786  165643  165767+
+         165584  165644  157580  159190  159251  159252  150522  150520+
+         151276  151334  167068  168680  168740  168742
CHEXA      44986       4  153842  153843  154786  154785  165455  165643+
+         165644  165456  157583  159252  159249  159253  150524  150522+
+         151334  151332  167071  168742  168737  168743
CHEXA      44987       4  153841  153842  154785  154784  165258  165455+
+         165456  165259  157586  159253  159246  159254  150526  150524+
+         151332  151330  167074  168743  168734  168744
CHEXA      44988       4  153840  153841  154784  154783  165055  165258+
+         165259  165056  157589  159254  159243  159255  150528  150526+
+         151330  151328  167077  168744  168731  168745
CHEXA      44989       4  153839  153840  154783  154782  164851  165055+
+         165056  164852  157592  159255  159240  159256  150530  150528+
+         151328  151326  167080  168745  168728  168746
CHEXA      44990       4  153838  153839  154782  154781  164639  164851+
+         164852  164640  157595  159256  159237  159257  150532  150530+
+         151326  151324  167083  168746  168725  168747
CHEXA      44991       4  153837  153838  154781  154774  164423  164639+
+         164640  164424  157598  159257  159234  159211  150534  150532+
+         151324  151312  167086  168747  168722  168700
CHEXA      44992       4  153807  153806  154817  154816  164323  164541+
+         164752  164540  159260  159259  159258  159261  151336  151337+
+         151338  151339  168748  168749  168750  168751
CHEXA      44993       4  153806  153805  154818  154817  164541  164753+
+         164959  164752  159264  159263  159262  159259  151337  151340+
+         151341  151338  168752  168753  168754  168749
CHEXA      44994       4  153805  153804  154819  154818  164753  164960+
+         165163  164959  159267  159266  159265  159263  151340  151342+
+         151343  151341  168755  168756  168757  168753
CHEXA      44995       4  153804  153803  154820  154819  164960  165162+
+         165361  165163  159270  159269  159268  159266  151342  151344+
+         151345  151343  168758  168759  168760  168756
CHEXA      44996       4  153803  153802  154821  154820  165162  165360+
+         165553  165361  159273  159272  159271  159269  151344  151346+
+         151347  151345  168761  168762  168763  168759
CHEXA      44997       4  153802  153801  154822  154821  165360  165552+
+         165736  165553  159276  159275  159274  159272  151346  151348+
+         151349  151347  168764  168765  168766  168762
CHEXA      44998       4  153810  153809  154814  154813  163614  163865+
+         164097  163867  159279  159278  159277  159280  151350  151351+
+         151352  151353  168767  168768  168769  168770
CHEXA      44999       4  153809  153808  154815  154814  163865  164098+
+         164322  164097  159283  159282  159281  159278  151351  151354+
+         151355  151352  168771  168772  168773  168768
CHEXA      45000       4  153808  153807  154816  154815  164098  164323+
+         164540  164322  159285  159261  159284  159282  151354  151336+
+         151339  151355  168774  168751  168775  168772
CHEXA      45001       4  154836  153518  153517  153516  163278  162910+
+         162909  162908  159286  156748  156745  159287  151356  150114+
+         150113  150112  168776  166238  166235  168777
CHEXA      45002       4  154836  154835  154811  153518  163278  163277+
+         163279  162910  159290  159289  159288  159286  151356  151357+
+         151358  150114  168778  168779  168780  168776
CHEXA      45003       4  153515  154835  154836  153516  162907  163277+
+         163278  162908  159291  159290  159287  156743  150111  151357+
+         151356  150112  168781  168778  168777  166233
CHEXA      45004       4  153513  153810  154813  154812  163274  163614+
+         163867  163615  159293  159280  159292  159294  150109  151350+
+         151353  151359  168782  168770  168783  168784
CHEXA      45005       4  154837  154835  153515  153514  163276  163277+
+         162907  162906  159295  159291  156741  159296  151360  151357+
+         150111  150110  168785  168781  166231  168786
CHEXA      45006       4  154837  154812  154811  154835  163276  163615+
+         163279  163277  159298  159297  159289  159295  151360  151359+
+         151358  151357  168787  168788  168779  168785
CHEXA      45007       4  153513  154812  154837  153514  163274  163615+
+         163276  162906  159294  159298  159296  156738  150109  151359+
+         151360  150110  168784  168787  168786  166227
CHEXA      45008       4  153801  153800  154823  154822  165552  165735+
+         165887  165736  159301  159300  159299  159275  151348  151361+
+         151362  151349  168789  168790  168791  168765
CHEXA      45009       4  153800  153799  154824  154823  165735  165677+
+         165850  165887  159304  159303  159302  159300  151361  151363+
+         151364  151362  168792  168793  168794  168790
CHEXA      45010       4  153799  153798  154825  154824  165677  165489+
+         165676  165850  159307  159306  159305  159303  151363  151365+
+         151366  151364  168795  168796  168797  168793
CHEXA      45011       4  153798  153797  154826  154825  165489  165292+
+         165488  165676  159310  159309  159308  159306  151365  151367+
+         151368  151366  168798  168799  168800  168796
CHEXA      45012       4  153797  153796  154827  154826  165292  165089+
+         165291  165488  159313  159312  159311  159309  151367  151369+
+         151370  151368  168801  168802  168803  168799
CHEXA      45013       4  153796  153795  154828  154827  165089  164884+
+         165088  165291  159316  159315  159314  159312  151369  151371+
+         151372  151370  168804  168805  168806  168802
CHEXA      45014       4  153795  153794  154829  154828  164884  164672+
+         164883  165088  159319  159318  159317  159315  151371  151373+
+         151374  151372  168807  168808  168809  168805
CHEXA      45015       4  153794  153793  154830  154829  164672  164456+
+         164671  164883  159322  159321  159320  159318  151373  151375+
+         151376  151374  168810  168811  168812  168808
CHEXA      45016       4  153793  153792  154831  154830  164456  164232+
+         164455  164671  159325  159324  159323  159321  151375  151377+
+         151378  151376  168813  168814  168815  168811
CHEXA      45017       4  153792  153791  154832  154831  164232  164002+
+         164231  164455  159328  159327  159326  159324  151377  151379+
+         151380  151378  168816  168817  168818  168814
CHEXA      45018       4  153791  153790  154833  154832  164002  163756+
+         164001  164231  159331  159330  159329  159327  151379  151381+
+         151382  151380  168819  168820  168821  168817
CHEXA      45019       4  153790  153789  154834  154833  163756  163458+
+         163754  164001  159334  159333  159332  159330  151381  151383+
+         151384  151382  168822  168823  168824  168820
CHEXA      45020       4  153789  153698  153697  154834  163458  163085+
+         163456  163754  159336  157109  159335  159333  151383  150294+
+         150293  151384  168825  166598  168826  168823
CHEXA      45021       4  153519  153518  154811  154838  162911  162910+
+         163279  163280  156750  159288  159337  159338  150115  150114+
+         151358  151385  166240  168780  168827  168828
CHEXA      45022       4  154839  153520  153519  154838  163281  162912+
+         162911  163280  159339  156752  159338  159340  151386  150116+
+         150115  151385  168829  166242  168828  168830
CHEXA      45023       4  154840  153521  153520  154839  163282  162913+
+         162912  163281  159341  156754  159339  159342  151387  150117+
+         150116  151386  168831  166244  168829  168832
CHEXA      45024       4  154841  153522  153521  154840  163283  162914+
+         162913  163282  159343  156756  159341  159344  151388  150118+
+         150117  151387  168833  166246  168831  168834
CHEXA      45025       4  154842  153523  153522  154841  163284  162915+
+         162914  163283  159345  156758  159343  159346  151389  150119+
+         150118  151388  168835  166248  168833  168836
CHEXA      45026       4  154843  153524  153523  154842  163285  162916+
+         162915  163284  159347  156760  159345  159348  151390  150120+
+         150119  151389  168837  166250  168835  168838
CHEXA      45027       4  154844  153525  153524  154843  163286  162917+
+         162916  163285  159349  156762  159347  159350  151391  150121+
+         150120  151390  168839  166252  168837  168840
CHEXA      45028       4  154845  153526  153525  154844  163287  162918+
+         162917  163286  159351  156764  159349  159352  151392  150122+
+         150121  151391  168841  166254  168839  168842
CHEXA      45029       4  154846  153527  153526  154845  163288  162919+
+         162918  163287  159353  156766  159351  159354  151393  150123+
+         150122  151392  168843  166256  168841  168844
CHEXA      45030       4  154847  153528  153527  154846  163289  162920+
+         162919  163288  159355  156768  159353  159356  151394  150124+
+         150123  151393  168845  166258  168843  168846
CHEXA      45031       4  154848  153529  153528  154847  163290  162921+
+         162920  163289  159357  156770  159355  159358  151395  150125+
+         150124  151394  168847  166260  168845  168848
CHEXA      45032       4  154849  153530  153529  154848  163291  162922+
+         162921  163290  159359  156772  159357  159360  151396  150126+
+         150125  151395  168849  166262  168847  168850
CHEXA      45033       4  154850  153531  153530  154849  163292  162923+
+         162922  163291  159361  156774  159359  159362  151397  150127+
+         150126  151396  168851  166264  168849  168852
CHEXA      45034       4  154851  153532  153531  154850  163293  162924+
+         162923  163292  159363  156776  159361  159364  151398  150128+
+         150127  151397  168853  166266  168851  168854
CHEXA      45035       4  154852  153533  153532  154851  163294  162925+
+         162924  163293  159365  156778  159363  159366  151399  150129+
+         150128  151398  168855  166268  168853  168856
CHEXA      45036       4  154853  153534  153533  154852  163295  162926+
+         162925  163294  159367  156780  159365  159368  151400  150130+
+         150129  151399  168857  166270  168855  168858
CHEXA      45037       4  154854  153535  153534  154853  163296  162927+
+         162926  163295  159369  156782  159367  159370  151401  150131+
+         150130  151400  168859  166272  168857  168860
CHEXA      45038       4  154855  153536  153535  154854  163297  162928+
+         162927  163296  159371  156784  159369  159372  151402  150132+
+         150131  151401  168861  166274  168859  168862
CHEXA      45039       4  154856  153537  153536  154855  163298  162929+
+         162928  163297  159373  156786  159371  159374  151403  150133+
+         150132  151402  168863  166276  168861  168864
CHEXA      45040       4  154857  153538  153537  154856  163299  162930+
+         162929  163298  159375  156788  159373  159376  151404  150134+
+         150133  151403  168865  166278  168863  168866
CHEXA      45041       4  154858  153539  153538  154857  163300  162931+
+         162930  163299  159377  156790  159375  159378  151405  150135+
+         150134  151404  168867  166280  168865  168868
CHEXA      45042       4  154859  153540  153539  154858  163301  162932+
+         162931  163300  159379  156792  159377  159380  151406  150136+
+         150135  151405  168869  166282  168867  168870
CHEXA      45043       4  154860  153541  153540  154859  163302  162933+
+         162932  163301  159381  156794  159379  159382  151407  150137+
+         150136  151406  168871  166284  168869  168872
CHEXA      45044       4  154861  153542  153541  154860  163303  162934+
+         162933  163302  159383  156796  159381  159384  151408  150138+
+         150137  151407  168873  166286  168871  168874
CHEXA      45045       4  154862  153543  153542  154861  163304  162935+
+         162934  163303  159385  156798  159383  159386  151409  150139+
+         150138  151408  168875  166288  168873  168876
CHEXA      45046       4  154863  153544  153543  154862  163305  162936+
+         162935  163304  159387  156800  159385  159388  151410  150140+
+         150139  151409  168877  166290  168875  168878
CHEXA      45047       4  154787  153545  153544  154863  163306  162937+
+         162936  163305  159389  156802  159387  159390  151411  150141+
+         150140  151410  168879  166292  168877  168880
CHEXA      45048       4  154864  154788  154787  154863  163641  163642+
+         163306  163305  159392  159391  159390  159393  151412  151413+
+         151411  151410  168881  168882  168880  168883
CHEXA      45049       4  154865  154789  154788  154864  163893  163894+
+         163642  163641  159395  159394  159392  159396  151414  151415+
+         151413  151412  168884  168885  168881  168886
CHEXA      45050       4  154866  154790  154789  154865  164125  164126+
+         163894  163893  159398  159397  159395  159399  151416  151417+
+         151415  151414  168887  168888  168884  168889
CHEXA      45051       4  154867  154791  154790  154866  164350  164351+
+         164126  164125  159401  159400  159398  159402  151418  151419+
+         151417  151416  168890  168891  168887  168892
CHEXA      45052       4  154868  154792  154791  154867  164568  164569+
+         164351  164350  159404  159403  159401  159405  151420  151421+
+         151419  151418  168893  168894  168890  168895
CHEXA      45053       4  154869  154793  154792  154868  164780  164781+
+         164569  164568  159407  159406  159404  159408  151422  151423+
+         151421  151420  168896  168897  168893  168898
CHEXA      45054       4  154870  154794  154793  154869  164986  164987+
+         164781  164780  159410  159409  159407  159411  151424  151425+
+         151423  151422  168899  168900  168896  168901
CHEXA      45055       4  154871  154795  154794  154870  165189  165190+
+         164987  164986  159413  159412  159410  159414  151426  151427+
+         151425  151424  168902  168903  168899  168904
CHEXA      45056       4  154872  154796  154795  154871  165388  165389+
+         165190  165189  159416  159415  159413  159417  151428  151429+
+         151427  151426  168905  168906  168902  168907
CHEXA      45057       4  154873  154797  154796  154872  165581  165582+
+         165389  165388  159419  159418  159416  159420  151430  151431+
+         151429  151428  168908  168909  168905  168910
CHEXA      45058       4  154874  154798  154797  154873  165764  165765+
+         165582  165581  159422  159421  159419  159423  151432  151433+
+         151431  151430  168911  168912  168908  168913
CHEXA      45059       4  154875  154799  154798  154874  165915  165916+
+         165765  165764  159425  159424  159422  159426  151434  151435+
+         151433  151432  168914  168915  168911  168916
CHEXA      45060       4  154876  154800  154799  154875  165927  165821+
+         165916  165915  159428  159427  159425  159429  151436  151437+
+         151435  151434  168917  168918  168914  168919
CHEXA      45061       4  154877  154801  154800  154876  165822  165645+
+         165821  165927  159431  159430  159428  159432  151438  151439+
+         151437  151436  168920  168921  168917  168922
CHEXA      45062       4  154878  154802  154801  154877  165646  165457+
+         165645  165822  159434  159433  159431  159435  151440  151441+
+         151439  151438  168923  168924  168920  168925
CHEXA      45063       4  154879  154803  154802  154878  165458  165260+
+         165457  165646  159437  159436  159434  159438  151442  151443+
+         151441  151440  168926  168927  168923  168928
CHEXA      45064       4  154880  154804  154803  154879  165261  165057+
+         165260  165458  159440  159439  159437  159441  151444  151445+
+         151443  151442  168929  168930  168926  168931
CHEXA      45065       4  154881  154805  154804  154880  165058  164853+
+         165057  165261  159443  159442  159440  159444  151446  151447+
+         151445  151444  168932  168933  168929  168934
CHEXA      45066       4  154882  154806  154805  154881  164854  164641+
+         164853  165058  159446  159445  159443  159447  151448  151449+
+         151447  151446  168935  168936  168932  168937
CHEXA      45067       4  154883  154807  154806  154882  164642  164425+
+         164641  164854  159449  159448  159446  159450  151450  151451+
+         151449  151448  168938  168939  168935  168940
CHEXA      45068       4  154884  154808  154807  154883  164426  164201+
+         164425  164642  159452  159451  159449  159453  151452  151453+
+         151451  151450  168941  168942  168938  168943
CHEXA      45069       4  154885  154809  154808  154884  164202  163971+
+         164201  164426  159455  159454  159452  159456  151454  151455+
+         151453  151452  168944  168945  168941  168946
CHEXA      45070       4  154886  154810  154809  154885  163972  163725+
+         163971  164202  159458  159457  159455  159459  151456  151457+
+         151455  151454  168947  168948  168944  168949
CHEXA      45071       4  154887  153662  154810  154886  163726  163425+
+         163725  163972  159461  159460  159458  159462  151458  150258+
+         151457  151456  168950  168951  168947  168952
CHEXA      45072       4  154888  153663  153662  154887  163427  163051+
+         163425  163726  159463  157038  159461  159464  151459  150259+
+         150258  151458  168953  166527  168950  168954
CHEXA      45073       4  154889  153664  153663  154888  163428  163052+
+         163051  163427  159465  157041  159463  159466  151460  150260+
+         150259  151459  168955  166531  168953  168956
CHEXA      45074       4  153666  153665  153664  154889  163054  163053+
+         163052  163428  157046  157043  159465  159467  150262  150261+
+         150260  151460  166536  166533  168955  168957
CHEXA      45075       4  154890  153667  153666  154889  163429  163055+
+         163054  163428  159468  157048  159467  159469  151461  150263+
+         150262  151460  168958  166538  168957  168959
CHEXA      45076       4  154891  153668  153667  154890  163430  163056+
+         163055  163429  159470  157050  159468  159471  151462  150264+
+         150263  151461  168960  166540  168958  168961
CHEXA      45077       4  154892  153669  153668  154891  163431  163057+
+         163056  163430  159472  157052  159470  159473  151463  150265+
+         150264  151462  168962  166542  168960  168963
CHEXA      45078       4  154893  153670  153669  154892  163432  163058+
+         163057  163431  159474  157054  159472  159475  151464  150266+
+         150265  151463  168964  166544  168962  168965
CHEXA      45079       4  154894  153671  153670  154893  163433  163059+
+         163058  163432  159476  157056  159474  159477  151465  150267+
+         150266  151464  168966  166546  168964  168967
CHEXA      45080       4  154895  153672  153671  154894  163434  163060+
+         163059  163433  159478  157058  159476  159479  151466  150268+
+         150267  151465  168968  166548  168966  168969
CHEXA      45081       4  154896  153673  153672  154895  163435  163061+
+         163060  163434  159480  157060  159478  159481  151467  150269+
+         150268  151466  168970  166550  168968  168971
CHEXA      45082       4  154897  153674  153673  154896  163436  163062+
+         163061  163435  159482  157062  159480  159483  151468  150270+
+         150269  151467  168972  166552  168970  168973
CHEXA      45083       4  154898  153675  153674  154897  163437  163063+
+         163062  163436  159484  157064  159482  159485  151469  150271+
+         150270  151468  168974  166554  168972  168975
CHEXA      45084       4  154899  153676  153675  154898  163438  163064+
+         163063  163437  159486  157066  159484  159487  151470  150272+
+         150271  151469  168976  166556  168974  168977
CHEXA      45085       4  154900  153677  153676  154899  163439  163065+
+         163064  163438  159488  157068  159486  159489  151471  150273+
+         150272  151470  168978  166558  168976  168979
CHEXA      45086       4  154901  153678  153677  154900  163440  163066+
+         163065  163439  159490  157070  159488  159491  151472  150274+
+         150273  151471  168980  166560  168978  168981
CHEXA      45087       4  154902  153679  153678  154901  163441  163067+
+         163066  163440  159492  157072  159490  159493  151473  150275+
+         150274  151472  168982  166562  168980  168983
CHEXA      45088       4  154903  153680  153679  154902  163442  163068+
+         163067  163441  159494  157074  159492  159495  151474  150276+
+         150275  151473  168984  166564  168982  168985
CHEXA      45089       4  154904  153681  153680  154903  163443  163069+
+         163068  163442  159496  157076  159494  159497  151475  150277+
+         150276  151474  168986  166566  168984  168987
CHEXA      45090       4  154905  153682  153681  154904  163444  163070+
+         163069  163443  159498  157078  159496  159499  151476  150278+
+         150277  151475  168988  166568  168986  168989
CHEXA      45091       4  154906  153683  153682  154905  163445  163071+
+         163070  163444  159500  157080  159498  159501  151477  150279+
+         150278  151476  168990  166570  168988  168991
CHEXA      45092       4  154907  153684  153683  154906  163446  163072+
+         163071  163445  159502  157082  159500  159503  151478  150280+
+         150279  151477  168992  166572  168990  168993
CHEXA      45093       4  154908  153685  153684  154907  163447  163073+
+         163072  163446  159504  157084  159502  159505  151479  150281+
+         150280  151478  168994  166574  168992  168995
CHEXA      45094       4  154909  153686  153685  154908  163448  163074+
+         163073  163447  159506  157086  159504  159507  151480  150282+
+         150281  151479  168996  166576  168994  168997
CHEXA      45095       4  154910  153687  153686  154909  163449  163075+
+         163074  163448  159508  157088  159506  159509  151481  150283+
+         150282  151480  168998  166578  168996  168999
CHEXA      45096       4  154911  153688  153687  154910  163450  163076+
+         163075  163449  159510  157090  159508  159511  151482  150284+
+         150283  151481  169000  166580  168998  169001
CHEXA      45097       4  154912  153689  153688  154911  163451  163077+
+         163076  163450  159512  157092  159510  159513  151483  150285+
+         150284  151482  169002  166582  169000  169003
CHEXA      45098       4  154913  153690  153689  154912  163452  163078+
+         163077  163451  159514  157094  159512  159515  151484  150286+
+         150285  151483  169004  166584  169002  169005
CHEXA      45099       4  154914  153691  153690  154913  163453  163079+
+         163078  163452  159516  157096  159514  159517  151485  150287+
+         150286  151484  169006  166586  169004  169007
CHEXA      45100       4  154915  153692  153691  154914  163454  163080+
+         163079  163453  159518  157098  159516  159519  151486  150288+
+         150287  151485  169008  166588  169006  169009
CHEXA      45101       4  154916  153693  153692  154915  163455  163081+
+         163080  163454  159520  157100  159518  159521  151487  150289+
+         150288  151486  169010  166590  169008  169011
CHEXA      45102       4  153695  153694  153693  154916  163083  163082+
+         163081  163455  157105  157102  159520  159522  150291  150290+
+         150289  151487  166595  166592  169010  169012
CHEXA      45103       4  154917  153696  153695  154916  163457  163084+
+         163083  163455  159523  157107  159522  159524  151488  150292+
+         150291  151487  169013  166597  169012  169014
CHEXA      45104       4  154918  153697  153696  154917  163755  163456+
+         163084  163457  159525  157110  159523  159526  151489  150293+
+         150292  151488  169015  166600  169013  169016
CHEXA      45105       4  154919  154834  153697  154918  163999  163754+
+         163456  163755  159527  159335  159525  159528  151490  151384+
+         150293  151489  169017  168826  169015  169018
CHEXA      45106       4  154920  154833  154834  154919  164229  164001+
+         163754  163999  159529  159332  159527  159530  151491  151382+
+         151384  151490  169019  168824  169017  169020
CHEXA      45107       4  154921  154832  154833  154920  164453  164231+
+         164001  164229  159531  159329  159529  159532  151492  151380+
+         151382  151491  169021  168821  169019  169022
CHEXA      45108       4  154922  154831  154832  154921  164669  164455+
+         164231  164453  159533  159326  159531  159534  151493  151378+
+         151380  151492  169023  168818  169021  169024
CHEXA      45109       4  154923  154830  154831  154922  164881  164671+
+         164455  164669  159535  159323  159533  159536  151494  151376+
+         151378  151493  169025  168815  169023  169026
CHEXA      45110       4  154924  154829  154830  154923  165086  164883+
+         164671  164881  159537  159320  159535  159538  151495  151374+
+         151376  151494  169027  168812  169025  169028
CHEXA      45111       4  154925  154828  154829  154924  165289  165088+
+         164883  165086  159539  159317  159537  159540  151496  151372+
+         151374  151495  169029  168809  169027  169030
CHEXA      45112       4  154926  154827  154828  154925  165486  165291+
+         165088  165289  159541  159314  159539  159542  151497  151370+
+         151372  151496  169031  168806  169029  169032
CHEXA      45113       4  154927  154826  154827  154926  165674  165488+
+         165291  165486  159543  159311  159541  159544  151498  151368+
+         151370  151497  169033  168803  169031  169034
CHEXA      45114       4  154928  154825  154826  154927  165848  165676+
+         165488  165674  159545  159308  159543  159546  151499  151366+
+         151368  151498  169035  168800  169033  169036
CHEXA      45115       4  154929  154824  154825  154928  165939  165850+
+         165676  165848  159547  159305  159545  159548  151500  151364+
+         151366  151499  169037  168797  169035  169038
CHEXA      45116       4  154930  154823  154824  154929  165888  165887+
+         165850  165939  159549  159302  159547  159550  151501  151362+
+         151364  151500  169039  168794  169037  169040
CHEXA      45117       4  154931  154822  154823  154930  165737  165736+
+         165887  165888  159551  159299  159549  159552  151502  151349+
+         151362  151501  169041  168791  169039  169042
CHEXA      45118       4  154932  154821  154822  154931  165554  165553+
+         165736  165737  159553  159274  159551  159554  151503  151347+
+         151349  151502  169043  168766  169041  169044
CHEXA      45119       4  154933  154820  154821  154932  165362  165361+
+         165553  165554  159555  159271  159553  159556  151504  151345+
+         151347  151503  169045  168763  169043  169046
CHEXA      45120       4  154934  154819  154820  154933  165164  165163+
+         165361  165362  159557  159268  159555  159558  151505  151343+
+         151345  151504  169047  168760  169045  169048
CHEXA      45121       4  154935  154818  154819  154934  164961  164959+
+         165163  165164  159559  159265  159557  159560  151506  151341+
+         151343  151505  169049  168757  169047  169050
CHEXA      45122       4  154936  154817  154818  154935  164755  164752+
+         164959  164961  159561  159262  159559  159562  151507  151338+
+         151341  151506  169051  168754  169049  169052
CHEXA      45123       4  154937  154816  154817  154936  164543  164540+
+         164752  164755  159563  159258  159561  159564  151508  151339+
+         151338  151507  169053  168750  169051  169054
CHEXA      45124       4  154938  154815  154816  154937  164325  164322+
+         164540  164543  159565  159284  159563  159566  151509  151355+
+         151339  151508  169055  168775  169053  169056
CHEXA      45125       4  154939  154814  154815  154938  164100  164097+
+         164322  164325  159567  159281  159565  159568  151510  151352+
+         151355  151509  169057  168773  169055  169058
CHEXA      45126       4  154940  154813  154814  154939  163868  163867+
+         164097  164100  159569  159277  159567  159570  151511  151353+
+         151352  151510  169059  168769  169057  169060
CHEXA      45127       4  154941  154812  154813  154940  163616  163615+
+         163867  163868  159571  159292  159569  159572  151512  151359+
+         151353  151511  169061  168783  169059  169062
CHEXA      45128       4  154838  154811  154812  154941  163280  163279+
+         163615  163616  159337  159297  159571  159573  151385  151358+
+         151359  151512  168827  168788  169061  169063
CHEXA      45129       4  154839  154838  154941  154942  163281  163280+
+         163616  163617  159340  159573  159574  159575  151386  151385+
+         151512  151513  168830  169063  169064  169065
CHEXA      45130       4  154943  154840  154839  154942  163618  163282+
+         163281  163617  159576  159342  159575  159577  151514  151387+
+         151386  151513  169066  168832  169065  169067
CHEXA      45131       4  154944  154841  154840  154943  163619  163283+
+         163282  163618  159578  159344  159576  159579  151515  151388+
+         151387  151514  169068  168834  169066  169069
CHEXA      45132       4  154945  154842  154841  154944  163620  163284+
+         163283  163619  159580  159346  159578  159581  151516  151389+
+         151388  151515  169070  168836  169068  169071
CHEXA      45133       4  154946  154843  154842  154945  163621  163285+
+         163284  163620  159582  159348  159580  159583  151517  151390+
+         151389  151516  169072  168838  169070  169073
CHEXA      45134       4  154947  154844  154843  154946  163622  163286+
+         163285  163621  159584  159350  159582  159585  151518  151391+
+         151390  151517  169074  168840  169072  169075
CHEXA      45135       4  154948  154845  154844  154947  163623  163287+
+         163286  163622  159586  159352  159584  159587  151519  151392+
+         151391  151518  169076  168842  169074  169077
CHEXA      45136       4  154949  154846  154845  154948  163624  163288+
+         163287  163623  159588  159354  159586  159589  151520  151393+
+         151392  151519  169078  168844  169076  169079
CHEXA      45137       4  154950  154847  154846  154949  163625  163289+
+         163288  163624  159590  159356  159588  159591  151521  151394+
+         151393  151520  169080  168846  169078  169081
CHEXA      45138       4  154951  154848  154847  154950  163626  163290+
+         163289  163625  159592  159358  159590  159593  151522  151395+
+         151394  151521  169082  168848  169080  169083
CHEXA      45139       4  154952  154849  154848  154951  163627  163291+
+         163290  163626  159594  159360  159592  159595  151523  151396+
+         151395  151522  169084  168850  169082  169085
CHEXA      45140       4  154953  154850  154849  154952  163628  163292+
+         163291  163627  159596  159362  159594  159597  151524  151397+
+         151396  151523  169086  168852  169084  169087
CHEXA      45141       4  154954  154851  154850  154953  163629  163293+
+         163292  163628  159598  159364  159596  159599  151525  151398+
+         151397  151524  169088  168854  169086  169089
CHEXA      45142       4  154955  154852  154851  154954  163630  163294+
+         163293  163629  159600  159366  159598  159601  151526  151399+
+         151398  151525  169090  168856  169088  169091
CHEXA      45143       4  154956  154853  154852  154955  163631  163295+
+         163294  163630  159602  159368  159600  159603  151527  151400+
+         151399  151526  169092  168858  169090  169093
CHEXA      45144       4  154957  154854  154853  154956  163632  163296+
+         163295  163631  159604  159370  159602  159605  151528  151401+
+         151400  151527  169094  168860  169092  169095
CHEXA      45145       4  154958  154855  154854  154957  163633  163297+
+         163296  163632  159606  159372  159604  159607  151529  151402+
+         151401  151528  169096  168862  169094  169097
CHEXA      45146       4  154959  154856  154855  154958  163634  163298+
+         163297  163633  159608  159374  159606  159609  151530  151403+
+         151402  151529  169098  168864  169096  169099
CHEXA      45147       4  154960  154857  154856  154959  163635  163299+
+         163298  163634  159610  159376  159608  159611  151531  151404+
+         151403  151530  169100  168866  169098  169101
CHEXA      45148       4  154961  154858  154857  154960  163636  163300+
+         163299  163635  159612  159378  159610  159613  151532  151405+
+         151404  151531  169102  168868  169100  169103
CHEXA      45149       4  154962  154859  154858  154961  163637  163301+
+         163300  163636  159614  159380  159612  159615  151533  151406+
+         151405  151532  169104  168870  169102  169105
CHEXA      45150       4  154963  154860  154859  154962  163638  163302+
+         163301  163637  159616  159382  159614  159617  151534  151407+
+         151406  151533  169106  168872  169104  169107
CHEXA      45151       4  154964  154861  154860  154963  163639  163303+
+         163302  163638  159618  159384  159616  159619  151535  151408+
+         151407  151534  169108  168874  169106  169109
CHEXA      45152       4  154965  154862  154861  154964  163640  163304+
+         163303  163639  159620  159386  159618  159621  151536  151409+
+         151408  151535  169110  168876  169108  169111
CHEXA      45153       4  154864  154863  154862  154965  163641  163305+
+         163304  163640  159393  159388  159620  159622  151412  151410+
+         151409  151536  168883  168878  169110  169112
CHEXA      45154       4  154966  154865  154864  154965  163892  163893+
+         163641  163640  159623  159396  159622  159624  151537  151414+
+         151412  151536  169113  168886  169112  169114
CHEXA      45155       4  154967  154866  154865  154966  164124  164125+
+         163893  163892  159625  159399  159623  159626  151538  151416+
+         151414  151537  169115  168889  169113  169116
CHEXA      45156       4  154968  154867  154866  154967  164349  164350+
+         164125  164124  159627  159402  159625  159628  151539  151418+
+         151416  151538  169117  168892  169115  169118
CHEXA      45157       4  154969  154868  154867  154968  164567  164568+
+         164350  164349  159629  159405  159627  159630  151540  151420+
+         151418  151539  169119  168895  169117  169120
CHEXA      45158       4  154970  154869  154868  154969  164779  164780+
+         164568  164567  159631  159408  159629  159632  151541  151422+
+         151420  151540  169121  168898  169119  169122
CHEXA      45159       4  154971  154870  154869  154970  164985  164986+
+         164780  164779  159633  159411  159631  159634  151542  151424+
+         151422  151541  169123  168901  169121  169124
CHEXA      45160       4  154972  154871  154870  154971  165188  165189+
+         164986  164985  159635  159414  159633  159636  151543  151426+
+         151424  151542  169125  168904  169123  169126
CHEXA      45161       4  154973  154872  154871  154972  165387  165388+
+         165189  165188  159637  159417  159635  159638  151544  151428+
+         151426  151543  169127  168907  169125  169128
CHEXA      45162       4  154974  154873  154872  154973  165580  165581+
+         165388  165387  159639  159420  159637  159640  151545  151430+
+         151428  151544  169129  168910  169127  169130
CHEXA      45163       4  154975  154874  154873  154974  165763  165764+
+         165581  165580  159641  159423  159639  159642  151546  151432+
+         151430  151545  169131  168913  169129  169132
CHEXA      45164       4  154976  154875  154874  154975  165914  165915+
+         165764  165763  159643  159426  159641  159644  151547  151434+
+         151432  151546  169133  168916  169131  169134
CHEXA      45165       4  154977  154876  154875  154976  165962  165927+
+         165915  165914  159645  159429  159643  159646  151548  151436+
+         151434  151547  169135  168919  169133  169136
CHEXA      45166       4  154978  154877  154876  154977  165928  165822+
+         165927  165962  159647  159432  159645  159648  151549  151438+
+         151436  151548  169137  168922  169135  169138
CHEXA      45167       4  154979  154878  154877  154978  165823  165646+
+         165822  165928  159649  159435  159647  159650  151550  151440+
+         151438  151549  169139  168925  169137  169140
CHEXA      45168       4  154980  154879  154878  154979  165647  165458+
+         165646  165823  159651  159438  159649  159652  151551  151442+
+         151440  151550  169141  168928  169139  169142
CHEXA      45169       4  154981  154880  154879  154980  165459  165261+
+         165458  165647  159653  159441  159651  159654  151552  151444+
+         151442  151551  169143  168931  169141  169144
CHEXA      45170       4  154982  154881  154880  154981  165262  165058+
+         165261  165459  159655  159444  159653  159656  151553  151446+
+         151444  151552  169145  168934  169143  169146
CHEXA      45171       4  154983  154882  154881  154982  165059  164854+
+         165058  165262  159657  159447  159655  159658  151554  151448+
+         151446  151553  169147  168937  169145  169148
CHEXA      45172       4  154984  154883  154882  154983  164855  164642+
+         164854  165059  159659  159450  159657  159660  151555  151450+
+         151448  151554  169149  168940  169147  169150
CHEXA      45173       4  154985  154884  154883  154984  164643  164426+
+         164642  164855  159661  159453  159659  159662  151556  151452+
+         151450  151555  169151  168943  169149  169152
CHEXA      45174       4  154986  154885  154884  154985  164427  164202+
+         164426  164643  159663  159456  159661  159664  151557  151454+
+         151452  151556  169153  168946  169151  169154
CHEXA      45175       4  154987  154886  154885  154986  164203  163972+
+         164202  164427  159665  159459  159663  159666  151558  151456+
+         151454  151557  169155  168949  169153  169156
CHEXA      45176       4  154988  154887  154886  154987  163973  163726+
+         163972  164203  159667  159462  159665  159668  151559  151458+
+         151456  151558  169157  168952  169155  169158
CHEXA      45177       4  154989  154888  154887  154988  163728  163427+
+         163726  163973  159669  159464  159667  159670  151560  151459+
+         151458  151559  169159  168954  169157  169160
CHEXA      45178       4  154890  154889  154888  154989  163429  163428+
+         163427  163728  159469  159466  159669  159671  151461  151460+
+         151459  151560  168959  168956  169159  169161
CHEXA      45179       4  154990  154891  154890  154989  163729  163430+
+         163429  163728  159672  159471  159671  159673  151561  151462+
+         151461  151560  169162  168961  169161  169163
CHEXA      45180       4  154991  154892  154891  154990  163730  163431+
+         163430  163729  159674  159473  159672  159675  151562  151463+
+         151462  151561  169164  168963  169162  169165
CHEXA      45181       4  154992  154893  154892  154991  163731  163432+
+         163431  163730  159676  159475  159674  159677  151563  151464+
+         151463  151562  169166  168965  169164  169167
CHEXA      45182       4  154993  154894  154893  154992  163732  163433+
+         163432  163731  159678  159477  159676  159679  151564  151465+
+         151464  151563  169168  168967  169166  169169
CHEXA      45183       4  154994  154895  154894  154993  163733  163434+
+         163433  163732  159680  159479  159678  159681  151565  151466+
+         151465  151564  169170  168969  169168  169171
CHEXA      45184       4  154995  154896  154895  154994  163734  163435+
+         163434  163733  159682  159481  159680  159683  151566  151467+
+         151466  151565  169172  168971  169170  169173
CHEXA      45185       4  154996  154897  154896  154995  163735  163436+
+         163435  163734  159684  159483  159682  159685  151567  151468+
+         151467  151566  169174  168973  169172  169175
CHEXA      45186       4  154997  154898  154897  154996  163736  163437+
+         163436  163735  159686  159485  159684  159687  151568  151469+
+         151468  151567  169176  168975  169174  169177
CHEXA      45187       4  154998  154899  154898  154997  163737  163438+
+         163437  163736  159688  159487  159686  159689  151569  151470+
+         151469  151568  169178  168977  169176  169179
CHEXA      45188       4  154999  154900  154899  154998  163738  163439+
+         163438  163737  159690  159489  159688  159691  151570  151471+
+         151470  151569  169180  168979  169178  169181
CHEXA      45189       4  155000  154901  154900  154999  163739  163440+
+         163439  163738  159692  159491  159690  159693  151571  151472+
+         151471  151570  169182  168981  169180  169183
CHEXA      45190       4  155001  154902  154901  155000  163740  163441+
+         163440  163739  159694  159493  159692  159695  151572  151473+
+         151472  151571  169184  168983  169182  169185
CHEXA      45191       4  155002  154903  154902  155001  163741  163442+
+         163441  163740  159696  159495  159694  159697  151573  151474+
+         151473  151572  169186  168985  169184  169187
CHEXA      45192       4  155003  154904  154903  155002  163742  163443+
+         163442  163741  159698  159497  159696  159699  151574  151475+
+         151474  151573  169188  168987  169186  169189
CHEXA      45193       4  155004  154905  154904  155003  163743  163444+
+         163443  163742  159700  159499  159698  159701  151575  151476+
+         151475  151574  169190  168989  169188  169191
CHEXA      45194       4  155005  154906  154905  155004  163744  163445+
+         163444  163743  159702  159501  159700  159703  151576  151477+
+         151476  151575  169192  168991  169190  169193
CHEXA      45195       4  155006  154907  154906  155005  163745  163446+
+         163445  163744  159704  159503  159702  159705  151577  151478+
+         151477  151576  169194  168993  169192  169195
CHEXA      45196       4  155007  154908  154907  155006  163746  163447+
+         163446  163745  159706  159505  159704  159707  151578  151479+
+         151478  151577  169196  168995  169194  169197
CHEXA      45197       4  155008  154909  154908  155007  163747  163448+
+         163447  163746  159708  159507  159706  159709  151579  151480+
+         151479  151578  169198  168997  169196  169199
CHEXA      45198       4  155009  154910  154909  155008  163748  163449+
+         163448  163747  159710  159509  159708  159711  151580  151481+
+         151480  151579  169200  168999  169198  169201
CHEXA      45199       4  155010  154911  154910  155009  163749  163450+
+         163449  163748  159712  159511  159710  159713  151581  151482+
+         151481  151580  169202  169001  169200  169203
CHEXA      45200       4  155011  154912  154911  155010  163750  163451+
+         163450  163749  159714  159513  159712  159715  151582  151483+
+         151482  151581  169204  169003  169202  169205
CHEXA      45201       4  155012  154913  154912  155011  163751  163452+
+         163451  163750  159716  159515  159714  159717  151583  151484+
+         151483  151582  169206  169005  169204  169207
CHEXA      45202       4  155013  154914  154913  155012  163752  163453+
+         163452  163751  159718  159517  159716  159719  151584  151485+
+         151484  151583  169208  169007  169206  169209
CHEXA      45203       4  155014  154915  154914  155013  163753  163454+
+         163453  163752  159720  159519  159718  159721  151585  151486+
+         151485  151584  169210  169009  169208  169211
CHEXA      45204       4  154917  154916  154915  155014  163457  163455+
+         163454  163753  159524  159521  159720  159722  151488  151487+
+         151486  151585  169014  169011  169210  169212
CHEXA      45205       4  154919  154918  154917  155014  163999  163755+
+         163457  163753  159528  159526  159722  159723  151490  151489+
+         151488  151585  169018  169016  169212  169213
CHEXA      45206       4  155015  154920  154919  155014  164000  164229+
+         163999  163753  159724  159530  159723  159725  151586  151491+
+         151490  151585  169214  169020  169213  169215
CHEXA      45207       4  155016  154921  154920  155015  164230  164453+
+         164229  164000  159726  159532  159724  159727  151587  151492+
+         151491  151586  169216  169022  169214  169217
CHEXA      45208       4  155017  154922  154921  155016  164454  164669+
+         164453  164230  159728  159534  159726  159729  151588  151493+
+         151492  151587  169218  169024  169216  169219
CHEXA      45209       4  155018  154923  154922  155017  164670  164881+
+         164669  164454  159730  159536  159728  159731  151589  151494+
+         151493  151588  169220  169026  169218  169221
CHEXA      45210       4  155019  154924  154923  155018  164882  165086+
+         164881  164670  159732  159538  159730  159733  151590  151495+
+         151494  151589  169222  169028  169220  169223
CHEXA      45211       4  155020  154925  154924  155019  165087  165289+
+         165086  164882  159734  159540  159732  159735  151591  151496+
+         151495  151590  169224  169030  169222  169225
CHEXA      45212       4  155021  154926  154925  155020  165290  165486+
+         165289  165087  159736  159542  159734  159737  151592  151497+
+         151496  151591  169226  169032  169224  169227
CHEXA      45213       4  155022  154927  154926  155021  165487  165674+
+         165486  165290  159738  159544  159736  159739  151593  151498+
+         151497  151592  169228  169034  169226  169229
CHEXA      45214       4  155023  154928  154927  155022  165675  165848+
+         165674  165487  159740  159546  159738  159741  151594  151499+
+         151498  151593  169230  169036  169228  169231
CHEXA      45215       4  155024  154929  154928  155023  165849  165939+
+         165848  165675  159742  159548  159740  159743  151595  151500+
+         151499  151594  169232  169038  169230  169233
CHEXA      45216       4  155025  154930  154929  155024  165889  165888+
+         165939  165849  159744  159550  159742  159745  151596  151501+
+         151500  151595  169234  169040  169232  169235
CHEXA      45217       4  155026  154931  154930  155025  165738  165737+
+         165888  165889  159746  159552  159744  159747  151597  151502+
+         151501  151596  169236  169042  169234  169237
CHEXA      45218       4  155027  154932  154931  155026  165555  165554+
+         165737  165738  159748  159554  159746  159749  151598  151503+
+         151502  151597  169238  169044  169236  169239
CHEXA      45219       4  155028  154933  154932  155027  165363  165362+
+         165554  165555  159750  159556  159748  159751  151599  151504+
+         151503  151598  169240  169046  169238  169241
CHEXA      45220       4  155029  154934  154933  155028  165165  165164+
+         165362  165363  159752  159558  159750  159753  151600  151505+
+         151504  151599  169242  169048  169240  169243
CHEXA      45221       4  155030  154935  154934  155029  164962  164961+
+         165164  165165  159754  159560  159752  159755  151601  151506+
+         151505  151600  169244  169050  169242  169245
CHEXA      45222       4  155031  154936  154935  155030  164756  164755+
+         164961  164962  159756  159562  159754  159757  151602  151507+
+         151506  151601  169246  169052  169244  169247
CHEXA      45223       4  155032  154937  154936  155031  164544  164543+
+         164755  164756  159758  159564  159756  159759  151603  151508+
+         151507  151602  169248  169054  169246  169249
CHEXA      45224       4  155033  154938  154937  155032  164326  164325+
+         164543  164544  159760  159566  159758  159761  151604  151509+
+         151508  151603  169250  169056  169248  169251
CHEXA      45225       4  155034  154939  154938  155033  164101  164100+
+         164325  164326  159762  159568  159760  159763  151605  151510+
+         151509  151604  169252  169058  169250  169253
CHEXA      45226       4  155035  154940  154939  155034  163869  163868+
+         164100  164101  159764  159570  159762  159765  151606  151511+
+         151510  151605  169254  169060  169252  169255
CHEXA      45227       4  154942  154941  154940  155035  163617  163616+
+         163868  163869  159574  159572  159764  159766  151513  151512+
+         151511  151606  169064  169062  169254  169256
CHEXA      45228       4  154943  154942  155035  155036  163618  163617+
+         163869  163870  159577  159766  159767  159768  151514  151513+
+         151606  151607  169067  169256  169257  169258
CHEXA      45229       4  155037  154944  154943  155036  163871  163619+
+         163618  163870  159769  159579  159768  159770  151608  151515+
+         151514  151607  169259  169069  169258  169260
CHEXA      45230       4  155038  154945  154944  155037  163872  163620+
+         163619  163871  159771  159581  159769  159772  151609  151516+
+         151515  151608  169261  169071  169259  169262
CHEXA      45231       4  155039  154946  154945  155038  163873  163621+
+         163620  163872  159773  159583  159771  159774  151610  151517+
+         151516  151609  169263  169073  169261  169264
CHEXA      45232       4  155040  154947  154946  155039  163874  163622+
+         163621  163873  159775  159585  159773  159776  151611  151518+
+         151517  151610  169265  169075  169263  169266
CHEXA      45233       4  155041  154948  154947  155040  163875  163623+
+         163622  163874  159777  159587  159775  159778  151612  151519+
+         151518  151611  169267  169077  169265  169268
CHEXA      45234       4  155042  154949  154948  155041  163876  163624+
+         163623  163875  159779  159589  159777  159780  151613  151520+
+         151519  151612  169269  169079  169267  169270
CHEXA      45235       4  155043  154950  154949  155042  163877  163625+
+         163624  163876  159781  159591  159779  159782  151614  151521+
+         151520  151613  169271  169081  169269  169272
CHEXA      45236       4  155044  154951  154950  155043  163878  163626+
+         163625  163877  159783  159593  159781  159784  151615  151522+
+         151521  151614  169273  169083  169271  169274
CHEXA      45237       4  155045  154952  154951  155044  163879  163627+
+         163626  163878  159785  159595  159783  159786  151616  151523+
+         151522  151615  169275  169085  169273  169276
CHEXA      45238       4  155046  154953  154952  155045  163880  163628+
+         163627  163879  159787  159597  159785  159788  151617  151524+
+         151523  151616  169277  169087  169275  169278
CHEXA      45239       4  155047  154954  154953  155046  163881  163629+
+         163628  163880  159789  159599  159787  159790  151618  151525+
+         151524  151617  169279  169089  169277  169280
CHEXA      45240       4  155048  154955  154954  155047  163882  163630+
+         163629  163881  159791  159601  159789  159792  151619  151526+
+         151525  151618  169281  169091  169279  169282
CHEXA      45241       4  155049  154956  154955  155048  163883  163631+
+         163630  163882  159793  159603  159791  159794  151620  151527+
+         151526  151619  169283  169093  169281  169284
CHEXA      45242       4  155050  154957  154956  155049  163884  163632+
+         163631  163883  159795  159605  159793  159796  151621  151528+
+         151527  151620  169285  169095  169283  169286
CHEXA      45243       4  155051  154958  154957  155050  163885  163633+
+         163632  163884  159797  159607  159795  159798  151622  151529+
+         151528  151621  169287  169097  169285  169288
CHEXA      45244       4  155052  154959  154958  155051  163886  163634+
+         163633  163885  159799  159609  159797  159800  151623  151530+
+         151529  151622  169289  169099  169287  169290
CHEXA      45245       4  155053  154960  154959  155052  163887  163635+
+         163634  163886  159801  159611  159799  159802  151624  151531+
+         151530  151623  169291  169101  169289  169292
CHEXA      45246       4  155054  154961  154960  155053  163888  163636+
+         163635  163887  159803  159613  159801  159804  151625  151532+
+         151531  151624  169293  169103  169291  169294
CHEXA      45247       4  155055  154962  154961  155054  163889  163637+
+         163636  163888  159805  159615  159803  159806  151626  151533+
+         151532  151625  169295  169105  169293  169296
CHEXA      45248       4  155056  154963  154962  155055  163890  163638+
+         163637  163889  159807  159617  159805  159808  151627  151534+
+         151533  151626  169297  169107  169295  169298
CHEXA      45249       4  155057  154964  154963  155056  163891  163639+
+         163638  163890  159809  159619  159807  159810  151628  151535+
+         151534  151627  169299  169109  169297  169300
CHEXA      45250       4  154966  154965  154964  155057  163892  163640+
+         163639  163891  159624  159621  159809  159811  151537  151536+
+         151535  151628  169114  169111  169299  169301
CHEXA      45251       4  155058  154967  154966  155057  164123  164124+
+         163892  163891  159812  159626  159811  159813  151629  151538+
+         151537  151628  169302  169116  169301  169303
CHEXA      45252       4  155059  154968  154967  155058  164348  164349+
+         164124  164123  159814  159628  159812  159815  151630  151539+
+         151538  151629  169304  169118  169302  169305
CHEXA      45253       4  155060  154969  154968  155059  164566  164567+
+         164349  164348  159816  159630  159814  159817  151631  151540+
+         151539  151630  169306  169120  169304  169307
CHEXA      45254       4  155061  154970  154969  155060  164778  164779+
+         164567  164566  159818  159632  159816  159819  151632  151541+
+         151540  151631  169308  169122  169306  169309
CHEXA      45255       4  155062  154971  154970  155061  164984  164985+
+         164779  164778  159820  159634  159818  159821  151633  151542+
+         151541  151632  169310  169124  169308  169311
CHEXA      45256       4  155063  154972  154971  155062  165187  165188+
+         164985  164984  159822  159636  159820  159823  151634  151543+
+         151542  151633  169312  169126  169310  169313
CHEXA      45257       4  155064  154973  154972  155063  165386  165387+
+         165188  165187  159824  159638  159822  159825  151635  151544+
+         151543  151634  169314  169128  169312  169315
CHEXA      45258       4  155065  154974  154973  155064  165579  165580+
+         165387  165386  159826  159640  159824  159827  151636  151545+
+         151544  151635  169316  169130  169314  169317
CHEXA      45259       4  155066  154975  154974  155065  165762  165763+
+         165580  165579  159828  159642  159826  159829  151637  151546+
+         151545  151636  169318  169132  169316  169319
CHEXA      45260       4  155067  154976  154975  155066  165913  165914+
+         165763  165762  159830  159644  159828  159831  151638  151547+
+         151546  151637  169320  169134  169318  169321
CHEXA      45261       4  155068  154977  154976  155067  165961  165962+
+         165914  165913  159832  159646  159830  159833  151639  151548+
+         151547  151638  169322  169136  169320  169323
CHEXA      45262       4  155069  154978  154977  155068  165929  165928+
+         165962  165961  159834  159648  159832  159835  151640  151549+
+         151548  151639  169324  169138  169322  169325
CHEXA      45263       4  155070  154979  154978  155069  165824  165823+
+         165928  165929  159836  159650  159834  159837  151641  151550+
+         151549  151640  169326  169140  169324  169327
CHEXA      45264       4  155071  154980  154979  155070  165649  165647+
+         165823  165824  159838  159652  159836  159839  151642  151551+
+         151550  151641  169328  169142  169326  169329
CHEXA      45265       4  155072  154981  154980  155071  165461  165459+
+         165647  165649  159840  159654  159838  159841  151643  151552+
+         151551  151642  169330  169144  169328  169331
CHEXA      45266       4  155073  154982  154981  155072  165264  165262+
+         165459  165461  159842  159656  159840  159843  151644  151553+
+         151552  151643  169332  169146  169330  169333
CHEXA      45267       4  155074  154983  154982  155073  165061  165059+
+         165262  165264  159844  159658  159842  159845  151645  151554+
+         151553  151644  169334  169148  169332  169335
CHEXA      45268       4  155075  154984  154983  155074  164857  164855+
+         165059  165061  159846  159660  159844  159847  151646  151555+
+         151554  151645  169336  169150  169334  169337
CHEXA      45269       4  155076  154985  154984  155075  164645  164643+
+         164855  164857  159848  159662  159846  159849  151647  151556+
+         151555  151646  169338  169152  169336  169339
CHEXA      45270       4  155077  154986  154985  155076  164429  164427+
+         164643  164645  159850  159664  159848  159851  151648  151557+
+         151556  151647  169340  169154  169338  169341
CHEXA      45271       4  155078  154987  154986  155077  164205  164203+
+         164427  164429  159852  159666  159850  159853  151649  151558+
+         151557  151648  169342  169156  169340  169343
CHEXA      45272       4  155079  154988  154987  155078  163975  163973+
+         164203  164205  159854  159668  159852  159855  151650  151559+
+         151558  151649  169344  169158  169342  169345
CHEXA      45273       4  154990  154989  154988  155079  163729  163728+
+         163973  163975  159673  159670  159854  159856  151561  151560+
+         151559  151650  169163  169160  169344  169346
CHEXA      45274       4  155080  154991  154990  155079  163976  163730+
+         163729  163975  159857  159675  159856  159858  151651  151562+
+         151561  151650  169347  169165  169346  169348
CHEXA      45275       4  155081  154992  154991  155080  163977  163731+
+         163730  163976  159859  159677  159857  159860  151652  151563+
+         151562  151651  169349  169167  169347  169350
CHEXA      45276       4  155082  154993  154992  155081  163978  163732+
+         163731  163977  159861  159679  159859  159862  151653  151564+
+         151563  151652  169351  169169  169349  169352
CHEXA      45277       4  155083  154994  154993  155082  163979  163733+
+         163732  163978  159863  159681  159861  159864  151654  151565+
+         151564  151653  169353  169171  169351  169354
CHEXA      45278       4  155084  154995  154994  155083  163980  163734+
+         163733  163979  159865  159683  159863  159866  151655  151566+
+         151565  151654  169355  169173  169353  169356
CHEXA      45279       4  155085  154996  154995  155084  163981  163735+
+         163734  163980  159867  159685  159865  159868  151656  151567+
+         151566  151655  169357  169175  169355  169358
CHEXA      45280       4  155086  154997  154996  155085  163982  163736+
+         163735  163981  159869  159687  159867  159870  151657  151568+
+         151567  151656  169359  169177  169357  169360
CHEXA      45281       4  155087  154998  154997  155086  163983  163737+
+         163736  163982  159871  159689  159869  159872  151658  151569+
+         151568  151657  169361  169179  169359  169362
CHEXA      45282       4  155088  154999  154998  155087  163984  163738+
+         163737  163983  159873  159691  159871  159874  151659  151570+
+         151569  151658  169363  169181  169361  169364
CHEXA      45283       4  155089  155000  154999  155088  163985  163739+
+         163738  163984  159875  159693  159873  159876  151660  151571+
+         151570  151659  169365  169183  169363  169366
CHEXA      45284       4  155090  155001  155000  155089  163986  163740+
+         163739  163985  159877  159695  159875  159878  151661  151572+
+         151571  151660  169367  169185  169365  169368
CHEXA      45285       4  155091  155002  155001  155090  163987  163741+
+         163740  163986  159879  159697  159877  159880  151662  151573+
+         151572  151661  169369  169187  169367  169370
CHEXA      45286       4  155092  155003  155002  155091  163988  163742+
+         163741  163987  159881  159699  159879  159882  151663  151574+
+         151573  151662  169371  169189  169369  169372
CHEXA      45287       4  155093  155004  155003  155092  163989  163743+
+         163742  163988  159883  159701  159881  159884  151664  151575+
+         151574  151663  169373  169191  169371  169374
CHEXA      45288       4  155094  155005  155004  155093  163990  163744+
+         163743  163989  159885  159703  159883  159886  151665  151576+
+         151575  151664  169375  169193  169373  169376
CHEXA      45289       4  155095  155006  155005  155094  163991  163745+
+         163744  163990  159887  159705  159885  159888  151666  151577+
+         151576  151665  169377  169195  169375  169378
CHEXA      45290       4  155096  155007  155006  155095  163992  163746+
+         163745  163991  159889  159707  159887  159890  151667  151578+
+         151577  151666  169379  169197  169377  169380
CHEXA      45291       4  155097  155008  155007  155096  163993  163747+
+         163746  163992  159891  159709  159889  159892  151668  151579+
+         151578  151667  169381  169199  169379  169382
CHEXA      45292       4  155098  155009  155008  155097  163994  163748+
+         163747  163993  159893  159711  159891  159894  151669  151580+
+         151579  151668  169383  169201  169381  169384
CHEXA      45293       4  155099  155010  155009  155098  163995  163749+
+         163748  163994  159895  159713  159893  159896  151670  151581+
+         151580  151669  169385  169203  169383  169386
CHEXA      45294       4  155100  155011  155010  155099  163996  163750+
+         163749  163995  159897  159715  159895  159898  151671  151582+
+         151581  151670  169387  169205  169385  169388
CHEXA      45295       4  155101  155012  155011  155100  163997  163751+
+         163750  163996  159899  159717  159897  159900  151672  151583+
+         151582  151671  169389  169207  169387  169390
CHEXA      45296       4  155102  155013  155012  155101  163998  163752+
+         163751  163997  159901  159719  159899  159902  151673  151584+
+         151583  151672  169391  169209  169389  169392
CHEXA      45297       4  155015  155014  155013  155102  164000  163753+
+         163752  163998  159725  159721  159901  159903  151586  151585+
+         151584  151673  169215  169211  169391  169393
CHEXA      45298       4  155103  155016  155015  155102  164228  164230+
+         164000  163998  159904  159727  159903  159905  151674  151587+
+         151586  151673  169394  169217  169393  169395
CHEXA      45299       4  155104  155017  155016  155103  164452  164454+
+         164230  164228  159906  159729  159904  159907  151675  151588+
+         151587  151674  169396  169219  169394  169397
CHEXA      45300       4  155105  155018  155017  155104  164668  164670+
+         164454  164452  159908  159731  159906  159909  151676  151589+
+         151588  151675  169398  169221  169396  169399
CHEXA      45301       4  155106  155019  155018  155105  164880  164882+
+         164670  164668  159910  159733  159908  159911  151677  151590+
+         151589  151676  169400  169223  169398  169401
CHEXA      45302       4  155107  155020  155019  155106  165085  165087+
+         164882  164880  159912  159735  159910  159913  151678  151591+
+         151590  151677  169402  169225  169400  169403
CHEXA      45303       4  155108  155021  155020  155107  165288  165290+
+         165087  165085  159914  159737  159912  159915  151679  151592+
+         151591  151678  169404  169227  169402  169405
CHEXA      45304       4  155109  155022  155021  155108  165485  165487+
+         165290  165288  159916  159739  159914  159917  151680  151593+
+         151592  151679  169406  169229  169404  169407
CHEXA      45305       4  155110  155023  155022  155109  165673  165675+
+         165487  165485  159918  159741  159916  159919  151681  151594+
+         151593  151680  169408  169231  169406  169409
CHEXA      45306       4  155111  155024  155023  155110  165847  165849+
+         165675  165673  159920  159743  159918  159921  151682  151595+
+         151594  151681  169410  169233  169408  169411
CHEXA      45307       4  155112  155025  155024  155111  165890  165889+
+         165849  165847  159922  159745  159920  159923  151683  151596+
+         151595  151682  169412  169235  169410  169413
CHEXA      45308       4  155113  155026  155025  155112  165739  165738+
+         165889  165890  159924  159747  159922  159925  151684  151597+
+         151596  151683  169414  169237  169412  169415
CHEXA      45309       4  155114  155027  155026  155113  165556  165555+
+         165738  165739  159926  159749  159924  159927  151685  151598+
+         151597  151684  169416  169239  169414  169417
CHEXA      45310       4  155115  155028  155027  155114  165364  165363+
+         165555  165556  159928  159751  159926  159929  151686  151599+
+         151598  151685  169418  169241  169416  169419
CHEXA      45311       4  155116  155029  155028  155115  165166  165165+
+         165363  165364  159930  159753  159928  159931  151687  151600+
+         151599  151686  169420  169243  169418  169421
CHEXA      45312       4  155117  155030  155029  155116  164963  164962+
+         165165  165166  159932  159755  159930  159933  151688  151601+
+         151600  151687  169422  169245  169420  169423
CHEXA      45313       4  155118  155031  155030  155117  164757  164756+
+         164962  164963  159934  159757  159932  159935  151689  151602+
+         151601  151688  169424  169247  169422  169425
CHEXA      45314       4  155119  155032  155031  155118  164545  164544+
+         164756  164757  159936  159759  159934  159937  151690  151603+
+         151602  151689  169426  169249  169424  169427
CHEXA      45315       4  155120  155033  155032  155119  164327  164326+
+         164544  164545  159938  159761  159936  159939  151691  151604+
+         151603  151690  169428  169251  169426  169429
CHEXA      45316       4  155121  155034  155033  155120  164102  164101+
+         164326  164327  159940  159763  159938  159941  151692  151605+
+         151604  151691  169430  169253  169428  169431
CHEXA      45317       4  155036  155035  155034  155121  163870  163869+
+         164101  164102  159767  159765  159940  159942  151607  151606+
+         151605  151692  169257  169255  169430  169432
CHEXA      45318       4  155037  155036  155121  155122  163871  163870+
+         164102  164103  159770  159942  159943  159944  151608  151607+
+         151692  151693  169260  169432  169433  169434
CHEXA      45319       4  155123  155038  155037  155122  164104  163872+
+         163871  164103  159945  159772  159944  159946  151694  151609+
+         151608  151693  169435  169262  169434  169436
CHEXA      45320       4  155124  155039  155038  155123  164105  163873+
+         163872  164104  159947  159774  159945  159948  151695  151610+
+         151609  151694  169437  169264  169435  169438
CHEXA      45321       4  155125  155040  155039  155124  164106  163874+
+         163873  164105  159949  159776  159947  159950  151696  151611+
+         151610  151695  169439  169266  169437  169440
CHEXA      45322       4  155126  155041  155040  155125  164107  163875+
+         163874  164106  159951  159778  159949  159952  151697  151612+
+         151611  151696  169441  169268  169439  169442
CHEXA      45323       4  155127  155042  155041  155126  164108  163876+
+         163875  164107  159953  159780  159951  159954  151698  151613+
+         151612  151697  169443  169270  169441  169444
CHEXA      45324       4  155128  155043  155042  155127  164109  163877+
+         163876  164108  159955  159782  159953  159956  151699  151614+
+         151613  151698  169445  169272  169443  169446
CHEXA      45325       4  155129  155044  155043  155128  164110  163878+
+         163877  164109  159957  159784  159955  159958  151700  151615+
+         151614  151699  169447  169274  169445  169448
CHEXA      45326       4  155130  155045  155044  155129  164111  163879+
+         163878  164110  159959  159786  159957  159960  151701  151616+
+         151615  151700  169449  169276  169447  169450
CHEXA      45327       4  155131  155046  155045  155130  164112  163880+
+         163879  164111  159961  159788  159959  159962  151702  151617+
+         151616  151701  169451  169278  169449  169452
CHEXA      45328       4  155132  155047  155046  155131  164113  163881+
+         163880  164112  159963  159790  159961  159964  151703  151618+
+         151617  151702  169453  169280  169451  169454
CHEXA      45329       4  155133  155048  155047  155132  164114  163882+
+         163881  164113  159965  159792  159963  159966  151704  151619+
+         151618  151703  169455  169282  169453  169456
CHEXA      45330       4  155134  155049  155048  155133  164115  163883+
+         163882  164114  159967  159794  159965  159968  151705  151620+
+         151619  151704  169457  169284  169455  169458
CHEXA      45331       4  155135  155050  155049  155134  164116  163884+
+         163883  164115  159969  159796  159967  159970  151706  151621+
+         151620  151705  169459  169286  169457  169460
CHEXA      45332       4  155136  155051  155050  155135  164117  163885+
+         163884  164116  159971  159798  159969  159972  151707  151622+
+         151621  151706  169461  169288  169459  169462
CHEXA      45333       4  155137  155052  155051  155136  164118  163886+
+         163885  164117  159973  159800  159971  159974  151708  151623+
+         151622  151707  169463  169290  169461  169464
CHEXA      45334       4  155138  155053  155052  155137  164119  163887+
+         163886  164118  159975  159802  159973  159976  151709  151624+
+         151623  151708  169465  169292  169463  169466
CHEXA      45335       4  155139  155054  155053  155138  164120  163888+
+         163887  164119  159977  159804  159975  159978  151710  151625+
+         151624  151709  169467  169294  169465  169468
CHEXA      45336       4  155140  155055  155054  155139  164121  163889+
+         163888  164120  159979  159806  159977  159980  151711  151626+
+         151625  151710  169469  169296  169467  169470
CHEXA      45337       4  155141  155056  155055  155140  164122  163890+
+         163889  164121  159981  159808  159979  159982  151712  151627+
+         151626  151711  169471  169298  169469  169472
CHEXA      45338       4  155058  155057  155056  155141  164123  163891+
+         163890  164122  159813  159810  159981  159983  151629  151628+
+         151627  151712  169303  169300  169471  169473
CHEXA      45339       4  155142  155059  155058  155141  164347  164348+
+         164123  164122  159984  159815  159983  159985  151713  151630+
+         151629  151712  169474  169305  169473  169475
CHEXA      45340       4  155143  155060  155059  155142  164565  164566+
+         164348  164347  159986  159817  159984  159987  151714  151631+
+         151630  151713  169476  169307  169474  169477
CHEXA      45341       4  155144  155061  155060  155143  164777  164778+
+         164566  164565  159988  159819  159986  159989  151715  151632+
+         151631  151714  169478  169309  169476  169479
CHEXA      45342       4  155145  155062  155061  155144  164983  164984+
+         164778  164777  159990  159821  159988  159991  151716  151633+
+         151632  151715  169480  169311  169478  169481
CHEXA      45343       4  155146  155063  155062  155145  165186  165187+
+         164984  164983  159992  159823  159990  159993  151717  151634+
+         151633  151716  169482  169313  169480  169483
CHEXA      45344       4  155147  155064  155063  155146  165385  165386+
+         165187  165186  159994  159825  159992  159995  151718  151635+
+         151634  151717  169484  169315  169482  169485
CHEXA      45345       4  155148  155065  155064  155147  165578  165579+
+         165386  165385  159996  159827  159994  159997  151719  151636+
+         151635  151718  169486  169317  169484  169487
CHEXA      45346       4  155149  155066  155065  155148  165761  165762+
+         165579  165578  159998  159829  159996  159999  151720  151637+
+         151636  151719  169488  169319  169486  169489
CHEXA      45347       4  155150  155067  155066  155149  165912  165913+
+         165762  165761  160000  159831  159998  160001  151721  151638+
+         151637  151720  169490  169321  169488  169491
CHEXA      45348       4  155151  155068  155067  155150  165960  165961+
+         165913  165912  160002  159833  160000  160003  151722  151639+
+         151638  151721  169492  169323  169490  169493
CHEXA      45349       4  155152  155069  155068  155151  165930  165929+
+         165961  165960  160004  159835  160002  160005  151723  151640+
+         151639  151722  169494  169325  169492  169495
CHEXA      45350       4  155153  155070  155069  155152  165825  165824+
+         165929  165930  160006  159837  160004  160007  151724  151641+
+         151640  151723  169496  169327  169494  169497
CHEXA      45351       4  155154  155071  155070  155153  165650  165649+
+         165824  165825  160008  159839  160006  160009  151725  151642+
+         151641  151724  169498  169329  169496  169499
CHEXA      45352       4  155155  155072  155071  155154  165462  165461+
+         165649  165650  160010  159841  160008  160011  151726  151643+
+         151642  151725  169500  169331  169498  169501
CHEXA      45353       4  155156  155073  155072  155155  165265  165264+
+         165461  165462  160012  159843  160010  160013  151727  151644+
+         151643  151726  169502  169333  169500  169503
CHEXA      45354       4  155157  155074  155073  155156  165062  165061+
+         165264  165265  160014  159845  160012  160015  151728  151645+
+         151644  151727  169504  169335  169502  169505
CHEXA      45355       4  155158  155075  155074  155157  164858  164857+
+         165061  165062  160016  159847  160014  160017  151729  151646+
+         151645  151728  169506  169337  169504  169507
CHEXA      45356       4  155159  155076  155075  155158  164646  164645+
+         164857  164858  160018  159849  160016  160019  151730  151647+
+         151646  151729  169508  169339  169506  169509
CHEXA      45357       4  155160  155077  155076  155159  164430  164429+
+         164645  164646  160020  159851  160018  160021  151731  151648+
+         151647  151730  169510  169341  169508  169511
CHEXA      45358       4  155161  155078  155077  155160  164206  164205+
+         164429  164430  160022  159853  160020  160023  151732  151649+
+         151648  151731  169512  169343  169510  169513
CHEXA      45359       4  155080  155079  155078  155161  163976  163975+
+         164205  164206  159858  159855  160022  160024  151651  151650+
+         151649  151732  169348  169345  169512  169514
CHEXA      45360       4  155162  155081  155080  155161  164207  163977+
+         163976  164206  160025  159860  160024  160026  151733  151652+
+         151651  151732  169515  169350  169514  169516
CHEXA      45361       4  155163  155082  155081  155162  164208  163978+
+         163977  164207  160027  159862  160025  160028  151734  151653+
+         151652  151733  169517  169352  169515  169518
CHEXA      45362       4  155164  155083  155082  155163  164209  163979+
+         163978  164208  160029  159864  160027  160030  151735  151654+
+         151653  151734  169519  169354  169517  169520
CHEXA      45363       4  155165  155084  155083  155164  164210  163980+
+         163979  164209  160031  159866  160029  160032  151736  151655+
+         151654  151735  169521  169356  169519  169522
CHEXA      45364       4  155166  155085  155084  155165  164211  163981+
+         163980  164210  160033  159868  160031  160034  151737  151656+
+         151655  151736  169523  169358  169521  169524
CHEXA      45365       4  155167  155086  155085  155166  164212  163982+
+         163981  164211  160035  159870  160033  160036  151738  151657+
+         151656  151737  169525  169360  169523  169526
CHEXA      45366       4  155168  155087  155086  155167  164213  163983+
+         163982  164212  160037  159872  160035  160038  151739  151658+
+         151657  151738  169527  169362  169525  169528
CHEXA      45367       4  155169  155088  155087  155168  164214  163984+
+         163983  164213  160039  159874  160037  160040  151740  151659+
+         151658  151739  169529  169364  169527  169530
CHEXA      45368       4  155170  155089  155088  155169  164215  163985+
+         163984  164214  160041  159876  160039  160042  151741  151660+
+         151659  151740  169531  169366  169529  169532
CHEXA      45369       4  155171  155090  155089  155170  164216  163986+
+         163985  164215  160043  159878  160041  160044  151742  151661+
+         151660  151741  169533  169368  169531  169534
CHEXA      45370       4  155172  155091  155090  155171  164217  163987+
+         163986  164216  160045  159880  160043  160046  151743  151662+
+         151661  151742  169535  169370  169533  169536
CHEXA      45371       4  155173  155092  155091  155172  164218  163988+
+         163987  164217  160047  159882  160045  160048  151744  151663+
+         151662  151743  169537  169372  169535  169538
CHEXA      45372       4  155174  155093  155092  155173  164219  163989+
+         163988  164218  160049  159884  160047  160050  151745  151664+
+         151663  151744  169539  169374  169537  169540
CHEXA      45373       4  155175  155094  155093  155174  164220  163990+
+         163989  164219  160051  159886  160049  160052  151746  151665+
+         151664  151745  169541  169376  169539  169542
CHEXA      45374       4  155176  155095  155094  155175  164221  163991+
+         163990  164220  160053  159888  160051  160054  151747  151666+
+         151665  151746  169543  169378  169541  169544
CHEXA      45375       4  155177  155096  155095  155176  164222  163992+
+         163991  164221  160055  159890  160053  160056  151748  151667+
+         151666  151747  169545  169380  169543  169546
CHEXA      45376       4  155178  155097  155096  155177  164223  163993+
+         163992  164222  160057  159892  160055  160058  151749  151668+
+         151667  151748  169547  169382  169545  169548
CHEXA      45377       4  155179  155098  155097  155178  164224  163994+
+         163993  164223  160059  159894  160057  160060  151750  151669+
+         151668  151749  169549  169384  169547  169550
CHEXA      45378       4  155180  155099  155098  155179  164225  163995+
+         163994  164224  160061  159896  160059  160062  151751  151670+
+         151669  151750  169551  169386  169549  169552
CHEXA      45379       4  155181  155100  155099  155180  164226  163996+
+         163995  164225  160063  159898  160061  160064  151752  151671+
+         151670  151751  169553  169388  169551  169554
CHEXA      45380       4  155182  155101  155100  155181  164227  163997+
+         163996  164226  160065  159900  160063  160066  151753  151672+
+         151671  151752  169555  169390  169553  169556
CHEXA      45381       4  155103  155102  155101  155182  164228  163998+
+         163997  164227  159905  159902  160065  160067  151674  151673+
+         151672  151753  169395  169392  169555  169557
CHEXA      45382       4  155183  155104  155103  155182  164451  164452+
+         164228  164227  160068  159907  160067  160069  151754  151675+
+         151674  151753  169558  169397  169557  169559
CHEXA      45383       4  155184  155105  155104  155183  164667  164668+
+         164452  164451  160070  159909  160068  160071  151755  151676+
+         151675  151754  169560  169399  169558  169561
CHEXA      45384       4  155185  155106  155105  155184  164879  164880+
+         164668  164667  160072  159911  160070  160073  151756  151677+
+         151676  151755  169562  169401  169560  169563
CHEXA      45385       4  155186  155107  155106  155185  165084  165085+
+         164880  164879  160074  159913  160072  160075  151757  151678+
+         151677  151756  169564  169403  169562  169565
CHEXA      45386       4  155187  155108  155107  155186  165287  165288+
+         165085  165084  160076  159915  160074  160077  151758  151679+
+         151678  151757  169566  169405  169564  169567
CHEXA      45387       4  155188  155109  155108  155187  165484  165485+
+         165288  165287  160078  159917  160076  160079  151759  151680+
+         151679  151758  169568  169407  169566  169569
CHEXA      45388       4  155189  155110  155109  155188  165672  165673+
+         165485  165484  160080  159919  160078  160081  151760  151681+
+         151680  151759  169570  169409  169568  169571
CHEXA      45389       4  155190  155111  155110  155189  165846  165847+
+         165673  165672  160082  159921  160080  160083  151761  151682+
+         151681  151760  169572  169411  169570  169573
CHEXA      45390       4  155191  155112  155111  155190  165891  165890+
+         165847  165846  160084  159923  160082  160085  151762  151683+
+         151682  151761  169574  169413  169572  169575
CHEXA      45391       4  155192  155113  155112  155191  165740  165739+
+         165890  165891  160086  159925  160084  160087  151763  151684+
+         151683  151762  169576  169415  169574  169577
CHEXA      45392       4  155193  155114  155113  155192  165557  165556+
+         165739  165740  160088  159927  160086  160089  151764  151685+
+         151684  151763  169578  169417  169576  169579
CHEXA      45393       4  155194  155115  155114  155193  165365  165364+
+         165556  165557  160090  159929  160088  160091  151765  151686+
+         151685  151764  169580  169419  169578  169581
CHEXA      45394       4  155195  155116  155115  155194  165167  165166+
+         165364  165365  160092  159931  160090  160093  151766  151687+
+         151686  151765  169582  169421  169580  169583
CHEXA      45395       4  155196  155117  155116  155195  164964  164963+
+         165166  165167  160094  159933  160092  160095  151767  151688+
+         151687  151766  169584  169423  169582  169585
CHEXA      45396       4  155197  155118  155117  155196  164758  164757+
+         164963  164964  160096  159935  160094  160097  151768  151689+
+         151688  151767  169586  169425  169584  169587
CHEXA      45397       4  155198  155119  155118  155197  164546  164545+
+         164757  164758  160098  159937  160096  160099  151769  151690+
+         151689  151768  169588  169427  169586  169589
CHEXA      45398       4  155199  155120  155119  155198  164328  164327+
+         164545  164546  160100  159939  160098  160101  151770  151691+
+         151690  151769  169590  169429  169588  169591
CHEXA      45399       4  155122  155121  155120  155199  164103  164102+
+         164327  164328  159943  159941  160100  160102  151693  151692+
+         151691  151770  169433  169431  169590  169592
CHEXA      45400       4  155123  155122  155199  155200  164104  164103+
+         164328  164329  159946  160102  160103  160104  151694  151693+
+         151770  151771  169436  169592  169593  169594
CHEXA      45401       4  155201  155124  155123  155200  164330  164105+
+         164104  164329  160105  159948  160104  160106  151772  151695+
+         151694  151771  169595  169438  169594  169596
CHEXA      45402       4  155202  155125  155124  155201  164331  164106+
+         164105  164330  160107  159950  160105  160108  151773  151696+
+         151695  151772  169597  169440  169595  169598
CHEXA      45403       4  155203  155126  155125  155202  164332  164107+
+         164106  164331  160109  159952  160107  160110  151774  151697+
+         151696  151773  169599  169442  169597  169600
CHEXA      45404       4  155204  155127  155126  155203  164333  164108+
+         164107  164332  160111  159954  160109  160112  151775  151698+
+         151697  151774  169601  169444  169599  169602
CHEXA      45405       4  155205  155128  155127  155204  164334  164109+
+         164108  164333  160113  159956  160111  160114  151776  151699+
+         151698  151775  169603  169446  169601  169604
CHEXA      45406       4  155206  155129  155128  155205  164335  164110+
+         164109  164334  160115  159958  160113  160116  151777  151700+
+         151699  151776  169605  169448  169603  169606
CHEXA      45407       4  155207  155130  155129  155206  164336  164111+
+         164110  164335  160117  159960  160115  160118  151778  151701+
+         151700  151777  169607  169450  169605  169608
CHEXA      45408       4  155208  155131  155130  155207  164337  164112+
+         164111  164336  160119  159962  160117  160120  151779  151702+
+         151701  151778  169609  169452  169607  169610
CHEXA      45409       4  155209  155132  155131  155208  164338  164113+
+         164112  164337  160121  159964  160119  160122  151780  151703+
+         151702  151779  169611  169454  169609  169612
CHEXA      45410       4  155210  155133  155132  155209  164339  164114+
+         164113  164338  160123  159966  160121  160124  151781  151704+
+         151703  151780  169613  169456  169611  169614
CHEXA      45411       4  155211  155134  155133  155210  164340  164115+
+         164114  164339  160125  159968  160123  160126  151782  151705+
+         151704  151781  169615  169458  169613  169616
CHEXA      45412       4  155212  155135  155134  155211  164341  164116+
+         164115  164340  160127  159970  160125  160128  151783  151706+
+         151705  151782  169617  169460  169615  169618
CHEXA      45413       4  155213  155136  155135  155212  164342  164117+
+         164116  164341  160129  159972  160127  160130  151784  151707+
+         151706  151783  169619  169462  169617  169620
CHEXA      45414       4  155214  155137  155136  155213  164343  164118+
+         164117  164342  160131  159974  160129  160132  151785  151708+
+         151707  151784  169621  169464  169619  169622
CHEXA      45415       4  155215  155138  155137  155214  164344  164119+
+         164118  164343  160133  159976  160131  160134  151786  151709+
+         151708  151785  169623  169466  169621  169624
CHEXA      45416       4  155216  155139  155138  155215  164345  164120+
+         164119  164344  160135  159978  160133  160136  151787  151710+
+         151709  151786  169625  169468  169623  169626
CHEXA      45417       4  155217  155140  155139  155216  164346  164121+
+         164120  164345  160137  159980  160135  160138  151788  151711+
+         151710  151787  169627  169470  169625  169628
CHEXA      45418       4  155142  155141  155140  155217  164347  164122+
+         164121  164346  159985  159982  160137  160139  151713  151712+
+         151711  151788  169475  169472  169627  169629
CHEXA      45419       4  155218  155143  155142  155217  164564  164565+
+         164347  164346  160140  159987  160139  160141  151789  151714+
+         151713  151788  169630  169477  169629  169631
CHEXA      45420       4  155219  155144  155143  155218  164776  164777+
+         164565  164564  160142  159989  160140  160143  151790  151715+
+         151714  151789  169632  169479  169630  169633
CHEXA      45421       4  155220  155145  155144  155219  164982  164983+
+         164777  164776  160144  159991  160142  160145  151791  151716+
+         151715  151790  169634  169481  169632  169635
CHEXA      45422       4  155221  155146  155145  155220  165185  165186+
+         164983  164982  160146  159993  160144  160147  151792  151717+
+         151716  151791  169636  169483  169634  169637
CHEXA      45423       4  155222  155147  155146  155221  165384  165385+
+         165186  165185  160148  159995  160146  160149  151793  151718+
+         151717  151792  169638  169485  169636  169639
CHEXA      45424       4  155223  155148  155147  155222  165577  165578+
+         165385  165384  160150  159997  160148  160151  151794  151719+
+         151718  151793  169640  169487  169638  169641
CHEXA      45425       4  155224  155149  155148  155223  165760  165761+
+         165578  165577  160152  159999  160150  160153  151795  151720+
+         151719  151794  169642  169489  169640  169643
CHEXA      45426       4  155225  155150  155149  155224  165911  165912+
+         165761  165760  160154  160001  160152  160155  151796  151721+
+         151720  151795  169644  169491  169642  169645
CHEXA      45427       4  155226  155151  155150  155225  165959  165960+
+         165912  165911  160156  160003  160154  160157  151797  151722+
+         151721  151796  169646  169493  169644  169647
CHEXA      45428       4  155227  155152  155151  155226  165931  165930+
+         165960  165959  160158  160005  160156  160159  151798  151723+
+         151722  151797  169648  169495  169646  169649
CHEXA      45429       4  155228  155153  155152  155227  165826  165825+
+         165930  165931  160160  160007  160158  160161  151799  151724+
+         151723  151798  169650  169497  169648  169651
CHEXA      45430       4  155229  155154  155153  155228  165651  165650+
+         165825  165826  160162  160009  160160  160163  151800  151725+
+         151724  151799  169652  169499  169650  169653
CHEXA      45431       4  155230  155155  155154  155229  165463  165462+
+         165650  165651  160164  160011  160162  160165  151801  151726+
+         151725  151800  169654  169501  169652  169655
CHEXA      45432       4  155231  155156  155155  155230  165266  165265+
+         165462  165463  160166  160013  160164  160167  151802  151727+
+         151726  151801  169656  169503  169654  169657
CHEXA      45433       4  155232  155157  155156  155231  165063  165062+
+         165265  165266  160168  160015  160166  160169  151803  151728+
+         151727  151802  169658  169505  169656  169659
CHEXA      45434       4  155233  155158  155157  155232  164859  164858+
+         165062  165063  160170  160017  160168  160171  151804  151729+
+         151728  151803  169660  169507  169658  169661
CHEXA      45435       4  155234  155159  155158  155233  164647  164646+
+         164858  164859  160172  160019  160170  160173  151805  151730+
+         151729  151804  169662  169509  169660  169663
CHEXA      45436       4  155235  155160  155159  155234  164431  164430+
+         164646  164647  160174  160021  160172  160175  151806  151731+
+         151730  151805  169664  169511  169662  169665
CHEXA      45437       4  155162  155161  155160  155235  164207  164206+
+         164430  164431  160026  160023  160174  160176  151733  151732+
+         151731  151806  169516  169513  169664  169666
CHEXA      45438       4  155236  155163  155162  155235  164432  164208+
+         164207  164431  160177  160028  160176  160178  151807  151734+
+         151733  151806  169667  169518  169666  169668
CHEXA      45439       4  155237  155164  155163  155236  164433  164209+
+         164208  164432  160179  160030  160177  160180  151808  151735+
+         151734  151807  169669  169520  169667  169670
CHEXA      45440       4  155238  155165  155164  155237  164434  164210+
+         164209  164433  160181  160032  160179  160182  151809  151736+
+         151735  151808  169671  169522  169669  169672
CHEXA      45441       4  155239  155166  155165  155238  164435  164211+
+         164210  164434  160183  160034  160181  160184  151810  151737+
+         151736  151809  169673  169524  169671  169674
CHEXA      45442       4  155240  155167  155166  155239  164436  164212+
+         164211  164435  160185  160036  160183  160186  151811  151738+
+         151737  151810  169675  169526  169673  169676
CHEXA      45443       4  155241  155168  155167  155240  164437  164213+
+         164212  164436  160187  160038  160185  160188  151812  151739+
+         151738  151811  169677  169528  169675  169678
CHEXA      45444       4  155242  155169  155168  155241  164438  164214+
+         164213  164437  160189  160040  160187  160190  151813  151740+
+         151739  151812  169679  169530  169677  169680
CHEXA      45445       4  155243  155170  155169  155242  164439  164215+
+         164214  164438  160191  160042  160189  160192  151814  151741+
+         151740  151813  169681  169532  169679  169682
CHEXA      45446       4  155244  155171  155170  155243  164440  164216+
+         164215  164439  160193  160044  160191  160194  151815  151742+
+         151741  151814  169683  169534  169681  169684
CHEXA      45447       4  155245  155172  155171  155244  164441  164217+
+         164216  164440  160195  160046  160193  160196  151816  151743+
+         151742  151815  169685  169536  169683  169686
CHEXA      45448       4  155246  155173  155172  155245  164442  164218+
+         164217  164441  160197  160048  160195  160198  151817  151744+
+         151743  151816  169687  169538  169685  169688
CHEXA      45449       4  155247  155174  155173  155246  164443  164219+
+         164218  164442  160199  160050  160197  160200  151818  151745+
+         151744  151817  169689  169540  169687  169690
CHEXA      45450       4  155248  155175  155174  155247  164444  164220+
+         164219  164443  160201  160052  160199  160202  151819  151746+
+         151745  151818  169691  169542  169689  169692
CHEXA      45451       4  155249  155176  155175  155248  164445  164221+
+         164220  164444  160203  160054  160201  160204  151820  151747+
+         151746  151819  169693  169544  169691  169694
CHEXA      45452       4  155250  155177  155176  155249  164446  164222+
+         164221  164445  160205  160056  160203  160206  151821  151748+
+         151747  151820  169695  169546  169693  169696
CHEXA      45453       4  155251  155178  155177  155250  164447  164223+
+         164222  164446  160207  160058  160205  160208  151822  151749+
+         151748  151821  169697  169548  169695  169698
CHEXA      45454       4  155252  155179  155178  155251  164448  164224+
+         164223  164447  160209  160060  160207  160210  151823  151750+
+         151749  151822  169699  169550  169697  169700
CHEXA      45455       4  155253  155180  155179  155252  164449  164225+
+         164224  164448  160211  160062  160209  160212  151824  151751+
+         151750  151823  169701  169552  169699  169702
CHEXA      45456       4  155254  155181  155180  155253  164450  164226+
+         164225  164449  160213  160064  160211  160214  151825  151752+
+         151751  151824  169703  169554  169701  169704
CHEXA      45457       4  155183  155182  155181  155254  164451  164227+
+         164226  164450  160069  160066  160213  160215  151754  151753+
+         151752  151825  169559  169556  169703  169705
CHEXA      45458       4  155255  155184  155183  155254  164666  164667+
+         164451  164450  160216  160071  160215  160217  151826  151755+
+         151754  151825  169706  169561  169705  169707
CHEXA      45459       4  155256  155185  155184  155255  164878  164879+
+         164667  164666  160218  160073  160216  160219  151827  151756+
+         151755  151826  169708  169563  169706  169709
CHEXA      45460       4  155257  155186  155185  155256  165083  165084+
+         164879  164878  160220  160075  160218  160221  151828  151757+
+         151756  151827  169710  169565  169708  169711
CHEXA      45461       4  155258  155187  155186  155257  165286  165287+
+         165084  165083  160222  160077  160220  160223  151829  151758+
+         151757  151828  169712  169567  169710  169713
CHEXA      45462       4  155259  155188  155187  155258  165483  165484+
+         165287  165286  160224  160079  160222  160225  151830  151759+
+         151758  151829  169714  169569  169712  169715
CHEXA      45463       4  155260  155189  155188  155259  165671  165672+
+         165484  165483  160226  160081  160224  160227  151831  151760+
+         151759  151830  169716  169571  169714  169717
CHEXA      45464       4  155261  155190  155189  155260  165845  165846+
+         165672  165671  160228  160083  160226  160229  151832  151761+
+         151760  151831  169718  169573  169716  169719
CHEXA      45465       4  155262  155191  155190  155261  165892  165891+
+         165846  165845  160230  160085  160228  160231  151833  151762+
+         151761  151832  169720  169575  169718  169721
CHEXA      45466       4  155263  155192  155191  155262  165741  165740+
+         165891  165892  160232  160087  160230  160233  151834  151763+
+         151762  151833  169722  169577  169720  169723
CHEXA      45467       4  155264  155193  155192  155263  165558  165557+
+         165740  165741  160234  160089  160232  160235  151835  151764+
+         151763  151834  169724  169579  169722  169725
CHEXA      45468       4  155265  155194  155193  155264  165366  165365+
+         165557  165558  160236  160091  160234  160237  151836  151765+
+         151764  151835  169726  169581  169724  169727
CHEXA      45469       4  155266  155195  155194  155265  165168  165167+
+         165365  165366  160238  160093  160236  160239  151837  151766+
+         151765  151836  169728  169583  169726  169729
CHEXA      45470       4  155267  155196  155195  155266  164965  164964+
+         165167  165168  160240  160095  160238  160241  151838  151767+
+         151766  151837  169730  169585  169728  169731
CHEXA      45471       4  155268  155197  155196  155267  164759  164758+
+         164964  164965  160242  160097  160240  160243  151839  151768+
+         151767  151838  169732  169587  169730  169733
CHEXA      45472       4  155269  155198  155197  155268  164547  164546+
+         164758  164759  160244  160099  160242  160245  151840  151769+
+         151768  151839  169734  169589  169732  169735
CHEXA      45473       4  155200  155199  155198  155269  164329  164328+
+         164546  164547  160103  160101  160244  160246  151771  151770+
+         151769  151840  169593  169591  169734  169736
CHEXA      45474       4  155201  155200  155269  155270  164330  164329+
+         164547  164548  160106  160246  160247  160248  151772  151771+
+         151840  151841  169596  169736  169737  169738
CHEXA      45475       4  155271  155202  155201  155270  164549  164331+
+         164330  164548  160249  160108  160248  160250  151842  151773+
+         151772  151841  169739  169598  169738  169740
CHEXA      45476       4  155272  155203  155202  155271  164550  164332+
+         164331  164549  160251  160110  160249  160252  151843  151774+
+         151773  151842  169741  169600  169739  169742
CHEXA      45477       4  155273  155204  155203  155272  164551  164333+
+         164332  164550  160253  160112  160251  160254  151844  151775+
+         151774  151843  169743  169602  169741  169744
CHEXA      45478       4  155274  155205  155204  155273  164552  164334+
+         164333  164551  160255  160114  160253  160256  151845  151776+
+         151775  151844  169745  169604  169743  169746
CHEXA      45479       4  155275  155206  155205  155274  164553  164335+
+         164334  164552  160257  160116  160255  160258  151846  151777+
+         151776  151845  169747  169606  169745  169748
CHEXA      45480       4  155276  155207  155206  155275  164554  164336+
+         164335  164553  160259  160118  160257  160260  151847  151778+
+         151777  151846  169749  169608  169747  169750
CHEXA      45481       4  155277  155208  155207  155276  164555  164337+
+         164336  164554  160261  160120  160259  160262  151848  151779+
+         151778  151847  169751  169610  169749  169752
CHEXA      45482       4  155278  155209  155208  155277  164556  164338+
+         164337  164555  160263  160122  160261  160264  151849  151780+
+         151779  151848  169753  169612  169751  169754
CHEXA      45483       4  155279  155210  155209  155278  164557  164339+
+         164338  164556  160265  160124  160263  160266  151850  151781+
+         151780  151849  169755  169614  169753  169756
CHEXA      45484       4  155280  155211  155210  155279  164558  164340+
+         164339  164557  160267  160126  160265  160268  151851  151782+
+         151781  151850  169757  169616  169755  169758
CHEXA      45485       4  155281  155212  155211  155280  164559  164341+
+         164340  164558  160269  160128  160267  160270  151852  151783+
+         151782  151851  169759  169618  169757  169760
CHEXA      45486       4  155282  155213  155212  155281  164560  164342+
+         164341  164559  160271  160130  160269  160272  151853  151784+
+         151783  151852  169761  169620  169759  169762
CHEXA      45487       4  155283  155214  155213  155282  164561  164343+
+         164342  164560  160273  160132  160271  160274  151854  151785+
+         151784  151853  169763  169622  169761  169764
CHEXA      45488       4  155284  155215  155214  155283  164562  164344+
+         164343  164561  160275  160134  160273  160276  151855  151786+
+         151785  151854  169765  169624  169763  169766
CHEXA      45489       4  155285  155216  155215  155284  164563  164345+
+         164344  164562  160277  160136  160275  160278  151856  151787+
+         151786  151855  169767  169626  169765  169768
CHEXA      45490       4  155218  155217  155216  155285  164564  164346+
+         164345  164563  160141  160138  160277  160279  151789  151788+
+         151787  151856  169631  169628  169767  169769
CHEXA      45491       4  155286  155219  155218  155285  164775  164776+
+         164564  164563  160280  160143  160279  160281  151857  151790+
+         151789  151856  169770  169633  169769  169771
CHEXA      45492       4  155287  155220  155219  155286  164981  164982+
+         164776  164775  160282  160145  160280  160283  151858  151791+
+         151790  151857  169772  169635  169770  169773
CHEXA      45493       4  155288  155221  155220  155287  165184  165185+
+         164982  164981  160284  160147  160282  160285  151859  151792+
+         151791  151858  169774  169637  169772  169775
CHEXA      45494       4  155289  155222  155221  155288  165383  165384+
+         165185  165184  160286  160149  160284  160287  151860  151793+
+         151792  151859  169776  169639  169774  169777
CHEXA      45495       4  155290  155223  155222  155289  165576  165577+
+         165384  165383  160288  160151  160286  160289  151861  151794+
+         151793  151860  169778  169641  169776  169779
CHEXA      45496       4  155291  155224  155223  155290  165759  165760+
+         165577  165576  160290  160153  160288  160291  151862  151795+
+         151794  151861  169780  169643  169778  169781
CHEXA      45497       4  155292  155225  155224  155291  165910  165911+
+         165760  165759  160292  160155  160290  160293  151863  151796+
+         151795  151862  169782  169645  169780  169783
CHEXA      45498       4  155293  155226  155225  155292  165958  165959+
+         165911  165910  160294  160157  160292  160295  151864  151797+
+         151796  151863  169784  169647  169782  169785
CHEXA      45499       4  155294  155227  155226  155293  165932  165931+
+         165959  165958  160296  160159  160294  160297  151865  151798+
+         151797  151864  169786  169649  169784  169787
CHEXA      45500       4  155295  155228  155227  155294  165827  165826+
+         165931  165932  160298  160161  160296  160299  151866  151799+
+         151798  151865  169788  169651  169786  169789
CHEXA      45501       4  155296  155229  155228  155295  165652  165651+
+         165826  165827  160300  160163  160298  160301  151867  151800+
+         151799  151866  169790  169653  169788  169791
CHEXA      45502       4  155297  155230  155229  155296  165464  165463+
+         165651  165652  160302  160165  160300  160303  151868  151801+
+         151800  151867  169792  169655  169790  169793
CHEXA      45503       4  155298  155231  155230  155297  165267  165266+
+         165463  165464  160304  160167  160302  160305  151869  151802+
+         151801  151868  169794  169657  169792  169795
CHEXA      45504       4  155299  155232  155231  155298  165064  165063+
+         165266  165267  160306  160169  160304  160307  151870  151803+
+         151802  151869  169796  169659  169794  169797
CHEXA      45505       4  155300  155233  155232  155299  164860  164859+
+         165063  165064  160308  160171  160306  160309  151871  151804+
+         151803  151870  169798  169661  169796  169799
CHEXA      45506       4  155301  155234  155233  155300  164648  164647+
+         164859  164860  160310  160173  160308  160311  151872  151805+
+         151804  151871  169800  169663  169798  169801
CHEXA      45507       4  155236  155235  155234  155301  164432  164431+
+         164647  164648  160178  160175  160310  160312  151807  151806+
+         151805  151872  169668  169665  169800  169802
CHEXA      45508       4  155302  155237  155236  155301  164649  164433+
+         164432  164648  160313  160180  160312  160314  151873  151808+
+         151807  151872  169803  169670  169802  169804
CHEXA      45509       4  155303  155238  155237  155302  164650  164434+
+         164433  164649  160315  160182  160313  160316  151874  151809+
+         151808  151873  169805  169672  169803  169806
CHEXA      45510       4  155304  155239  155238  155303  164651  164435+
+         164434  164650  160317  160184  160315  160318  151875  151810+
+         151809  151874  169807  169674  169805  169808
CHEXA      45511       4  155305  155240  155239  155304  164652  164436+
+         164435  164651  160319  160186  160317  160320  151876  151811+
+         151810  151875  169809  169676  169807  169810
CHEXA      45512       4  155306  155241  155240  155305  164653  164437+
+         164436  164652  160321  160188  160319  160322  151877  151812+
+         151811  151876  169811  169678  169809  169812
CHEXA      45513       4  155307  155242  155241  155306  164654  164438+
+         164437  164653  160323  160190  160321  160324  151878  151813+
+         151812  151877  169813  169680  169811  169814
CHEXA      45514       4  155308  155243  155242  155307  164655  164439+
+         164438  164654  160325  160192  160323  160326  151879  151814+
+         151813  151878  169815  169682  169813  169816
CHEXA      45515       4  155309  155244  155243  155308  164656  164440+
+         164439  164655  160327  160194  160325  160328  151880  151815+
+         151814  151879  169817  169684  169815  169818
CHEXA      45516       4  155310  155245  155244  155309  164657  164441+
+         164440  164656  160329  160196  160327  160330  151881  151816+
+         151815  151880  169819  169686  169817  169820
CHEXA      45517       4  155311  155246  155245  155310  164658  164442+
+         164441  164657  160331  160198  160329  160332  151882  151817+
+         151816  151881  169821  169688  169819  169822
CHEXA      45518       4  155312  155247  155246  155311  164659  164443+
+         164442  164658  160333  160200  160331  160334  151883  151818+
+         151817  151882  169823  169690  169821  169824
CHEXA      45519       4  155313  155248  155247  155312  164660  164444+
+         164443  164659  160335  160202  160333  160336  151884  151819+
+         151818  151883  169825  169692  169823  169826
CHEXA      45520       4  155314  155249  155248  155313  164661  164445+
+         164444  164660  160337  160204  160335  160338  151885  151820+
+         151819  151884  169827  169694  169825  169828
CHEXA      45521       4  155315  155250  155249  155314  164662  164446+
+         164445  164661  160339  160206  160337  160340  151886  151821+
+         151820  151885  169829  169696  169827  169830
CHEXA      45522       4  155316  155251  155250  155315  164663  164447+
+         164446  164662  160341  160208  160339  160342  151887  151822+
+         151821  151886  169831  169698  169829  169832
CHEXA      45523       4  155317  155252  155251  155316  164664  164448+
+         164447  164663  160343  160210  160341  160344  151888  151823+
+         151822  151887  169833  169700  169831  169834
CHEXA      45524       4  155318  155253  155252  155317  164665  164449+
+         164448  164664  160345  160212  160343  160346  151889  151824+
+         151823  151888  169835  169702  169833  169836
CHEXA      45525       4  155255  155254  155253  155318  164666  164450+
+         164449  164665  160217  160214  160345  160347  151826  151825+
+         151824  151889  169707  169704  169835  169837
CHEXA      45526       4  155319  155256  155255  155318  164877  164878+
+         164666  164665  160348  160219  160347  160349  151890  151827+
+         151826  151889  169838  169709  169837  169839
CHEXA      45527       4  155320  155257  155256  155319  165082  165083+
+         164878  164877  160350  160221  160348  160351  151891  151828+
+         151827  151890  169840  169711  169838  169841
CHEXA      45528       4  155321  155258  155257  155320  165285  165286+
+         165083  165082  160352  160223  160350  160353  151892  151829+
+         151828  151891  169842  169713  169840  169843
CHEXA      45529       4  155322  155259  155258  155321  165482  165483+
+         165286  165285  160354  160225  160352  160355  151893  151830+
+         151829  151892  169844  169715  169842  169845
CHEXA      45530       4  155323  155260  155259  155322  165670  165671+
+         165483  165482  160356  160227  160354  160357  151894  151831+
+         151830  151893  169846  169717  169844  169847
CHEXA      45531       4  155324  155261  155260  155323  165844  165845+
+         165671  165670  160358  160229  160356  160359  151895  151832+
+         151831  151894  169848  169719  169846  169849
CHEXA      45532       4  155325  155262  155261  155324  165893  165892+
+         165845  165844  160360  160231  160358  160361  151896  151833+
+         151832  151895  169850  169721  169848  169851
CHEXA      45533       4  155326  155263  155262  155325  165742  165741+
+         165892  165893  160362  160233  160360  160363  151897  151834+
+         151833  151896  169852  169723  169850  169853
CHEXA      45534       4  155327  155264  155263  155326  165559  165558+
+         165741  165742  160364  160235  160362  160365  151898  151835+
+         151834  151897  169854  169725  169852  169855
CHEXA      45535       4  155328  155265  155264  155327  165367  165366+
+         165558  165559  160366  160237  160364  160367  151899  151836+
+         151835  151898  169856  169727  169854  169857
CHEXA      45536       4  155329  155266  155265  155328  165169  165168+
+         165366  165367  160368  160239  160366  160369  151900  151837+
+         151836  151899  169858  169729  169856  169859
CHEXA      45537       4  155330  155267  155266  155329  164966  164965+
+         165168  165169  160370  160241  160368  160371  151901  151838+
+         151837  151900  169860  169731  169858  169861
CHEXA      45538       4  155331  155268  155267  155330  164760  164759+
+         164965  164966  160372  160243  160370  160373  151902  151839+
+         151838  151901  169862  169733  169860  169863
CHEXA      45539       4  155270  155269  155268  155331  164548  164547+
+         164759  164760  160247  160245  160372  160374  151841  151840+
+         151839  151902  169737  169735  169862  169864
CHEXA      45540       4  155271  155270  155331  155332  164549  164548+
+         164760  164761  160250  160374  160375  160376  151842  151841+
+         151902  151903  169740  169864  169865  169866
CHEXA      45541       4  155333  155272  155271  155332  164762  164550+
+         164549  164761  160377  160252  160376  160378  151904  151843+
+         151842  151903  169867  169742  169866  169868
CHEXA      45542       4  155334  155273  155272  155333  164763  164551+
+         164550  164762  160379  160254  160377  160380  151905  151844+
+         151843  151904  169869  169744  169867  169870
CHEXA      45543       4  155335  155274  155273  155334  164764  164552+
+         164551  164763  160381  160256  160379  160382  151906  151845+
+         151844  151905  169871  169746  169869  169872
CHEXA      45544       4  155336  155275  155274  155335  164765  164553+
+         164552  164764  160383  160258  160381  160384  151907  151846+
+         151845  151906  169873  169748  169871  169874
CHEXA      45545       4  155337  155276  155275  155336  164766  164554+
+         164553  164765  160385  160260  160383  160386  151908  151847+
+         151846  151907  169875  169750  169873  169876
CHEXA      45546       4  155338  155277  155276  155337  164767  164555+
+         164554  164766  160387  160262  160385  160388  151909  151848+
+         151847  151908  169877  169752  169875  169878
CHEXA      45547       4  155339  155278  155277  155338  164768  164556+
+         164555  164767  160389  160264  160387  160390  151910  151849+
+         151848  151909  169879  169754  169877  169880
CHEXA      45548       4  155340  155279  155278  155339  164769  164557+
+         164556  164768  160391  160266  160389  160392  151911  151850+
+         151849  151910  169881  169756  169879  169882
CHEXA      45549       4  155341  155280  155279  155340  164770  164558+
+         164557  164769  160393  160268  160391  160394  151912  151851+
+         151850  151911  169883  169758  169881  169884
CHEXA      45550       4  155342  155281  155280  155341  164771  164559+
+         164558  164770  160395  160270  160393  160396  151913  151852+
+         151851  151912  169885  169760  169883  169886
CHEXA      45551       4  155343  155282  155281  155342  164772  164560+
+         164559  164771  160397  160272  160395  160398  151914  151853+
+         151852  151913  169887  169762  169885  169888
CHEXA      45552       4  155344  155283  155282  155343  164773  164561+
+         164560  164772  160399  160274  160397  160400  151915  151854+
+         151853  151914  169889  169764  169887  169890
CHEXA      45553       4  155345  155284  155283  155344  164774  164562+
+         164561  164773  160401  160276  160399  160402  151916  151855+
+         151854  151915  169891  169766  169889  169892
CHEXA      45554       4  155286  155285  155284  155345  164775  164563+
+         164562  164774  160281  160278  160401  160403  151857  151856+
+         151855  151916  169771  169768  169891  169893
CHEXA      45555       4  155346  155287  155286  155345  164980  164981+
+         164775  164774  160404  160283  160403  160405  151917  151858+
+         151857  151916  169894  169773  169893  169895
CHEXA      45556       4  155347  155288  155287  155346  165183  165184+
+         164981  164980  160406  160285  160404  160407  151918  151859+
+         151858  151917  169896  169775  169894  169897
CHEXA      45557       4  155348  155289  155288  155347  165382  165383+
+         165184  165183  160408  160287  160406  160409  151919  151860+
+         151859  151918  169898  169777  169896  169899
CHEXA      45558       4  155349  155290  155289  155348  165575  165576+
+         165383  165382  160410  160289  160408  160411  151920  151861+
+         151860  151919  169900  169779  169898  169901
CHEXA      45559       4  155350  155291  155290  155349  165758  165759+
+         165576  165575  160412  160291  160410  160413  151921  151862+
+         151861  151920  169902  169781  169900  169903
CHEXA      45560       4  155351  155292  155291  155350  165909  165910+
+         165759  165758  160414  160293  160412  160415  151922  151863+
+         151862  151921  169904  169783  169902  169905
CHEXA      45561       4  155352  155293  155292  155351  165957  165958+
+         165910  165909  160416  160295  160414  160417  151923  151864+
+         151863  151922  169906  169785  169904  169907
CHEXA      45562       4  155353  155294  155293  155352  165933  165932+
+         165958  165957  160418  160297  160416  160419  151924  151865+
+         151864  151923  169908  169787  169906  169909
CHEXA      45563       4  155354  155295  155294  155353  165828  165827+
+         165932  165933  160420  160299  160418  160421  151925  151866+
+         151865  151924  169910  169789  169908  169911
CHEXA      45564       4  155355  155296  155295  155354  165653  165652+
+         165827  165828  160422  160301  160420  160423  151926  151867+
+         151866  151925  169912  169791  169910  169913
CHEXA      45565       4  155356  155297  155296  155355  165465  165464+
+         165652  165653  160424  160303  160422  160425  151927  151868+
+         151867  151926  169914  169793  169912  169915
CHEXA      45566       4  155357  155298  155297  155356  165268  165267+
+         165464  165465  160426  160305  160424  160427  151928  151869+
+         151868  151927  169916  169795  169914  169917
CHEXA      45567       4  155358  155299  155298  155357  165065  165064+
+         165267  165268  160428  160307  160426  160429  151929  151870+
+         151869  151928  169918  169797  169916  169919
CHEXA      45568       4  155359  155300  155299  155358  164861  164860+
+         165064  165065  160430  160309  160428  160431  151930  151871+
+         151870  151929  169920  169799  169918  169921
CHEXA      45569       4  155302  155301  155300  155359  164649  164648+
+         164860  164861  160314  160311  160430  160432  151873  151872+
+         151871  151930  169804  169801  169920  169922
CHEXA      45570       4  155360  155303  155302  155359  164862  164650+
+         164649  164861  160433  160316  160432  160434  151931  151874+
+         151873  151930  169923  169806  169922  169924
CHEXA      45571       4  155361  155304  155303  155360  164863  164651+
+         164650  164862  160435  160318  160433  160436  151932  151875+
+         151874  151931  169925  169808  169923  169926
CHEXA      45572       4  155362  155305  155304  155361  164864  164652+
+         164651  164863  160437  160320  160435  160438  151933  151876+
+         151875  151932  169927  169810  169925  169928
CHEXA      45573       4  155363  155306  155305  155362  164865  164653+
+         164652  164864  160439  160322  160437  160440  151934  151877+
+         151876  151933  169929  169812  169927  169930
CHEXA      45574       4  155364  155307  155306  155363  164866  164654+
+         164653  164865  160441  160324  160439  160442  151935  151878+
+         151877  151934  169931  169814  169929  169932
CHEXA      45575       4  155365  155308  155307  155364  164867  164655+
+         164654  164866  160443  160326  160441  160444  151936  151879+
+         151878  151935  169933  169816  169931  169934
CHEXA      45576       4  155366  155309  155308  155365  164868  164656+
+         164655  164867  160445  160328  160443  160446  151937  151880+
+         151879  151936  169935  169818  169933  169936
CHEXA      45577       4  155367  155310  155309  155366  164869  164657+
+         164656  164868  160447  160330  160445  160448  151938  151881+
+         151880  151937  169937  169820  169935  169938
CHEXA      45578       4  155368  155311  155310  155367  164870  164658+
+         164657  164869  160449  160332  160447  160450  151939  151882+
+         151881  151938  169939  169822  169937  169940
CHEXA      45579       4  155369  155312  155311  155368  164871  164659+
+         164658  164870  160451  160334  160449  160452  151940  151883+
+         151882  151939  169941  169824  169939  169942
CHEXA      45580       4  155370  155313  155312  155369  164872  164660+
+         164659  164871  160453  160336  160451  160454  151941  151884+
+         151883  151940  169943  169826  169941  169944
CHEXA      45581       4  155371  155314  155313  155370  164873  164661+
+         164660  164872  160455  160338  160453  160456  151942  151885+
+         151884  151941  169945  169828  169943  169946
CHEXA      45582       4  155372  155315  155314  155371  164874  164662+
+         164661  164873  160457  160340  160455  160458  151943  151886+
+         151885  151942  169947  169830  169945  169948
CHEXA      45583       4  155373  155316  155315  155372  164875  164663+
+         164662  164874  160459  160342  160457  160460  151944  151887+
+         151886  151943  169949  169832  169947  169950
CHEXA      45584       4  155374  155317  155316  155373  164876  164664+
+         164663  164875  160461  160344  160459  160462  151945  151888+
+         151887  151944  169951  169834  169949  169952
CHEXA      45585       4  155319  155318  155317  155374  164877  164665+
+         164664  164876  160349  160346  160461  160463  151890  151889+
+         151888  151945  169839  169836  169951  169953
CHEXA      45586       4  155375  155320  155319  155374  165081  165082+
+         164877  164876  160464  160351  160463  160465  151946  151891+
+         151890  151945  169954  169841  169953  169955
CHEXA      45587       4  155376  155321  155320  155375  165284  165285+
+         165082  165081  160466  160353  160464  160467  151947  151892+
+         151891  151946  169956  169843  169954  169957
CHEXA      45588       4  155377  155322  155321  155376  165481  165482+
+         165285  165284  160468  160355  160466  160469  151948  151893+
+         151892  151947  169958  169845  169956  169959
CHEXA      45589       4  155378  155323  155322  155377  165669  165670+
+         165482  165481  160470  160357  160468  160471  151949  151894+
+         151893  151948  169960  169847  169958  169961
CHEXA      45590       4  155379  155324  155323  155378  165843  165844+
+         165670  165669  160472  160359  160470  160473  151950  151895+
+         151894  151949  169962  169849  169960  169963
CHEXA      45591       4  155380  155325  155324  155379  165894  165893+
+         165844  165843  160474  160361  160472  160475  151951  151896+
+         151895  151950  169964  169851  169962  169965
CHEXA      45592       4  155381  155326  155325  155380  165743  165742+
+         165893  165894  160476  160363  160474  160477  151952  151897+
+         151896  151951  169966  169853  169964  169967
CHEXA      45593       4  155382  155327  155326  155381  165560  165559+
+         165742  165743  160478  160365  160476  160479  151953  151898+
+         151897  151952  169968  169855  169966  169969
CHEXA      45594       4  155383  155328  155327  155382  165368  165367+
+         165559  165560  160480  160367  160478  160481  151954  151899+
+         151898  151953  169970  169857  169968  169971
CHEXA      45595       4  155384  155329  155328  155383  165170  165169+
+         165367  165368  160482  160369  160480  160483  151955  151900+
+         151899  151954  169972  169859  169970  169973
CHEXA      45596       4  155385  155330  155329  155384  164967  164966+
+         165169  165170  160484  160371  160482  160485  151956  151901+
+         151900  151955  169974  169861  169972  169975
CHEXA      45597       4  155332  155331  155330  155385  164761  164760+
+         164966  164967  160375  160373  160484  160486  151903  151902+
+         151901  151956  169865  169863  169974  169976
CHEXA      45598       4  155398  155387  155386  155397  165176  165177+
+         164974  164973  160489  160488  160487  160490  151957  151958+
+         151959  151960  169977  169978  169979  169980
CHEXA      45599       4  155399  155388  155387  155398  165374  165375+
+         165177  165176  160492  160491  160489  160493  151961  151962+
+         151958  151957  169981  169982  169977  169983
CHEXA      45600       4  155400  155389  155388  155399  165566  165567+
+         165375  165374  160495  160494  160492  160496  151963  151964+
+         151962  151961  169984  169985  169981  169986
CHEXA      45601       4  155401  155390  155389  155400  165749  165750+
+         165567  165566  160498  160497  160495  160499  151965  151966+
+         151964  151963  169987  169988  169984  169989
CHEXA      45602       4  155402  155391  155390  155401  165900  165901+
+         165750  165749  160501  160500  160498  160502  151967  151968+
+         151966  151965  169990  169991  169987  169992
CHEXA      45603       4  155403  155392  155391  155402  165837  165836+
+         165901  165900  160504  160503  160501  160505  151969  151970+
+         151968  151967  169993  169994  169990  169995
CHEXA      45604       4  155404  155393  155392  155403  165663  165662+
+         165836  165837  160507  160506  160504  160508  151971  151972+
+         151970  151969  169996  169997  169993  169998
CHEXA      45605       4  155405  155394  155393  155404  165475  165474+
+         165662  165663  160510  160509  160507  160511  151973  151974+
+         151972  151971  169999  170000  169996  170001
CHEXA      45606       4  155406  155395  155394  155405  165278  165277+
+         165474  165475  160513  160512  160510  160514  151975  151976+
+         151974  151973  170002  170003  169999  170004
CHEXA      45607       4  155407  155396  155395  155406  165075  165074+
+         165277  165278  160516  160515  160513  160517  151977  151978+
+         151976  151975  170005  170006  170002  170007
CHEXA      45608       4  155368  155367  155396  155407  164870  164869+
+         165074  165075  160450  160518  160516  160519  151939  151938+
+         151978  151977  169940  170008  170005  170009
CHEXA      45609       4  155408  155369  155368  155407  165076  164871+
+         164870  165075  160520  160452  160519  160521  151979  151940+
+         151939  151977  170010  169942  170009  170011
CHEXA      45610       4  155409  155370  155369  155408  165077  164872+
+         164871  165076  160522  160454  160520  160523  151980  151941+
+         151940  151979  170012  169944  170010  170013
CHEXA      45611       4  155410  155371  155370  155409  165078  164873+
+         164872  165077  160524  160456  160522  160525  151981  151942+
+         151941  151980  170014  169946  170012  170015
CHEXA      45612       4  155411  155372  155371  155410  165079  164874+
+         164873  165078  160526  160458  160524  160527  151982  151943+
+         151942  151981  170016  169948  170014  170017
CHEXA      45613       4  155412  155373  155372  155411  165080  164875+
+         164874  165079  160528  160460  160526  160529  151983  151944+
+         151943  151982  170018  169950  170016  170019
CHEXA      45614       4  155375  155374  155373  155412  165081  164876+
+         164875  165080  160465  160462  160528  160530  151946  151945+
+         151944  151983  169955  169952  170018  170020
CHEXA      45615       4  155413  155376  155375  155412  165283  165284+
+         165081  165080  160531  160467  160530  160532  151984  151947+
+         151946  151983  170021  169957  170020  170022
CHEXA      45616       4  155414  155377  155376  155413  165480  165481+
+         165284  165283  160533  160469  160531  160534  151985  151948+
+         151947  151984  170023  169959  170021  170024
CHEXA      45617       4  155415  155378  155377  155414  165668  165669+
+         165481  165480  160535  160471  160533  160536  151986  151949+
+         151948  151985  170025  169961  170023  170026
CHEXA      45618       4  155416  155379  155378  155415  165842  165843+
+         165669  165668  160537  160473  160535  160538  151987  151950+
+         151949  151986  170027  169963  170025  170028
CHEXA      45619       4  155417  155380  155379  155416  165895  165894+
+         165843  165842  160539  160475  160537  160540  151988  151951+
+         151950  151987  170029  169965  170027  170030
CHEXA      45620       4  155418  155381  155380  155417  165744  165743+
+         165894  165895  160541  160477  160539  160542  151989  151952+
+         151951  151988  170031  169967  170029  170032
CHEXA      45621       4  155419  155382  155381  155418  165561  165560+
+         165743  165744  160543  160479  160541  160544  151990  151953+
+         151952  151989  170033  169969  170031  170034
CHEXA      45622       4  155420  155383  155382  155419  165369  165368+
+         165560  165561  160545  160481  160543  160546  151991  151954+
+         151953  151990  170035  169971  170033  170036
CHEXA      45623       4  155421  155384  155383  155420  165171  165170+
+         165368  165369  160547  160483  160545  160548  151992  151955+
+         151954  151991  170037  169973  170035  170038
CHEXA      45624       4  155422  155385  155384  155421  164968  164967+
+         165170  165171  160549  160485  160547  160550  151993  151956+
+         151955  151992  170039  169975  170037  170040
CHEXA      45625       4  155333  155332  155385  155422  164762  164761+
+         164967  164968  160378  160486  160549  160551  151904  151903+
+         151956  151993  169868  169976  170039  170041
CHEXA      45626       4  155423  155334  155333  155422  164969  164763+
+         164762  164968  160552  160380  160551  160553  151994  151905+
+         151904  151993  170042  169870  170041  170043
CHEXA      45627       4  155424  155335  155334  155423  164970  164764+
+         164763  164969  160554  160382  160552  160555  151995  151906+
+         151905  151994  170044  169872  170042  170045
CHEXA      45628       4  155425  155336  155335  155424  164971  164765+
+         164764  164970  160556  160384  160554  160557  151996  151907+
+         151906  151995  170046  169874  170044  170047
CHEXA      45629       4  155426  155337  155336  155425  164972  164766+
+         164765  164971  160558  160386  160556  160559  151997  151908+
+         151907  151996  170048  169876  170046  170049
CHEXA      45630       4  155397  155338  155337  155426  164973  164767+
+         164766  164972  160560  160388  160558  160561  151960  151909+
+         151908  151997  170050  169878  170048  170051
CHEXA      45631       4  155386  155339  155338  155397  164974  164768+
+         164767  164973  160562  160390  160560  160487  151959  151910+
+         151909  151960  170052  169880  170050  169979
CHEXA      45632       4  155398  155397  155426  155427  165176  164973+
+         164972  165175  160490  160561  160563  160564  151957  151960+
+         151997  151998  169980  170051  170053  170054
CHEXA      45633       4  155428  155399  155398  155427  165373  165374+
+         165176  165175  160565  160493  160564  160566  151999  151961+
+         151957  151998  170055  169983  170054  170056
CHEXA      45634       4  155429  155400  155399  155428  165565  165566+
+         165374  165373  160567  160496  160565  160568  152000  151963+
+         151961  151999  170057  169986  170055  170058
CHEXA      45635       4  155430  155401  155400  155429  165748  165749+
+         165566  165565  160569  160499  160567  160570  152001  151965+
+         151963  152000  170059  169989  170057  170060
CHEXA      45636       4  155431  155402  155401  155430  165899  165900+
+         165749  165748  160571  160502  160569  160572  152002  151967+
+         151965  152001  170061  169992  170059  170062
CHEXA      45637       4  155432  155403  155402  155431  165838  165837+
+         165900  165899  160573  160505  160571  160574  152003  151969+
+         151967  152002  170063  169995  170061  170064
CHEXA      45638       4  155433  155404  155403  155432  165664  165663+
+         165837  165838  160575  160508  160573  160576  152004  151971+
+         151969  152003  170065  169998  170063  170066
CHEXA      45639       4  155434  155405  155404  155433  165476  165475+
+         165663  165664  160577  160511  160575  160578  152005  151973+
+         151971  152004  170067  170001  170065  170068
CHEXA      45640       4  155435  155406  155405  155434  165279  165278+
+         165475  165476  160579  160514  160577  160580  152006  151975+
+         151973  152005  170069  170004  170067  170070
CHEXA      45641       4  155408  155407  155406  155435  165076  165075+
+         165278  165279  160521  160517  160579  160581  151979  151977+
+         151975  152006  170011  170007  170069  170071
CHEXA      45642       4  155436  155409  155408  155435  165280  165077+
+         165076  165279  160582  160523  160581  160583  152007  151980+
+         151979  152006  170072  170013  170071  170073
CHEXA      45643       4  155437  155410  155409  155436  165281  165078+
+         165077  165280  160584  160525  160582  160585  152008  151981+
+         151980  152007  170074  170015  170072  170075
CHEXA      45644       4  155438  155411  155410  155437  165282  165079+
+         165078  165281  160586  160527  160584  160587  152009  151982+
+         151981  152008  170076  170017  170074  170077
CHEXA      45645       4  155413  155412  155411  155438  165283  165080+
+         165079  165282  160532  160529  160586  160588  151984  151983+
+         151982  152009  170022  170019  170076  170078
CHEXA      45646       4  155439  155414  155413  155438  165479  165480+
+         165283  165282  160589  160534  160588  160590  152010  151985+
+         151984  152009  170079  170024  170078  170080
CHEXA      45647       4  155440  155415  155414  155439  165667  165668+
+         165480  165479  160591  160536  160589  160592  152011  151986+
+         151985  152010  170081  170026  170079  170082
CHEXA      45648       4  155441  155416  155415  155440  165841  165842+
+         165668  165667  160593  160538  160591  160594  152012  151987+
+         151986  152011  170083  170028  170081  170084
CHEXA      45649       4  155442  155417  155416  155441  165896  165895+
+         165842  165841  160595  160540  160593  160596  152013  151988+
+         151987  152012  170085  170030  170083  170086
CHEXA      45650       4  155443  155418  155417  155442  165745  165744+
+         165895  165896  160597  160542  160595  160598  152014  151989+
+         151988  152013  170087  170032  170085  170088
CHEXA      45651       4  155444  155419  155418  155443  165562  165561+
+         165744  165745  160599  160544  160597  160600  152015  151990+
+         151989  152014  170089  170034  170087  170090
CHEXA      45652       4  155445  155420  155419  155444  165370  165369+
+         165561  165562  160601  160546  160599  160602  152016  151991+
+         151990  152015  170091  170036  170089  170092
CHEXA      45653       4  155446  155421  155420  155445  165172  165171+
+         165369  165370  160603  160548  160601  160604  152017  151992+
+         151991  152016  170093  170038  170091  170094
CHEXA      45654       4  155423  155422  155421  155446  164969  164968+
+         165171  165172  160553  160550  160603  160605  151994  151993+
+         151992  152017  170043  170040  170093  170095
CHEXA      45655       4  155447  155424  155423  155446  165173  164970+
+         164969  165172  160606  160555  160605  160607  152018  151995+
+         151994  152017  170096  170045  170095  170097
CHEXA      45656       4  155448  155425  155424  155447  165174  164971+
+         164970  165173  160608  160557  160606  160609  152019  151996+
+         151995  152018  170098  170047  170096  170099
CHEXA      45657       4  155427  155426  155425  155448  165175  164972+
+         164971  165174  160563  160559  160608  160610  151998  151997+
+         151996  152019  170053  170049  170098  170100
CHEXA      45658       4  155428  155427  155448  155449  165373  165175+
+         165174  165372  160566  160610  160611  160612  151999  151998+
+         152019  152020  170056  170100  170101  170102
CHEXA      45659       4  155450  155429  155428  155449  165564  165565+
+         165373  165372  160613  160568  160612  160614  152021  152000+
+         151999  152020  170103  170058  170102  170104
CHEXA      45660       4  155451  155430  155429  155450  165747  165748+
+         165565  165564  160615  160570  160613  160616  152022  152001+
+         152000  152021  170105  170060  170103  170106
CHEXA      45661       4  155452  155431  155430  155451  165898  165899+
+         165748  165747  160617  160572  160615  160618  152023  152002+
+         152001  152022  170107  170062  170105  170108
CHEXA      45662       4  155453  155432  155431  155452  165839  165838+
+         165899  165898  160619  160574  160617  160620  152024  152003+
+         152002  152023  170109  170064  170107  170110
CHEXA      45663       4  155454  155433  155432  155453  165665  165664+
+         165838  165839  160621  160576  160619  160622  152025  152004+
+         152003  152024  170111  170066  170109  170112
CHEXA      45664       4  155455  155434  155433  155454  165477  165476+
+         165664  165665  160623  160578  160621  160624  152026  152005+
+         152004  152025  170113  170068  170111  170114
CHEXA      45665       4  155436  155435  155434  155455  165280  165279+
+         165476  165477  160583  160580  160623  160625  152007  152006+
+         152005  152026  170073  170070  170113  170115
CHEXA      45666       4  155456  155437  155436  155455  165478  165281+
+         165280  165477  160626  160585  160625  160627  152027  152008+
+         152007  152026  170116  170075  170115  170117
CHEXA      45667       4  155439  155438  155437  155456  165479  165282+
+         165281  165478  160590  160587  160626  160628  152010  152009+
+         152008  152027  170080  170077  170116  170118
CHEXA      45668       4  155457  155440  155439  155456  165666  165667+
+         165479  165478  160629  160592  160628  160630  152028  152011+
+         152010  152027  170119  170082  170118  170120
CHEXA      45669       4  155458  155441  155440  155457  165840  165841+
+         165667  165666  160631  160594  160629  160632  152029  152012+
+         152011  152028  170121  170084  170119  170122
CHEXA      45670       4  155459  155442  155441  155458  165897  165896+
+         165841  165840  160633  160596  160631  160634  152030  152013+
+         152012  152029  170123  170086  170121  170124
CHEXA      45671       4  155460  155443  155442  155459  165746  165745+
+         165896  165897  160635  160598  160633  160636  152031  152014+
+         152013  152030  170125  170088  170123  170126
CHEXA      45672       4  155461  155444  155443  155460  165563  165562+
+         165745  165746  160637  160600  160635  160638  152032  152015+
+         152014  152031  170127  170090  170125  170128
CHEXA      45673       4  155462  155445  155444  155461  165371  165370+
+         165562  165563  160639  160602  160637  160640  152033  152016+
+         152015  152032  170129  170092  170127  170130
CHEXA      45674       4  155447  155446  155445  155462  165173  165172+
+         165370  165371  160607  160604  160639  160641  152018  152017+
+         152016  152033  170097  170094  170129  170131
CHEXA      45675       4  155449  155448  155447  155462  165372  165174+
+         165173  165371  160611  160609  160641  160642  152020  152019+
+         152018  152033  170101  170099  170131  170132
CHEXA      45676       4  155462  155461  155450  155449  165371  165563+
+         165564  165372  160640  160643  160614  160642  152033  152032+
+         152021  152020  170130  170133  170104  170132
CHEXA      45677       4  155461  155460  155451  155450  165563  165746+
+         165747  165564  160638  160644  160616  160643  152032  152031+
+         152022  152021  170128  170134  170106  170133
CHEXA      45678       4  155460  155459  155452  155451  165746  165897+
+         165898  165747  160636  160645  160618  160644  152031  152030+
+         152023  152022  170126  170135  170108  170134
CHEXA      45679       4  155459  155458  155453  155452  165897  165840+
+         165839  165898  160634  160646  160620  160645  152030  152029+
+         152024  152023  170124  170136  170110  170135
CHEXA      45680       4  155458  155457  155454  155453  165840  165666+
+         165665  165839  160632  160647  160622  160646  152029  152028+
+         152025  152024  170122  170137  170112  170136
CHEXA      45681       4  155457  155456  155455  155454  165666  165478+
+         165477  165665  160630  160627  160624  160647  152028  152027+
+         152026  152025  170120  170117  170114  170137
CHEXA      45682       4  155474  155476  155468  155467  165831  165830+
+         165935  165936  160650  160649  160648  160651  152034  152035+
+         152036  152037  170138  170139  170140  170141
CHEXA      45683       4  155476  155475  155469  155468  165830  165934+
+         165956  165935  160654  160653  160652  160649  152035  152038+
+         152039  152036  170142  170143  170144  170139
CHEXA      45684       4  155475  155353  155352  155469  165934  165933+
+         165957  165956  160656  160419  160655  160653  152038  151924+
+         151923  152039  170145  169909  170146  170143
CHEXA      45685       4  155354  155353  155475  155480  165828  165933+
+         165934  165829  160421  160656  160657  160658  151925  151924+
+         152038  152040  169911  170145  170147  170148
CHEXA      45686       4  155477  155355  155354  155480  165654  165653+
+         165828  165829  160659  160423  160658  160660  152041  151926+
+         151925  152040  170149  169913  170148  170150
CHEXA      45687       4  155480  155475  155476  155481  165829  165934+
+         165830  165655  160657  160654  160661  160662  152040  152038+
+         152035  152042  170147  170142  170151  170152
CHEXA      45688       4  155478  155477  155480  155481  165467  165654+
+         165829  165655  160663  160660  160662  160664  152043  152041+
+         152040  152042  170153  170150  170152  170154
CHEXA      45689       4  155476  155474  155473  155482  165830  165831+
+         165657  165656  160650  160666  160665  160667  152035  152034+
+         152044  152045  170138  170155  170156  170157
CHEXA      45690       4  155479  155478  155481  155483  165270  165467+
+         165655  165468  160669  160664  160668  160670  152046  152043+
+         152042  152047  170158  170154  170159  170160
CHEXA      45691       4  155472  155471  155479  155483  165469  165272+
+         165270  165468  160672  160671  160670  160673  152048  152049+
+         152046  152047  170161  170162  170160  170163
CHEXA      45692       4  155470  155363  155362  155484  165070  164865+
+         164864  165068  160675  160440  160674  160676  152050  151934+
+         151933  152051  170164  169930  170165  170166
CHEXA      45693       4  155479  155471  155470  155484  165270  165272+
+         165070  165068  160671  160677  160676  160678  152046  152049+
+         152050  152051  170162  170167  170166  170168
CHEXA      45694       4  155484  155486  155478  155479  165068  165271+
+         165467  165270  160680  160679  160669  160678  152051  152052+
+         152043  152046  170169  170170  170158  170168
CHEXA      45695       4  155486  155485  155477  155478  165271  165466+
+         165654  165467  160682  160681  160663  160679  152052  152053+
+         152041  152043  170171  170172  170153  170170
CHEXA      45696       4  155485  155356  155355  155477  165466  165465+
+         165653  165654  160683  160425  160659  160681  152053  151927+
+         151926  152041  170173  169915  170149  170172
CHEXA      45697       4  155488  155486  155484  155362  165069  165271+
+         165068  164864  160684  160680  160674  160685  152054  152052+
+         152051  151933  170174  170169  170165  170175
CHEXA      45698       4  155361  155487  155488  155362  164863  165067+
+         165069  164864  160687  160686  160685  160438  151932  152055+
+         152054  151933  170176  170177  170175  169928
CHEXA      45699       4  155357  155356  155485  155489  165268  165465+
+         165466  165269  160427  160683  160688  160689  151928  151927+
+         152053  152056  169917  170173  170178  170179
CHEXA      45700       4  155490  155360  155359  155358  165066  164862+
+         164861  165065  160690  160434  160431  160691  152057  151931+
+         151930  151929  170180  169924  169921  170181
CHEXA      45701       4  155357  155489  155490  155358  165268  165269+
+         165066  165065  160689  160692  160691  160429  151928  152056+
+         152057  151929  170179  170182  170181  169919
CHEXA      45702       4  155364  155363  155470  155491  164866  164865+
+         165070  165071  160442  160675  160693  160694  151935  151934+
+         152050  152058  169932  170164  170183  170184
CHEXA      45703       4  155492  155365  155364  155491  165072  164867+
+         164866  165071  160695  160444  160694  160696  152059  151936+
+         151935  152058  170185  169934  170184  170186
CHEXA      45704       4  155493  155366  155365  155492  165073  164868+
+         164867  165072  160697  160446  160695  160698  152060  151937+
+         151936  152059  170187  169936  170185  170188
CHEXA      45705       4  155396  155367  155366  155493  165074  164869+
+         164868  165073  160518  160448  160697  160699  151978  151938+
+         151937  152060  170008  169938  170187  170189
CHEXA      45706       4  155494  155395  155396  155493  165276  165277+
+         165074  165073  160700  160515  160699  160701  152061  151976+
+         151978  152060  170190  170006  170189  170191
CHEXA      45707       4  155495  155394  155395  155494  165473  165474+
+         165277  165276  160702  160512  160700  160703  152062  151974+
+         151976  152061  170192  170003  170190  170193
CHEXA      45708       4  155496  155393  155394  155495  165661  165662+
+         165474  165473  160704  160509  160702  160705  152063  151972+
+         151974  152062  170194  170000  170192  170195
CHEXA      45709       4  155463  155392  155393  155496  165835  165836+
+         165662  165661  160706  160506  160704  160707  152064  151970+
+         151972  152063  170196  169997  170194  170197
CHEXA      45710       4  155497  155464  155463  155496  165660  165834+
+         165835  165661  160709  160708  160707  160710  152065  152066+
+         152064  152063  170198  170199  170197  170200
CHEXA      45711       4  155498  155465  155464  155497  165833  165938+
+         165834  165660  160712  160711  160709  160713  152067  152068+
+         152066  152065  170201  170202  170198  170203
CHEXA      45712       4  155499  155466  155465  155498  165832  165937+
+         165938  165833  160715  160714  160712  160716  152069  152070+
+         152068  152067  170204  170205  170201  170206
CHEXA      45713       4  155474  155467  155466  155499  165831  165936+
+         165937  165832  160651  160717  160715  160718  152034  152037+
+         152070  152069  170141  170207  170204  170208
CHEXA      45714       4  155500  155473  155474  155499  165658  165657+
+         165831  165832  160719  160666  160718  160720  152071  152044+
+         152034  152069  170209  170155  170208  170210
CHEXA      45715       4  155501  155472  155473  155500  165470  165469+
+         165657  165658  160722  160721  160719  160723  152072  152048+
+         152044  152071  170211  170212  170209  170213
CHEXA      45716       4  155502  155471  155472  155501  165273  165272+
+         165469  165470  160724  160672  160722  160725  152073  152049+
+         152048  152072  170214  170161  170211  170215
CHEXA      45717       4  155491  155470  155471  155502  165071  165070+
+         165272  165273  160693  160677  160724  160726  152058  152050+
+         152049  152073  170183  170167  170214  170216
CHEXA      45718       4  155498  155505  155500  155499  165833  165659+
+         165658  165832  160728  160727  160720  160716  152067  152074+
+         152071  152069  170217  170218  170210  170206
CHEXA      45719       4  155505  155504  155501  155500  165659  165471+
+         165470  165658  160730  160729  160723  160727  152074  152075+
+         152072  152071  170219  170220  170213  170218
CHEXA      45720       4  155504  155503  155502  155501  165471  165274+
+         165273  165470  160732  160731  160725  160729  152075  152076+
+         152073  152072  170221  170222  170215  170220
CHEXA      45721       4  155497  155496  155495  155506  165660  165661+
+         165473  165472  160710  160705  160733  160734  152065  152063+
+         152062  152077  170200  170195  170223  170224
CHEXA      45722       4  155505  155498  155497  155506  165659  165833+
+         165660  165472  160728  160713  160734  160735  152074  152067+
+         152065  152077  170217  170203  170224  170225
CHEXA      45723       4  155505  155506  155507  155504  165659  165472+
+         165275  165471  160735  160737  160736  160730  152074  152077+
+         152078  152075  170225  170226  170227  170219
CHEXA      45724       4  155391  155392  155463  155508  165901  165836+
+         165835  165902  160503  160706  160738  160739  151968  151970+
+         152064  152079  169994  170196  170228  170229
CHEXA      45725       4  155509  155390  155391  155508  165751  165750+
+         165901  165902  160740  160500  160739  160741  152080  151966+
+         151968  152079  170230  169991  170229  170231
CHEXA      45726       4  155510  155389  155390  155509  165568  165567+
+         165750  165751  160742  160497  160740  160743  152081  151964+
+         151966  152080  170232  169988  170230  170233
CHEXA      45727       4  155511  155388  155389  155510  165376  165375+
+         165567  165568  160744  160494  160742  160745  152082  151962+
+         151964  152081  170234  169985  170232  170235
CHEXA      45728       4  155512  155387  155388  155511  165178  165177+
+         165375  165376  160746  160491  160744  160747  152083  151958+
+         151962  152082  170236  169982  170234  170237
CHEXA      45729       4  155513  155386  155387  155512  164975  164974+
+         165177  165178  160748  160488  160746  160749  152084  151959+
+         151958  152083  170238  169978  170236  170239
CHEXA      45730       4  155340  155339  155386  155513  164769  164768+
+         164974  164975  160392  160562  160748  160750  151911  151910+
+         151959  152084  169882  170052  170238  170240
CHEXA      45731       4  155514  155341  155340  155513  164976  164770+
+         164769  164975  160751  160394  160750  160752  152085  151912+
+         151911  152084  170241  169884  170240  170242
CHEXA      45732       4  155515  155342  155341  155514  164977  164771+
+         164770  164976  160753  160396  160751  160754  152086  151913+
+         151912  152085  170243  169886  170241  170244
CHEXA      45733       4  155516  155343  155342  155515  164978  164772+
+         164771  164977  160755  160398  160753  160756  152087  151914+
+         151913  152086  170245  169888  170243  170246
CHEXA      45734       4  155517  155344  155343  155516  164979  164773+
+         164772  164978  160757  160400  160755  160758  152088  151915+
+         151914  152087  170247  169890  170245  170248
CHEXA      45735       4  155346  155345  155344  155517  164980  164774+
+         164773  164979  160405  160402  160757  160759  151917  151916+
+         151915  152088  169895  169892  170247  170249
CHEXA      45736       4  155518  155347  155346  155517  165182  165183+
+         164980  164979  160760  160407  160759  160761  152089  151918+
+         151917  152088  170250  169897  170249  170251
CHEXA      45737       4  155519  155348  155347  155518  165381  165382+
+         165183  165182  160762  160409  160760  160763  152090  151919+
+         151918  152089  170252  169899  170250  170253
CHEXA      45738       4  155520  155349  155348  155519  165574  165575+
+         165382  165381  160764  160411  160762  160765  152091  151920+
+         151919  152090  170254  169901  170252  170255
CHEXA      45739       4  155521  155350  155349  155520  165757  165758+
+         165575  165574  160766  160413  160764  160767  152092  151921+
+         151920  152091  170256  169903  170254  170257
CHEXA      45740       4  155522  155351  155350  155521  165908  165909+
+         165758  165757  160768  160415  160766  160769  152093  151922+
+         151921  152092  170258  169905  170256  170259
CHEXA      45741       4  155469  155352  155351  155522  165956  165957+
+         165909  165908  160655  160417  160768  160770  152039  151923+
+         151922  152093  170146  169907  170258  170260
CHEXA      45742       4  155523  155468  155469  155522  165907  165935+
+         165956  165908  160771  160652  160770  160772  152094  152036+
+         152039  152093  170261  170144  170260  170262
CHEXA      45743       4  155524  155467  155468  155523  165906  165936+
+         165935  165907  160773  160648  160771  160774  152095  152037+
+         152036  152094  170263  170140  170261  170264
CHEXA      45744       4  155525  155466  155467  155524  165905  165937+
+         165936  165906  160775  160717  160773  160776  152096  152070+
+         152037  152095  170265  170207  170263  170266
CHEXA      45745       4  155526  155465  155466  155525  165955  165938+
+         165937  165905  160777  160714  160775  160778  152097  152068+
+         152070  152096  170267  170205  170265  170268
CHEXA      45746       4  155527  155464  155465  155526  165903  165834+
+         165938  165955  160779  160711  160777  160780  152098  152066+
+         152068  152097  170269  170202  170267  170270
CHEXA      45747       4  155508  155463  155464  155527  165902  165835+
+         165834  165903  160738  160708  160779  160781  152079  152064+
+         152066  152098  170228  170199  170269  170271
CHEXA      45748       4  155509  155508  155527  155528  165751  165902+
+         165903  165752  160741  160781  160782  160783  152080  152079+
+         152098  152099  170231  170271  170272  170273
CHEXA      45749       4  155529  155510  155509  155528  165569  165568+
+         165751  165752  160784  160743  160783  160785  152100  152081+
+         152080  152099  170274  170233  170273  170275
CHEXA      45750       4  155530  155511  155510  155529  165377  165376+
+         165568  165569  160786  160745  160784  160787  152101  152082+
+         152081  152100  170276  170235  170274  170277
CHEXA      45751       4  155531  155512  155511  155530  165179  165178+
+         165376  165377  160788  160747  160786  160789  152102  152083+
+         152082  152101  170278  170237  170276  170279
CHEXA      45752       4  155514  155513  155512  155531  164976  164975+
+         165178  165179  160752  160749  160788  160790  152085  152084+
+         152083  152102  170242  170239  170278  170280
CHEXA      45753       4  155532  155515  155514  155531  165180  164977+
+         164976  165179  160791  160754  160790  160792  152103  152086+
+         152085  152102  170281  170244  170280  170282
CHEXA      45754       4  155533  155516  155515  155532  165181  164978+
+         164977  165180  160793  160756  160791  160794  152104  152087+
+         152086  152103  170283  170246  170281  170284
CHEXA      45755       4  155518  155517  155516  155533  165182  164979+
+         164978  165181  160761  160758  160793  160795  152089  152088+
+         152087  152104  170251  170248  170283  170285
CHEXA      45756       4  155534  155519  155518  155533  165380  165381+
+         165182  165181  160796  160763  160795  160797  152105  152090+
+         152089  152104  170286  170253  170285  170287
CHEXA      45757       4  155535  155520  155519  155534  165573  165574+
+         165381  165380  160798  160765  160796  160799  152106  152091+
+         152090  152105  170288  170255  170286  170289
CHEXA      45758       4  155536  155521  155520  155535  165756  165757+
+         165574  165573  160800  160767  160798  160801  152107  152092+
+         152091  152106  170290  170257  170288  170291
CHEXA      45759       4  155523  155522  155521  155536  165907  165908+
+         165757  165756  160772  160769  160800  160802  152094  152093+
+         152092  152107  170262  170259  170290  170292
CHEXA      45760       4  155537  155524  155523  155536  165755  165906+
+         165907  165756  160803  160774  160802  160804  152108  152095+
+         152094  152107  170293  170264  170292  170294
CHEXA      45761       4  155538  155525  155524  155537  165754  165905+
+         165906  165755  160805  160776  160803  160806  152109  152096+
+         152095  152108  170295  170266  170293  170296
CHEXA      45762       4  155539  155526  155525  155538  165904  165955+
+         165905  165754  160807  160778  160805  160808  152110  152097+
+         152096  152109  170297  170268  170295  170298
CHEXA      45763       4  155528  155527  155526  155539  165752  165903+
+         165955  165904  160782  160780  160807  160809  152099  152098+
+         152097  152110  170272  170270  170297  170299
CHEXA      45764       4  155537  155536  155535  155541  165755  165756+
+         165573  165572  160804  160801  160810  160811  152108  152107+
+         152106  152111  170294  170291  170300  170301
CHEXA      45765       4  155540  155538  155537  155541  165571  165754+
+         165755  165572  160812  160806  160811  160813  152112  152109+
+         152108  152111  170302  170296  170301  170303
CHEXA      45766       4  155535  155534  155542  155541  165573  165380+
+         165379  165572  160799  160815  160814  160810  152106  152105+
+         152113  152111  170289  170304  170305  170300
CHEXA      45767       4  155531  155530  155544  155543  165179  165377+
+         165570  165378  160789  160817  160816  160818  152102  152101+
+         152114  152115  170279  170306  170307  170308
CHEXA      45768       4  155539  155538  155540  155545  165904  165754+
+         165571  165753  160808  160812  160819  160820  152110  152109+
+         152112  152116  170298  170302  170309  170310
CHEXA      45769       4  155529  155528  155539  155545  165569  165752+
+         165904  165753  160785  160809  160820  160821  152100  152099+
+         152110  152116  170275  170299  170310  170311
CHEXA      45770       4  155544  155530  155529  155545  165570  165377+
+         165569  165753  160817  160787  160821  160822  152114  152101+
+         152100  152116  170306  170277  170311  170312
CHEXA      45771       4  155547  153547  153546  153545  163307  162939+
+         162938  162937  160823  156807  156804  160824  152117  150143+
+         150142  150141  170313  166297  166294  170314
CHEXA      45772       4  155547  155546  153548  153547  163307  163308+
+         162940  162939  160826  160825  156809  160823  152117  152118+
+         150144  150143  170315  170316  166299  170313
CHEXA      45773       4  154787  155546  155547  153545  163306  163308+
+         163307  162937  160827  160826  160824  159389  151411  152118+
+         152117  150141  170317  170315  170314  168879
CHEXA      45774       4  154799  154800  153821  153822  165916  165821+
+         165648  165766  159427  160828  159250  160829  151435  151437+
+         151335  151275  168918  170318  168741  170319
CHEXA      45775       4  154800  154801  153820  153821  165821  165645+
+         165460  165648  159430  160830  159247  160828  151437  151439+
+         151333  151335  168921  170320  168739  170318
CHEXA      45776       4  154801  154802  153819  153820  165645  165457+
+         165263  165460  159433  160831  159244  160830  151439  151441+
+         151331  151333  168924  170321  168736  170320
CHEXA      45777       4  154802  154803  153818  153819  165457  165260+
+         165060  165263  159436  160832  159241  160831  151441  151443+
+         151329  151331  168927  170322  168733  170321
CHEXA      45778       4  154803  154804  153817  153818  165260  165057+
+         164856  165060  159439  160833  159238  160832  151443  151445+
+         151327  151329  168930  170323  168730  170322
CHEXA      45779       4  154804  154805  153816  153817  165057  164853+
+         164644  164856  159442  160834  159235  160833  151445  151447+
+         151325  151327  168933  170324  168727  170323
CHEXA      45780       4  154805  154806  153815  153816  164853  164641+
+         164428  164644  159445  160835  159232  160834  151447  151449+
+         151318  151325  168936  170325  168724  170324
CHEXA      45781       4  154806  154807  153814  153815  164641  164425+
+         164204  164428  159448  160836  159221  160835  151449  151451+
+         151319  151318  168939  170326  168712  170325
CHEXA      45782       4  154807  154808  153813  153814  164425  164201+
+         163974  164204  159451  160837  159224  160836  151451  151453+
+         151320  151319  168942  170327  168714  170326
CHEXA      45783       4  154808  154809  153812  153813  164201  163971+
+         163727  163974  159454  160838  159226  160837  151453  151455+
+         151321  151320  168945  170328  168716  170327
CHEXA      45784       4  154809  154810  153811  153812  163971  163725+
+         163426  163727  159457  160840  160839  160838  151455  151457+
+         151323  151321  168948  170329  170330  170328
CHEXA      45785       4  154810  153662  153661  153811  163725  163425+
+         163050  163426  159460  157039  159230  160840  151457  150258+
+         150257  151323  168951  166529  168720  170329
CHEXA      45786       4  154793  154794  153827  153828  164781  164987+
+         164782  164570  159409  160841  159148  160842  151423  151425+
+         151285  151287  168900  170331  168639  170332
CHEXA      45787       4  154794  154795  153826  153827  164987  165190+
+         164988  164782  159412  160843  159145  160841  151425  151427+
+         151283  151285  168903  170333  168636  170331
CHEXA      45788       4  154795  154796  153825  153826  165190  165389+
+         165191  164988  159415  160844  159142  160843  151427  151429+
+         151281  151283  168906  170334  168633  170333
CHEXA      45789       4  154796  154797  153824  153825  165389  165582+
+         165390  165191  159418  160845  159139  160844  151429  151431+
+         151279  151281  168909  170335  168630  170334
CHEXA      45790       4  154797  154798  153823  153824  165582  165765+
+         165583  165390  159421  160846  159136  160845  151431  151433+
+         151274  151279  168912  170336  168627  170335
CHEXA      45791       4  154798  154799  153822  153823  165765  165916+
+         165766  165583  159424  160829  159134  160846  151433  151435+
+         151275  151274  168915  170319  168622  170336
CHEXA      45792       4  154790  154791  153830  153831  164126  164351+
+         164127  163895  159400  160847  159157  160848  151417  151419+
+         151291  151293  168891  170337  168648  170338
CHEXA      45793       4  154791  154792  153829  153830  164351  164569+
+         164352  164127  159403  160849  159154  160847  151419  151421+
+         151289  151291  168894  170339  168645  170337
CHEXA      45794       4  154792  154793  153828  153829  164569  164781+
+         164570  164352  159406  160842  159151  160849  151421  151423+
+         151287  151289  168897  170332  168642  170339
CHEXA      45795       4  154789  154790  153831  153832  163894  164126+
+         163895  163643  159397  160848  159160  160850  151415  151417+
+         151293  151295  168888  170338  168651  170340
CHEXA      45796       4  154788  154789  153832  153550  163642  163894+
+         163643  163309  159394  160850  159163  160851  151413  151415+
+         151295  150146  168885  170340  168653  170341
CHEXA      45797       4  155548  153549  153548  155546  163310  162941+
+         162940  163308  160852  156811  160825  160853  152119  150145+
+         150144  152118  170342  166301  170316  170343
CHEXA      45798       4  155548  154788  153550  153549  163310  163642+
+         163309  162941  160854  160851  156814  160852  152119  151413+
+         150146  150145  170344  170341  166304  170342
CHEXA      45799       4  154787  154788  155548  155546  163306  163642+
+         163310  163308  159391  160854  160853  160827  151411  151413+
+         152119  152118  168882  170344  170343  170317
CHEXA      45800       4  153779  153778  155549  155550  165550  165734+
+         165551  165359  160857  160856  160855  160858  152120  152121+
+         152122  152123  170345  170346  170347  170348
CHEXA      45801       4  155551  153780  153779  155550  165161  165358+
+         165550  165359  160860  160859  160858  160861  152124  152125+
+         152120  152123  170349  170350  170348  170351
CHEXA      45802       4  155552  153781  153780  155551  164958  165160+
+         165358  165161  160863  160862  160860  160864  152126  152127+
+         152125  152124  170352  170353  170349  170354
CHEXA      45803       4  155553  153782  153781  155552  164750  164957+
+         165160  164958  160866  160865  160863  160867  152128  152129+
+         152127  152126  170355  170356  170352  170357
CHEXA      45804       4  155554  153783  153782  155553  164538  164749+
+         164957  164750  160869  160868  160866  160870  152130  152131+
+         152129  152128  170358  170359  170355  170360
CHEXA      45805       4  155555  153784  153783  155554  164320  164537+
+         164749  164538  160872  160871  160869  160873  152132  152133+
+         152131  152130  170361  170362  170358  170363
CHEXA      45806       4  155556  153785  153784  155555  164095  164319+
+         164537  164320  160875  160874  160872  160876  152134  152135+
+         152133  152132  170364  170365  170361  170366
CHEXA      45807       4  155557  153786  153785  155556  163863  164094+
+         164319  164095  160878  160877  160875  160879  152136  152137+
+         152135  152134  170367  170368  170364  170369
CHEXA      45808       4  155558  153787  153786  155557  163611  163862+
+         164094  163863  160881  160880  160878  160882  152138  152139+
+         152137  152136  170370  170371  170367  170372
CHEXA      45809       4  155559  153788  153787  155558  163270  163610+
+         163862  163611  160884  160883  160881  160885  152140  152141+
+         152139  152138  170373  170374  170370  170375
CHEXA      45810       4  153508  153507  153788  155559  162901  163268+
+         163610  163270  156727  160886  160884  160887  150104  150103+
+         152141  152140  166216  170376  170373  170377
CHEXA      45811       4  155560  153509  153508  155559  163271  162902+
+         162901  163270  160888  156730  160887  160889  152142  150105+
+         150104  152140  170378  166220  170377  170379
CHEXA      45812       4  155561  153510  153509  155560  163272  162903+
+         162902  163271  160890  156732  160888  160891  152143  150106+
+         150105  152142  170380  166222  170378  170381
CHEXA      45813       4  155562  153511  153510  155561  163273  162904+
+         162903  163272  160892  156734  160890  160893  152144  150107+
+         150106  152143  170382  166224  170380  170383
CHEXA      45814       4  155563  153512  153511  155562  163275  162905+
+         162904  163273  160894  156736  160892  160895  152145  150108+
+         150107  152144  170384  166226  170382  170385
CHEXA      45815       4  153810  153513  153512  155563  163614  163274+
+         162905  163275  159293  156739  160894  160896  151350  150109+
+         150108  152145  168782  166229  170384  170386
CHEXA      45816       4  155564  153809  153810  155563  163613  163865+
+         163614  163275  160897  159279  160896  160898  152146  151351+
+         151350  152145  170387  168767  170386  170388
CHEXA      45817       4  155565  153808  153809  155564  163866  164098+
+         163865  163613  160899  159283  160897  160900  152147  151354+
+         151351  152146  170389  168771  170387  170390
CHEXA      45818       4  155566  153807  153808  155565  164099  164323+
+         164098  163866  160901  159285  160899  160902  152148  151336+
+         151354  152147  170391  168774  170389  170392
CHEXA      45819       4  155567  153806  153807  155566  164324  164541+
+         164323  164099  160903  159260  160901  160904  152149  151337+
+         151336  152148  170393  168748  170391  170394
CHEXA      45820       4  155568  153805  153806  155567  164542  164753+
+         164541  164324  160905  159264  160903  160906  152150  151340+
+         151337  152149  170395  168752  170393  170396
CHEXA      45821       4  155569  153804  153805  155568  164754  164960+
+         164753  164542  160907  159267  160905  160908  152151  151342+
+         151340  152150  170397  168755  170395  170398
CHEXA      45822       4  155552  153803  153804  155569  164958  165162+
+         164960  164754  160909  159270  160907  160910  152126  151344+
+         151342  152151  170399  168758  170397  170400
CHEXA      45823       4  155551  153802  153803  155552  165161  165360+
+         165162  164958  160911  159273  160909  160864  152124  151346+
+         151344  152126  170401  168761  170399  170354
CHEXA      45824       4  155550  153801  153802  155551  165359  165552+
+         165360  165161  160912  159276  160911  160861  152123  151348+
+         151346  152124  170402  168764  170401  170351
CHEXA      45825       4  155549  153800  153801  155550  165551  165735+
+         165552  165359  160913  159301  160912  160855  152122  151361+
+         151348  152123  170403  168789  170402  170347
CHEXA      45826       4  155560  155559  155558  155570  163271  163270+
+         163611  163612  160889  160885  160914  160915  152142  152140+
+         152138  152152  170379  170375  170404  170405
CHEXA      45827       4  155564  155563  155562  155561  163613  163275+
+         163273  163272  160898  160895  160893  160916  152146  152145+
+         152144  152143  170388  170385  170383  170406
CHEXA      45828       4  155560  155570  155564  155561  163271  163612+
+         163613  163272  160915  160917  160916  160891  152142  152152+
+         152146  152143  170405  170407  170406  170381
CHEXA      45829       4  155573  155553  155552  155569  164751  164750+
+         164958  164754  160918  160867  160910  160919  152153  152128+
+         152126  152151  170408  170357  170400  170409
CHEXA      45830       4  155573  155572  155554  155553  164751  164539+
+         164538  164750  160921  160920  160870  160918  152153  152154+
+         152130  152128  170410  170411  170360  170408
CHEXA      45831       4  155568  155572  155573  155569  164542  164539+
+         164751  164754  160922  160921  160919  160908  152150  152154+
+         152153  152151  170412  170410  170409  170398
CHEXA      45832       4  155572  155568  155567  155571  164539  164542+
+         164324  164321  160922  160906  160923  160924  152154  152150+
+         152149  152155  170412  170396  170413  170414
CHEXA      45833       4  155555  155554  155572  155571  164320  164538+
+         164539  164321  160873  160920  160924  160925  152132  152130+
+         152154  152155  170363  170411  170414  170415
CHEXA      45834       4  155571  155574  155556  155555  164321  164096+
+         164095  164320  160927  160926  160876  160925  152155  152156+
+         152134  152132  170416  170417  170366  170415
CHEXA      45835       4  155574  155575  155557  155556  164096  163864+
+         163863  164095  160929  160928  160879  160926  152156  152157+
+         152136  152134  170418  170419  170369  170417
CHEXA      45836       4  155575  155570  155558  155557  163864  163612+
+         163611  163863  160930  160914  160882  160928  152157  152152+
+         152138  152136  170420  170404  170372  170419
CHEXA      45837       4  155565  155564  155570  155575  163866  163613+
+         163612  163864  160900  160917  160930  160931  152147  152146+
+         152152  152157  170390  170407  170420  170421
CHEXA      45838       4  155566  155565  155575  155574  164099  163866+
+         163864  164096  160902  160931  160929  160932  152148  152147+
+         152157  152156  170392  170421  170418  170422
CHEXA      45839       4  155567  155566  155574  155571  164324  164099+
+         164096  164321  160904  160932  160927  160923  152149  152148+
+         152156  152155  170394  170422  170416  170413
CHEXA      45840       4  153792  153793  155576  155580  164232  164456+
+         164457  164233  159325  160934  160933  160935  151377  151375+
+         152158  152159  168813  170423  170424  170425
CHEXA      45841       4  153791  153792  155580  155579  164002  164232+
+         164233  164003  159328  160935  160936  160937  151379  151377+
+         152159  152160  168816  170425  170426  170427
CHEXA      45842       4  153790  153791  155579  155578  163756  164002+
+         164003  163757  159331  160937  160938  160939  151381  151379+
+         152160  152161  168819  170427  170428  170429
CHEXA      45843       4  153699  153698  153789  155581  163086  163085+
+         163458  163459  157112  159336  160940  160941  150295  150294+
+         151383  152162  166602  168825  170430  170431
CHEXA      45844       4  155577  153700  153699  155581  163460  163087+
+         163086  163459  160942  157114  160941  160943  152163  150296+
+         150295  152162  170432  166604  170431  170433
CHEXA      45845       4  155580  155576  153771  153770  164233  164457+
+         164461  164237  160933  160945  160944  160946  152159  152158+
+         152164  152165  170424  170434  170435  170436
CHEXA      45846       4  155579  155580  153770  153769  164003  164233+
+         164237  164007  160936  160946  160947  160948  152160  152159+
+         152165  152166  170426  170436  170437  170438
CHEXA      45847       4  155578  155579  153769  153768  163757  164003+
+         164007  163760  160938  160948  160949  160950  152161  152160+
+         152166  152167  170428  170438  170439  170440
CHEXA      45848       4  153701  153700  155577  155582  163088  163087+
+         163460  163461  157116  160942  160951  160952  150297  150296+
+         152163  152168  166606  170432  170441  170442
CHEXA      45849       4  153767  153702  153701  155582  163463  163089+
+         163088  163461  160953  157118  160952  160954  152169  150298+
+         150297  152168  170443  166608  170442  170444
CHEXA      45850       4  155576  155583  153772  153771  164457  164673+
+         164677  164461  160957  160956  160955  160945  152158  152170+
+         152171  152164  170445  170446  170447  170434
CHEXA      45851       4  155583  155584  153773  153772  164673  164885+
+         164889  164677  160960  160959  160958  160956  152170  152172+
+         152173  152171  170448  170449  170450  170446
CHEXA      45852       4  155584  155585  153774  153773  164885  165090+
+         165094  164889  160963  160962  160961  160959  152172  152174+
+         152175  152173  170451  170452  170453  170449
CHEXA      45853       4  155585  155586  153775  153774  165090  165293+
+         165297  165094  160966  160965  160964  160962  152174  152176+
+         152177  152175  170454  170455  170456  170452
CHEXA      45854       4  155586  155587  153776  153775  165293  165490+
+         165494  165297  160969  160968  160967  160965  152176  152178+
+         152179  152177  170457  170458  170459  170455
CHEXA      45855       4  155587  155588  153777  153776  165490  165678+
+         165682  165494  160972  160971  160970  160968  152178  152180+
+         152181  152179  170460  170461  170462  170458
CHEXA      45856       4  155588  155549  153778  153777  165678  165551+
+         165734  165682  160974  160856  160973  160971  152180  152122+
+         152121  152181  170463  170346  170464  170461
CHEXA      45857       4  153799  153800  155549  155588  165677  165735+
+         165551  165678  159304  160913  160974  160975  151363  151361+
+         152122  152180  168792  170403  170463  170465
CHEXA      45858       4  153798  153799  155588  155587  165489  165677+
+         165678  165490  159307  160975  160972  160976  151365  151363+
+         152180  152178  168795  170465  170460  170466
CHEXA      45859       4  153797  153798  155587  155586  165292  165489+
+         165490  165293  159310  160976  160969  160977  151367  151365+
+         152178  152176  168798  170466  170457  170467
CHEXA      45860       4  153796  153797  155586  155585  165089  165292+
+         165293  165090  159313  160977  160966  160978  151369  151367+
+         152176  152174  168801  170467  170454  170468
CHEXA      45861       4  153795  153796  155585  155584  164884  165089+
+         165090  164885  159316  160978  160963  160979  151371  151369+
+         152174  152172  168804  170468  170451  170469
CHEXA      45862       4  153794  153795  155584  155583  164672  164884+
+         164885  164673  159319  160979  160960  160980  151373  151371+
+         152172  152170  168807  170469  170448  170470
CHEXA      45863       4  153793  153794  155583  155576  164456  164672+
+         164673  164457  159322  160980  160957  160934  151375  151373+
+         152170  152158  168810  170470  170445  170423
CHEXA      45864       4  153766  153743  153742  155616  163501  163129+
+         163128  163500  160982  157201  160981  160983  152182  150339+
+         150338  152183  170471  166691  170472  170473
CHEXA      45865       4  155617  155615  153373  153396  163582  163566+
+         163211  163230  160985  160984  156516  160986  152184  152185+
+         149970  149992  170474  170475  166006  170476
CHEXA      45866       4  155617  153766  155616  155615  163582  163501+
+         163500  163566  160988  160983  160987  160985  152184  152182+
+         152183  152185  170477  170473  170478  170474
CHEXA      45867       4  153395  153766  155617  153396  163229  163501+
+         163582  163230  160989  160988  160986  156515  149991  152182+
+         152184  149992  170479  170477  170476  166005
CHEXA      45868       4  155616  153742  153741  155614  163500  163128+
+         163127  163499  160981  157199  160990  160991  152183  150338+
+         150337  152186  170472  166689  170480  170481
CHEXA      45869       4  155615  155616  155614  155618  163566  163500+
+         163499  163567  160987  160991  160992  160993  152185  152183+
+         152186  152187  170478  170481  170482  170483
CHEXA      45870       4  155615  155618  153374  153373  163566  163567+
+         163212  163211  160993  160994  156475  160984  152185  152187+
+         149969  149970  170483  170484  165965  170475
CHEXA      45871       4  155618  155619  153375  153374  163567  163569+
+         163213  163212  160996  160995  156477  160994  152187  152188+
+         149971  149969  170485  170486  165967  170484
CHEXA      45872       4  155619  155613  153376  153375  163569  163496+
+         163568  163213  160998  160997  156480  160995  152188  152189+
+         149972  149971  170487  170488  165970  170486
CHEXA      45873       4  153394  155637  153766  153395  163580  163502+
+         163501  163229  161000  160999  160989  156512  149990  152190+
+         152182  149991  170489  170490  170479  166001
CHEXA      45874       4  155637  153744  153743  153766  163502  163130+
+         163129  163501  161001  157203  160982  160999  152190  150340+
+         150339  152182  170491  166693  170471  170490
CHEXA      45875       4  153765  153763  153762  155641  163521  163149+
+         163148  163520  161003  157241  161002  161004  152191  150359+
+         150358  152192  170492  166731  170493  170494
CHEXA      45876       4  155642  155640  153451  153450  163525  163527+
+         163156  163155  161006  161005  156618  161007  152193  152194+
+         150048  150047  170495  170496  166108  170497
CHEXA      45877       4  155642  153765  155641  155640  163525  163521+
+         163520  163527  161009  161004  161008  161006  152193  152191+
+         152192  152194  170498  170494  170499  170495
CHEXA      45878       4  153451  155640  155638  153452  163156  163527+
+         163805  163526  161005  161011  161010  156621  150048  152194+
+         152195  150049  170496  170500  170501  166111
CHEXA      45879       4  155640  155641  155639  155638  163527  163520+
+         163519  163805  161008  161013  161012  161011  152194  152192+
+         152196  152195  170499  170502  170503  170500
CHEXA      45880       4  155641  153762  153761  155639  163520  163148+
+         163147  163519  161002  157239  161014  161013  152192  150358+
+         150357  152196  170493  166729  170504  170502
CHEXA      45881       4  155644  153454  153453  155643  163529  163158+
+         163157  163528  161016  156623  161015  161017  152197  150051+
+         150050  152198  170505  166113  170506  170507
CHEXA      45882       4  155645  153455  153454  155644  163530  163159+
+         163158  163529  161018  156625  161016  161019  152199  150052+
+         150051  152197  170508  166115  170505  170509
CHEXA      45883       4  155646  153456  153455  155645  163531  163160+
+         163159  163530  161020  156627  161018  161021  152200  150053+
+         150052  152199  170510  166117  170508  170511
CHEXA      45884       4  155647  153457  153456  155646  163533  163161+
+         163160  163531  161022  156629  161020  161023  152201  150054+
+         150053  152200  170512  166119  170510  170513
CHEXA      45885       4  155620  153458  153457  155647  163809  163532+
+         163161  163533  161024  156632  161022  161025  152202  150055+
+         150054  152201  170514  166122  170512  170515
CHEXA      45886       4  155648  155621  155620  155647  163811  164047+
+         163809  163533  161027  161026  161025  161028  152203  152204+
+         152202  152201  170516  170517  170515  170518
CHEXA      45887       4  155649  155622  155621  155648  164050  164274+
+         164047  163811  161030  161029  161027  161031  152205  152206+
+         152204  152203  170519  170520  170516  170521
CHEXA      45888       4  155650  155623  155622  155649  164277  164496+
+         164274  164050  161033  161032  161030  161034  152207  152208+
+         152206  152205  170522  170523  170519  170524
CHEXA      45889       4  155651  155624  155623  155650  164495  164711+
+         164496  164277  161036  161035  161033  161037  152209  152210+
+         152208  152207  170525  170526  170522  170527
CHEXA      45890       4  155652  155625  155624  155651  164494  164710+
+         164711  164495  161039  161038  161036  161040  152211  152212+
+         152210  152209  170528  170529  170525  170530
CHEXA      45891       4  155653  155626  155625  155652  164493  164709+
+         164710  164494  161042  161041  161039  161043  152213  152214+
+         152212  152211  170531  170532  170528  170533
CHEXA      45892       4  155654  155627  155626  155653  164492  164708+
+         164709  164493  161045  161044  161042  161046  152215  152216+
+         152214  152213  170534  170535  170531  170536
CHEXA      45893       4  155655  155628  155627  155654  164491  164707+
+         164708  164492  161048  161047  161045  161049  152217  152218+
+         152216  152215  170537  170538  170534  170539
CHEXA      45894       4  155656  155629  155628  155655  164490  164706+
+         164707  164491  161051  161050  161048  161052  152219  152220+
+         152218  152217  170540  170541  170537  170542
CHEXA      45895       4  155657  155630  155629  155656  164489  164705+
+         164706  164490  161054  161053  161051  161055  152221  152222+
+         152220  152219  170543  170544  170540  170545
CHEXA      45896       4  155658  155631  155630  155657  164488  164704+
+         164705  164489  161057  161056  161054  161058  152223  152224+
+         152222  152221  170546  170547  170543  170548
CHEXA      45897       4  155659  155632  155631  155658  164487  164703+
+         164704  164488  161060  161059  161057  161061  152225  152226+
+         152224  152223  170549  170550  170546  170551
CHEXA      45898       4  155660  155633  155632  155659  164291  164508+
+         164703  164487  161063  161062  161060  161064  152227  152228+
+         152226  152225  170552  170553  170549  170554
CHEXA      45899       4  155661  155634  155633  155660  164066  164289+
+         164508  164291  161066  161065  161063  161067  152229  152230+
+         152228  152227  170555  170556  170552  170557
CHEXA      45900       4  155662  155635  155634  155661  163833  164064+
+         164289  164066  161069  161068  161066  161070  152231  152232+
+         152230  152229  170558  170559  170555  170560
CHEXA      45901       4  155663  155636  155635  155662  163576  163831+
+         164064  163833  161072  161071  161069  161073  152233  152234+
+         152232  152231  170561  170562  170558  170563
CHEXA      45902       4  153389  153388  155636  155663  163224  163574+
+         163831  163576  156501  161074  161072  161075  149985  149984+
+         152234  152233  165990  170564  170561  170565
CHEXA      45903       4  155664  153390  153389  155663  163577  163225+
+         163224  163576  161076  156504  161075  161077  152235  149986+
+         149985  152233  170566  165994  170565  170567
CHEXA      45904       4  155665  153391  153390  155664  163578  163226+
+         163225  163577  161078  156506  161076  161079  152236  149987+
+         149986  152235  170568  165996  170566  170569
CHEXA      45905       4  155666  153392  153391  155665  163579  163227+
+         163226  163578  161080  156508  161078  161081  152237  149988+
+         149987  152236  170570  165998  170568  170571
CHEXA      45906       4  155667  153393  153392  155666  163581  163228+
+         163227  163579  161082  156510  161080  161083  152238  149989+
+         149988  152237  170572  166000  170570  170573
CHEXA      45907       4  155668  153394  153393  155667  163788  163580+
+         163228  163581  161084  156513  161082  161085  152239  149990+
+         149989  152238  170574  166003  170572  170575
CHEXA      45908       4  155669  155637  153394  155668  163503  163502+
+         163580  163788  161086  161000  161084  161087  152240  152190+
+         149990  152239  170576  170489  170574  170577
CHEXA      45909       4  153745  153744  155637  155669  163131  163130+
+         163502  163503  157205  161001  161086  161088  150341  150340+
+         152190  152240  166695  170491  170576  170578
CHEXA      45910       4  155670  153746  153745  155669  163504  163132+
+         163131  163503  161089  157207  161088  161090  152241  150342+
+         150341  152240  170579  166697  170578  170580
CHEXA      45911       4  155671  153747  153746  155670  163505  163133+
+         163132  163504  161091  157209  161089  161092  152242  150343+
+         150342  152241  170581  166699  170579  170582
CHEXA      45912       4  155672  153748  153747  155671  163506  163134+
+         163133  163505  161093  157211  161091  161094  152243  150344+
+         150343  152242  170583  166701  170581  170584
CHEXA      45913       4  155673  153749  153748  155672  163507  163135+
+         163134  163506  161095  157213  161093  161096  152244  150345+
+         150344  152243  170585  166703  170583  170586
CHEXA      45914       4  155674  153750  153749  155673  163508  163136+
+         163135  163507  161097  157215  161095  161098  152245  150346+
+         150345  152244  170587  166705  170585  170588
CHEXA      45915       4  155675  153751  153750  155674  163509  163137+
+         163136  163508  161099  157217  161097  161100  152246  150347+
+         150346  152245  170589  166707  170587  170590
CHEXA      45916       4  155676  153752  153751  155675  163510  163138+
+         163137  163509  161101  157219  161099  161102  152247  150348+
+         150347  152246  170591  166709  170589  170592
CHEXA      45917       4  155677  153753  153752  155676  163511  163139+
+         163138  163510  161103  157221  161101  161104  152248  150349+
+         150348  152247  170593  166711  170591  170594
CHEXA      45918       4  155678  153754  153753  155677  163512  163140+
+         163139  163511  161105  157223  161103  161106  152249  150350+
+         150349  152248  170595  166713  170593  170596
CHEXA      45919       4  155679  153755  153754  155678  163513  163141+
+         163140  163512  161107  157225  161105  161108  152250  150351+
+         150350  152249  170597  166715  170595  170598
CHEXA      45920       4  155680  153756  153755  155679  163514  163142+
+         163141  163513  161109  157227  161107  161110  152251  150352+
+         150351  152250  170599  166717  170597  170600
CHEXA      45921       4  155681  153757  153756  155680  163515  163143+
+         163142  163514  161111  157229  161109  161112  152252  150353+
+         150352  152251  170601  166719  170599  170602
CHEXA      45922       4  155682  153758  153757  155681  163516  163144+
+         163143  163515  161113  157231  161111  161114  152253  150354+
+         150353  152252  170603  166721  170601  170604
CHEXA      45923       4  155683  153759  153758  155682  163517  163145+
+         163144  163516  161115  157233  161113  161116  152254  150355+
+         150354  152253  170605  166723  170603  170606
CHEXA      45924       4  155684  153760  153759  155683  163518  163146+
+         163145  163517  161117  157235  161115  161118  152255  150356+
+         150355  152254  170607  166725  170605  170608
CHEXA      45925       4  155639  153761  153760  155684  163519  163147+
+         163146  163518  161014  157237  161117  161119  152196  150357+
+         150356  152255  170504  166727  170607  170609
CHEXA      45926       4  155685  155638  155639  155684  163803  163805+
+         163519  163518  161120  161012  161119  161121  152256  152195+
+         152196  152255  170610  170503  170609  170611
CHEXA      45927       4  155649  155691  155686  155650  164050  164046+
+         164273  164277  161124  161123  161122  161034  152205  152257+
+         152258  152207  170612  170613  170614  170524
CHEXA      45928       4  155691  155690  155687  155686  164046  164045+
+         164044  164273  161127  161126  161125  161123  152257  152259+
+         152260  152258  170615  170616  170617  170613
CHEXA      45929       4  155690  155689  155688  155687  164045  163802+
+         163801  164044  161130  161129  161128  161126  152259  152261+
+         152262  152260  170618  170619  170620  170616
CHEXA      45930       4  155689  155683  155682  155688  163802  163517+
+         163516  163801  161132  161116  161131  161129  152261  152254+
+         152253  152262  170621  170606  170622  170619
CHEXA      45931       4  155684  155683  155689  155694  163518  163517+
+         163802  163804  161118  161132  161133  161134  152255  152254+
+         152261  152263  170608  170621  170623  170624
CHEXA      45932       4  155693  155685  155684  155694  163806  163803+
+         163518  163804  161135  161121  161134  161136  152264  152256+
+         152255  152263  170625  170611  170624  170626
CHEXA      45933       4  155694  155689  155690  155692  163804  163802+
+         164045  163807  161133  161130  161137  161138  152263  152261+
+         152259  152265  170623  170618  170627  170628
CHEXA      45934       4  155694  155692  155643  155693  163804  163807+
+         163528  163806  161138  161140  161139  161136  152263  152265+
+         152198  152264  170628  170629  170630  170626
CHEXA      45935       4  155691  155649  155648  155695  164046  164050+
+         163811  163808  161124  161031  161141  161142  152257  152205+
+         152203  152266  170612  170521  170631  170632
CHEXA      45936       4  155692  155690  155691  155695  163807  164045+
+         164046  163808  161137  161127  161142  161143  152265  152259+
+         152257  152266  170627  170615  170632  170633
CHEXA      45937       4  155644  155643  155692  155695  163529  163528+
+         163807  163808  161017  161140  161143  161144  152197  152198+
+         152265  152266  170507  170629  170633  170634
CHEXA      45938       4  155695  155648  155647  155646  163808  163811+
+         163533  163531  161141  161028  161023  161145  152266  152203+
+         152201  152200  170631  170518  170513  170635
CHEXA      45939       4  155645  155644  155695  155646  163530  163529+
+         163808  163531  161019  161144  161145  161021  152199  152197+
+         152266  152200  170509  170634  170635  170511
CHEXA      45940       4  155681  155698  155688  155682  163515  163800+
+         163801  163516  161147  161146  161131  161114  152252  152267+
+         152262  152253  170636  170637  170622  170604
CHEXA      45941       4  155698  155697  155687  155688  163800  164043+
+         164044  163801  161149  161148  161128  161146  152267  152268+
+         152260  152262  170638  170639  170620  170637
CHEXA      45942       4  155697  155696  155686  155687  164043  164272+
+         164273  164044  161151  161150  161125  161148  152268  152269+
+         152258  152260  170640  170641  170617  170639
CHEXA      45943       4  155696  155651  155650  155686  164272  164495+
+         164277  164273  161152  161037  161122  161150  152269  152209+
+         152207  152258  170642  170527  170614  170641
CHEXA      45944       4  155680  155701  155698  155681  163514  163799+
+         163800  163515  161154  161153  161147  161112  152251  152270+
+         152267  152252  170643  170644  170636  170602
CHEXA      45945       4  155701  155700  155697  155698  163799  164042+
+         164043  163800  161156  161155  161149  161153  152270  152271+
+         152268  152267  170645  170646  170638  170644
CHEXA      45946       4  155700  155699  155696  155697  164042  164271+
+         164272  164043  161158  161157  161151  161155  152271  152272+
+         152269  152268  170647  170648  170640  170646
CHEXA      45947       4  155699  155652  155651  155696  164271  164494+
+         164495  164272  161159  161040  161152  161157  152272  152211+
+         152209  152269  170649  170530  170642  170648
CHEXA      45948       4  155679  155704  155701  155680  163513  163798+
+         163799  163514  161161  161160  161154  161110  152250  152273+
+         152270  152251  170650  170651  170643  170600
CHEXA      45949       4  155704  155703  155700  155701  163798  164041+
+         164042  163799  161163  161162  161156  161160  152273  152274+
+         152271  152270  170652  170653  170645  170651
CHEXA      45950       4  155703  155702  155699  155700  164041  164270+
+         164271  164042  161165  161164  161158  161162  152274  152275+
+         152272  152271  170654  170655  170647  170653
CHEXA      45951       4  155702  155653  155652  155699  164270  164493+
+         164494  164271  161166  161043  161159  161164  152275  152213+
+         152211  152272  170656  170533  170649  170655
CHEXA      45952       4  155678  155707  155704  155679  163512  163797+
+         163798  163513  161168  161167  161161  161108  152249  152276+
+         152273  152250  170657  170658  170650  170598
CHEXA      45953       4  155707  155706  155703  155704  163797  164040+
+         164041  163798  161170  161169  161163  161167  152276  152277+
+         152274  152273  170659  170660  170652  170658
CHEXA      45954       4  155706  155705  155702  155703  164040  164269+
+         164270  164041  161172  161171  161165  161169  152277  152278+
+         152275  152274  170661  170662  170654  170660
CHEXA      45955       4  155705  155654  155653  155702  164269  164492+
+         164493  164270  161173  161046  161166  161171  152278  152215+
+         152213  152275  170663  170536  170656  170662
CHEXA      45956       4  155708  155670  155669  155668  163789  163504+
+         163503  163788  161174  161090  161087  161175  152279  152241+
+         152240  152239  170664  170580  170577  170665
CHEXA      45957       4  155667  155709  155708  155668  163581  163835+
+         163789  163788  161177  161176  161175  161085  152238  152280+
+         152279  152239  170666  170667  170665  170575
CHEXA      45958       4  155671  155670  155708  155711  163505  163504+
+         163789  163790  161092  161174  161178  161179  152242  152241+
+         152279  152281  170582  170664  170668  170669
CHEXA      45959       4  155712  155672  155671  155711  163791  163506+
+         163505  163790  161180  161094  161179  161181  152282  152243+
+         152242  152281  170670  170584  170669  170671
CHEXA      45960       4  155713  155673  155672  155712  163792  163507+
+         163506  163791  161182  161096  161180  161183  152283  152244+
+         152243  152282  170672  170586  170670  170673
CHEXA      45961       4  155714  155674  155673  155713  163793  163508+
+         163507  163792  161184  161098  161182  161185  152284  152245+
+         152244  152283  170674  170588  170672  170675
CHEXA      45962       4  155715  155675  155674  155714  163794  163509+
+         163508  163793  161186  161100  161184  161187  152285  152246+
+         152245  152284  170676  170590  170674  170677
CHEXA      45963       4  155716  155676  155675  155715  163795  163510+
+         163509  163794  161188  161102  161186  161189  152286  152247+
+         152246  152285  170678  170592  170676  170679
CHEXA      45964       4  155717  155677  155676  155716  163796  163511+
+         163510  163795  161190  161104  161188  161191  152287  152248+
+         152247  152286  170680  170594  170678  170681
CHEXA      45965       4  155707  155678  155677  155717  163797  163512+
+         163511  163796  161168  161106  161190  161192  152276  152249+
+         152248  152287  170657  170596  170680  170682
CHEXA      45966       4  155718  155706  155707  155717  164039  164040+
+         163797  163796  161193  161170  161192  161194  152288  152277+
+         152276  152287  170683  170659  170682  170684
CHEXA      45967       4  155719  155705  155706  155718  164268  164269+
+         164040  164039  161195  161172  161193  161196  152289  152278+
+         152277  152288  170685  170661  170683  170686
CHEXA      45968       4  155655  155654  155705  155719  164491  164492+
+         164269  164268  161049  161173  161195  161197  152217  152215+
+         152278  152289  170539  170663  170685  170687
CHEXA      45969       4  155720  155656  155655  155719  164267  164490+
+         164491  164268  161198  161052  161197  161199  152290  152219+
+         152217  152289  170688  170542  170687  170689
CHEXA      45970       4  155721  155657  155656  155720  164266  164489+
+         164490  164267  161200  161055  161198  161201  152291  152221+
+         152219  152290  170690  170545  170688  170691
CHEXA      45971       4  155722  155658  155657  155721  164265  164488+
+         164489  164266  161202  161058  161200  161203  152292  152223+
+         152221  152291  170692  170548  170690  170693
CHEXA      45972       4  155723  155659  155658  155722  164264  164487+
+         164488  164265  161204  161061  161202  161205  152293  152225+
+         152223  152292  170694  170551  170692  170695
CHEXA      45973       4  155724  155660  155659  155723  164263  164291+
+         164487  164264  161206  161064  161204  161207  152294  152227+
+         152225  152293  170696  170554  170694  170697
CHEXA      45974       4  155725  155661  155660  155724  164067  164066+
+         164291  164263  161208  161067  161206  161209  152295  152229+
+         152227  152294  170698  170557  170696  170699
CHEXA      45975       4  155710  155662  155661  155725  163834  163833+
+         164066  164067  161210  161070  161208  161211  152296  152231+
+         152229  152295  170700  170560  170698  170701
CHEXA      45976       4  155726  155709  155710  155725  164033  163835+
+         163834  164067  161213  161212  161211  161214  152297  152280+
+         152296  152295  170702  170703  170701  170704
CHEXA      45977       4  155711  155708  155709  155726  163790  163789+
+         163835  164033  161178  161176  161213  161215  152281  152279+
+         152280  152297  170668  170667  170702  170705
CHEXA      45978       4  155726  155727  155712  155711  164033  164034+
+         163791  163790  161217  161216  161181  161215  152297  152298+
+         152282  152281  170706  170707  170671  170705
CHEXA      45979       4  155727  155728  155713  155712  164034  164035+
+         163792  163791  161219  161218  161183  161216  152298  152299+
+         152283  152282  170708  170709  170673  170707
CHEXA      45980       4  155728  155729  155714  155713  164035  164036+
+         163793  163792  161221  161220  161185  161218  152299  152300+
+         152284  152283  170710  170711  170675  170709
CHEXA      45981       4  155729  155730  155715  155714  164036  164037+
+         163794  163793  161223  161222  161187  161220  152300  152301+
+         152285  152284  170712  170713  170677  170711
CHEXA      45982       4  155730  155731  155716  155715  164037  164038+
+         163795  163794  161225  161224  161189  161222  152301  152302+
+         152286  152285  170714  170715  170679  170713
CHEXA      45983       4  155731  155718  155717  155716  164038  164039+
+         163796  163795  161226  161194  161191  161224  152302  152288+
+         152287  152286  170716  170684  170681  170715
CHEXA      45984       4  155720  155719  155718  155731  164267  164268+
+         164039  164038  161199  161196  161226  161227  152290  152289+
+         152288  152302  170689  170686  170716  170717
CHEXA      45985       4  155721  155720  155731  155730  164266  164267+
+         164038  164037  161201  161227  161225  161228  152291  152290+
+         152302  152301  170691  170717  170714  170718
CHEXA      45986       4  155722  155721  155730  155729  164265  164266+
+         164037  164036  161203  161228  161223  161229  152292  152291+
+         152301  152300  170693  170718  170712  170719
CHEXA      45987       4  155723  155722  155729  155728  164264  164265+
+         164036  164035  161205  161229  161221  161230  152293  152292+
+         152300  152299  170695  170719  170710  170720
CHEXA      45988       4  155724  155723  155728  155727  164263  164264+
+         164035  164034  161207  161230  161219  161231  152294  152293+
+         152299  152298  170697  170720  170708  170721
CHEXA      45989       4  155725  155724  155727  155726  164067  164263+
+         164034  164033  161209  161231  161217  161214  152295  152294+
+         152298  152297  170699  170721  170706  170704
CHEXA      45990       4  155733  153764  153763  153765  163231  163150+
+         163149  163521  161232  157243  161003  161233  152303  150360+
+         150359  152191  170722  166733  170492  170723
CHEXA      45991       4  155735  153448  153447  155734  163523  163153+
+         163152  163522  161235  156612  161234  161236  152304  150045+
+         150044  152305  170724  166102  170725  170726
CHEXA      45992       4  155733  153765  155735  155734  163231  163521+
+         163523  163522  161233  161237  161236  161238  152303  152191+
+         152304  152305  170723  170727  170726  170728
CHEXA      45993       4  153470  153469  153764  155733  162864  162863+
+         163150  163231  156652  157244  161232  161239  150066  150065+
+         150360  152303  166142  166734  170722  170729
CHEXA      45994       4  155736  155734  153447  153446  163232  163522+
+         163152  163233  161240  161234  156609  161241  152306  152305+
+         150044  150043  170730  170725  166098  170731
CHEXA      45995       4  155736  153470  155733  155734  163232  162864+
+         163231  163522  161242  161239  161238  161240  152306  150066+
+         152303  152305  170732  170729  170728  170730
CHEXA      45996       4  153471  153470  155736  153446  162865  162864+
+         163232  163233  156654  161242  161241  161243  150067  150066+
+         152306  150043  166144  170732  170731  170733
CHEXA      45997       4  155737  153465  153464  155732  163236  163167+
+         163538  163237  161245  156642  161244  161246  152307  150062+
+         150061  152308  170734  166131  170735  170736
CHEXA      45998       4  155737  153473  153466  153465  163236  162867+
+         163168  163167  161248  161247  156645  161245  152307  150069+
+         150063  150062  170737  170738  166135  170734
CHEXA      45999       4  153474  153473  155737  155732  162868  162867+
+         163236  163237  156660  161248  161246  161249  150070  150069+
+         152307  152308  166150  170737  170736  170739
CHEXA      46000       4  153467  153466  153473  153472  163169  163168+
+         162867  162866  156647  161247  156658  161250  150064  150063+
+         150069  150068  166137  170738  166148  170740
CHEXA      46001       4  155738  155739  153445  153468  163235  163234+
+         163151  163170  161252  161251  156607  161253  152309  152310+
+         150041  150042  170741  170742  166097  170743
CHEXA      46002       4  155739  153471  153446  153445  163234  162865+
+         163233  163151  161254  161243  156610  161251  152310  150067+
+         150043  150041  170744  170733  166100  170742
CHEXA      46003       4  153472  153471  155739  155738  162866  162865+
+         163234  163235  156656  161254  161252  161255  150068  150067+
+         152310  152309  166146  170744  170741  170745
CHEXA      46004       4  153468  153467  153472  155738  163170  163169+
+         162866  163235  156648  161250  161255  161253  150042  150064+
+         150068  152309  166138  170740  170745  170743
CHEXA      46005       4  155765  155741  155740  155764  163774  163775+
+         163480  163479  161258  161257  161256  161259  152311  152312+
+         152313  152314  170746  170747  170748  170749
CHEXA      46006       4  155766  155742  155741  155765  164020  164021+
+         163775  163774  161261  161260  161258  161262  152315  152316+
+         152312  152311  170750  170751  170746  170752
CHEXA      46007       4  155767  155743  155742  155766  164250  164251+
+         164021  164020  161264  161263  161261  161265  152317  152318+
+         152316  152315  170753  170754  170750  170755
CHEXA      46008       4  155768  155744  155743  155767  164474  164475+
+         164251  164250  161267  161266  161264  161268  152319  152320+
+         152318  152317  170756  170757  170753  170758
CHEXA      46009       4  155769  155745  155744  155768  164690  164691+
+         164475  164474  161270  161269  161267  161271  152321  152322+
+         152320  152319  170759  170760  170756  170761
CHEXA      46010       4  155770  155746  155745  155769  164902  164903+
+         164691  164690  161273  161272  161270  161274  152323  152324+
+         152322  152321  170762  170763  170759  170764
CHEXA      46011       4  155771  155747  155746  155770  165108  165109+
+         164903  164902  161276  161275  161273  161277  152325  152326+
+         152324  152323  170765  170766  170762  170767
CHEXA      46012       4  155772  155748  155747  155771  165310  165311+
+         165109  165108  161279  161278  161276  161280  152327  152328+
+         152326  152325  170768  170769  170765  170770
CHEXA      46013       4  155773  155749  155748  155772  165507  165508+
+         165311  165310  161282  161281  161279  161283  152329  152330+
+         152328  152327  170771  170772  170768  170773
CHEXA      46014       4  155774  155750  155749  155773  165695  165696+
+         165508  165507  161285  161284  161282  161286  152331  152332+
+         152330  152329  170774  170775  170771  170776
CHEXA      46015       4  155775  155751  155750  155774  165867  165868+
+         165696  165695  161288  161287  161285  161289  152333  152334+
+         152332  152331  170777  170778  170774  170779
CHEXA      46016       4  155776  155752  155751  155775  165717  165716+
+         165868  165867  161291  161290  161288  161292  152335  152336+
+         152334  152333  170780  170781  170777  170782
CHEXA      46017       4  155777  155753  155752  155776  165533  165532+
+         165716  165717  161294  161293  161291  161295  152337  152338+
+         152336  152335  170783  170784  170780  170785
CHEXA      46018       4  155778  155754  155753  155777  165341  165340+
+         165532  165533  161297  161296  161294  161298  152339  152340+
+         152338  152337  170786  170787  170783  170788
CHEXA      46019       4  155779  155755  155754  155778  165144  165143+
+         165340  165341  161300  161299  161297  161301  152341  152342+
+         152340  152339  170789  170790  170786  170791
CHEXA      46020       4  155780  155756  155755  155779  164942  164941+
+         165143  165144  161303  161302  161300  161304  152343  152344+
+         152342  152341  170792  170793  170789  170794
CHEXA      46021       4  155781  155757  155756  155780  164734  164733+
+         164941  164942  161306  161305  161303  161307  152345  152346+
+         152344  152343  170795  170796  170792  170797
CHEXA      46022       4  155782  155758  155757  155781  164522  164521+
+         164733  164734  161309  161308  161306  161310  152347  152348+
+         152346  152345  170798  170799  170795  170800
CHEXA      46023       4  155783  155759  155758  155782  164304  164303+
+         164521  164522  161312  161311  161309  161313  152349  152350+
+         152348  152347  170801  170802  170798  170803
CHEXA      46024       4  155784  155760  155759  155783  164079  164078+
+         164303  164304  161315  161314  161312  161316  152351  152352+
+         152350  152349  170804  170805  170801  170806
CHEXA      46025       4  155785  155761  155760  155784  163847  163846+
+         164078  164079  161318  161317  161315  161319  152353  152354+
+         152352  152351  170807  170808  170804  170809
CHEXA      46026       4  155786  155762  155761  155785  163595  163594+
+         163846  163847  161321  161320  161318  161322  152355  152356+
+         152354  152353  170810  170811  170807  170812
CHEXA      46027       4  155787  155763  155762  155786  163251  163250+
+         163594  163595  161324  161323  161321  161325  152357  152358+
+         152356  152355  170813  170814  170810  170815
CHEXA      46028       4  153488  153487  155763  155787  162882  162881+
+         163250  163251  156688  161326  161324  161327  150084  150083+
+         152358  152357  166178  170816  170813  170817
CHEXA      46029       4  155788  153489  153488  155787  163252  162883+
+         162882  163251  161328  156690  161327  161329  152359  150085+
+         150084  152357  170818  166180  170817  170819
CHEXA      46030       4  155789  153490  153489  155788  163253  162884+
+         162883  163252  161330  156692  161328  161331  152360  150086+
+         150085  152359  170820  166182  170818  170821
CHEXA      46031       4  155790  153491  153490  155789  163254  162885+
+         162884  163253  161332  156694  161330  161333  152361  150087+
+         150086  152360  170822  166184  170820  170823
CHEXA      46032       4  155791  153492  153491  155790  163255  162886+
+         162885  163254  161334  156696  161332  161335  152362  150088+
+         150087  152361  170824  166186  170822  170825
CHEXA      46033       4  155792  153493  153492  155791  163256  162887+
+         162886  163255  161336  156698  161334  161337  152363  150089+
+         150088  152362  170826  166188  170824  170827
CHEXA      46034       4  155793  153494  153493  155792  163257  162888+
+         162887  163256  161338  156700  161336  161339  152364  150090+
+         150089  152363  170828  166190  170826  170829
CHEXA      46035       4  155794  153495  153494  155793  163258  162889+
+         162888  163257  161340  156702  161338  161341  152365  150091+
+         150090  152364  170830  166192  170828  170831
CHEXA      46036       4  155795  153496  153495  155794  163259  162890+
+         162889  163258  161342  156704  161340  161343  152366  150092+
+         150091  152365  170832  166194  170830  170833
CHEXA      46037       4  155796  153497  153496  155795  163260  162891+
+         162890  163259  161344  156706  161342  161345  152367  150093+
+         150092  152366  170834  166196  170832  170835
CHEXA      46038       4  155797  153498  153497  155796  163261  162892+
+         162891  163260  161346  156708  161344  161347  152368  150094+
+         150093  152367  170836  166198  170834  170837
CHEXA      46039       4  155798  153499  153498  155797  163262  162893+
+         162892  163261  161348  156710  161346  161349  152369  150095+
+         150094  152368  170838  166200  170836  170839
CHEXA      46040       4  155799  153500  153499  155798  163263  162894+
+         162893  163262  161350  156712  161348  161351  152370  150096+
+         150095  152369  170840  166202  170838  170841
CHEXA      46041       4  155800  153501  153500  155799  163264  162895+
+         162894  163263  161352  156714  161350  161353  152371  150097+
+         150096  152370  170842  166204  170840  170843
CHEXA      46042       4  155589  153502  153501  155800  163265  162896+
+         162895  163264  161354  156716  161352  161355  152372  150098+
+         150097  152371  170844  166206  170842  170845
CHEXA      46043       4  155801  155590  155589  155800  163608  163609+
+         163265  163264  161357  161356  161355  161358  152373  152374+
+         152372  152371  170846  170847  170845  170848
CHEXA      46044       4  155802  155591  155590  155801  163860  163861+
+         163609  163608  161360  161359  161357  161361  152375  152376+
+         152374  152373  170849  170850  170846  170851
CHEXA      46045       4  155803  155592  155591  155802  164092  164093+
+         163861  163860  161363  161362  161360  161364  152377  152378+
+         152376  152375  170852  170853  170849  170854
CHEXA      46046       4  155804  155593  155592  155803  164317  164318+
+         164093  164092  161366  161365  161363  161367  152379  152380+
+         152378  152377  170855  170856  170852  170857
CHEXA      46047       4  155805  155594  155593  155804  164535  164536+
+         164318  164317  161369  161368  161366  161370  152381  152382+
+         152380  152379  170858  170859  170855  170860
CHEXA      46048       4  155806  155595  155594  155805  164747  164748+
+         164536  164535  161372  161371  161369  161373  152383  152384+
+         152382  152381  170861  170862  170858  170863
CHEXA      46049       4  155807  155596  155595  155806  164955  164956+
+         164748  164747  161375  161374  161372  161376  152385  152386+
+         152384  152383  170864  170865  170861  170866
CHEXA      46050       4  155808  155597  155596  155807  165158  165159+
+         164956  164955  161378  161377  161375  161379  152387  152388+
+         152386  152385  170867  170868  170864  170869
CHEXA      46051       4  155809  155598  155597  155808  165356  165357+
+         165159  165158  161381  161380  161378  161382  152389  152390+
+         152388  152387  170870  170871  170867  170872
CHEXA      46052       4  155810  155599  155598  155809  165548  165549+
+         165357  165356  161384  161383  161381  161385  152391  152392+
+         152390  152389  170873  170874  170870  170875
CHEXA      46053       4  155811  155600  155599  155810  165732  165733+
+         165549  165548  161387  161386  161384  161388  152393  152394+
+         152392  152391  170876  170877  170873  170878
CHEXA      46054       4  155812  155601  155600  155811  165885  165886+
+         165733  165732  161390  161389  161387  161391  152395  152396+
+         152394  152393  170879  170880  170876  170881
CHEXA      46055       4  155813  155602  155601  155812  165940  165851+
+         165886  165885  161393  161392  161390  161394  152397  152398+
+         152396  152395  170882  170883  170879  170884
CHEXA      46056       4  155814  155603  155602  155813  165852  165679+
+         165851  165940  161396  161395  161393  161397  152399  152400+
+         152398  152397  170885  170886  170882  170887
CHEXA      46057       4  155815  155604  155603  155814  165680  165491+
+         165679  165852  161399  161398  161396  161400  152401  152402+
+         152400  152399  170888  170889  170885  170890
CHEXA      46058       4  155816  155605  155604  155815  165492  165294+
+         165491  165680  161402  161401  161399  161403  152403  152404+
+         152402  152401  170891  170892  170888  170893
CHEXA      46059       4  155817  155606  155605  155816  165295  165091+
+         165294  165492  161405  161404  161402  161406  152405  152406+
+         152404  152403  170894  170895  170891  170896
CHEXA      46060       4  155818  155607  155606  155817  165092  164886+
+         165091  165295  161408  161407  161405  161409  152407  152408+
+         152406  152405  170897  170898  170894  170899
CHEXA      46061       4  155819  155608  155607  155818  164887  164674+
+         164886  165092  161411  161410  161408  161412  152409  152410+
+         152408  152407  170900  170901  170897  170902
CHEXA      46062       4  155820  155609  155608  155819  164675  164458+
+         164674  164887  161414  161413  161411  161415  152411  152412+
+         152410  152409  170903  170904  170900  170905
CHEXA      46063       4  155821  155610  155609  155820  164459  164234+
+         164458  164675  161417  161416  161414  161418  152413  152414+
+         152412  152411  170906  170907  170903  170908
CHEXA      46064       4  155822  155611  155610  155821  164235  164004+
+         164234  164459  161420  161419  161417  161421  152415  152416+
+         152414  152413  170909  170910  170906  170911
CHEXA      46065       4  155823  155612  155611  155822  164005  163758+
+         164004  164235  161423  161422  161420  161424  152417  152418+
+         152416  152415  170912  170913  170909  170914
CHEXA      46066       4  155824  153703  155612  155823  163759  163462+
+         163758  164005  161426  161425  161423  161427  152419  150299+
+         152418  152417  170915  170916  170912  170917
CHEXA      46067       4  155825  153704  153703  155824  163464  163090+
+         163462  163759  161428  157120  161426  161429  152420  150300+
+         150299  152419  170918  166609  170915  170919
CHEXA      46068       4  155826  153705  153704  155825  163465  163091+
+         163090  163464  161430  157123  161428  161431  152421  150301+
+         150300  152420  170920  166613  170918  170921
CHEXA      46069       4  153707  153706  153705  155826  163093  163092+
+         163091  163465  157128  157125  161430  161432  150303  150302+
+         150301  152421  166618  166615  170920  170922
CHEXA      46070       4  155827  153708  153707  155826  163466  163094+
+         163093  163465  161433  157130  161432  161434  152422  150304+
+         150303  152421  170923  166620  170922  170924
CHEXA      46071       4  155828  153709  153708  155827  163467  163095+
+         163094  163466  161435  157132  161433  161436  152423  150305+
+         150304  152422  170925  166622  170923  170926
CHEXA      46072       4  155829  153710  153709  155828  163468  163096+
+         163095  163467  161437  157134  161435  161438  152424  150306+
+         150305  152423  170927  166624  170925  170928
CHEXA      46073       4  155830  153711  153710  155829  163469  163097+
+         163096  163468  161439  157136  161437  161440  152425  150307+
+         150306  152424  170929  166626  170927  170930
CHEXA      46074       4  155831  153712  153711  155830  163470  163098+
+         163097  163469  161441  157138  161439  161442  152426  150308+
+         150307  152425  170931  166628  170929  170932
CHEXA      46075       4  155832  153713  153712  155831  163471  163099+
+         163098  163470  161443  157140  161441  161444  152427  150309+
+         150308  152426  170933  166630  170931  170934
CHEXA      46076       4  155833  153714  153713  155832  163472  163100+
+         163099  163471  161445  157142  161443  161446  152428  150310+
+         150309  152427  170935  166632  170933  170936
CHEXA      46077       4  155834  153715  153714  155833  163473  163101+
+         163100  163472  161447  157144  161445  161448  152429  150311+
+         150310  152428  170937  166634  170935  170938
CHEXA      46078       4  155835  153716  153715  155834  163474  163102+
+         163101  163473  161449  157146  161447  161450  152430  150312+
+         150311  152429  170939  166636  170937  170940
CHEXA      46079       4  155836  153717  153716  155835  163475  163103+
+         163102  163474  161451  157148  161449  161452  152431  150313+
+         150312  152430  170941  166638  170939  170942
CHEXA      46080       4  155837  153718  153717  155836  163476  163104+
+         163103  163475  161453  157150  161451  161454  152432  150314+
+         150313  152431  170943  166640  170941  170944
CHEXA      46081       4  155838  153719  153718  155837  163477  163105+
+         163104  163476  161455  157152  161453  161456  152433  150315+
+         150314  152432  170945  166642  170943  170946
CHEXA      46082       4  155839  153720  153719  155838  163478  163106+
+         163105  163477  161457  157154  161455  161458  152434  150316+
+         150315  152433  170947  166644  170945  170948
CHEXA      46083       4  155764  153721  153720  155839  163479  163107+
+         163106  163478  161459  157156  161457  161460  152314  150317+
+         150316  152434  170949  166646  170947  170950
CHEXA      46084       4  155740  153722  153721  155764  163480  163108+
+         163107  163479  161461  157158  161459  161256  152313  150318+
+         150317  152314  170951  166648  170949  170748
CHEXA      46085       4  155765  155764  155839  155840  163774  163479+
+         163478  163773  161259  161460  161462  161463  152311  152314+
+         152434  152435  170749  170950  170952  170953
CHEXA      46086       4  155841  155766  155765  155840  164019  164020+
+         163774  163773  161464  161262  161463  161465  152436  152315+
+         152311  152435  170954  170752  170953  170955
CHEXA      46087       4  155842  155767  155766  155841  164249  164250+
+         164020  164019  161466  161265  161464  161467  152437  152317+
+         152315  152436  170956  170755  170954  170957
CHEXA      46088       4  155843  155768  155767  155842  164473  164474+
+         164250  164249  161468  161268  161466  161469  152438  152319+
+         152317  152437  170958  170758  170956  170959
CHEXA      46089       4  155844  155769  155768  155843  164689  164690+
+         164474  164473  161470  161271  161468  161471  152439  152321+
+         152319  152438  170960  170761  170958  170961
CHEXA      46090       4  155845  155770  155769  155844  164901  164902+
+         164690  164689  161472  161274  161470  161473  152440  152323+
+         152321  152439  170962  170764  170960  170963
CHEXA      46091       4  155846  155771  155770  155845  165107  165108+
+         164902  164901  161474  161277  161472  161475  152441  152325+
+         152323  152440  170964  170767  170962  170965
CHEXA      46092       4  155847  155772  155771  155846  165309  165310+
+         165108  165107  161476  161280  161474  161477  152442  152327+
+         152325  152441  170966  170770  170964  170967
CHEXA      46093       4  155848  155773  155772  155847  165506  165507+
+         165310  165309  161478  161283  161476  161479  152443  152329+
+         152327  152442  170968  170773  170966  170969
CHEXA      46094       4  155849  155774  155773  155848  165694  165695+
+         165507  165506  161480  161286  161478  161481  152444  152331+
+         152329  152443  170970  170776  170968  170971
CHEXA      46095       4  155850  155775  155774  155849  165866  165867+
+         165695  165694  161482  161289  161480  161483  152445  152333+
+         152331  152444  170972  170779  170970  170973
CHEXA      46096       4  155851  155776  155775  155850  165718  165717+
+         165867  165866  161484  161292  161482  161485  152446  152335+
+         152333  152445  170974  170782  170972  170975
CHEXA      46097       4  155852  155777  155776  155851  165534  165533+
+         165717  165718  161486  161295  161484  161487  152447  152337+
+         152335  152446  170976  170785  170974  170977
CHEXA      46098       4  155853  155778  155777  155852  165342  165341+
+         165533  165534  161488  161298  161486  161489  152448  152339+
+         152337  152447  170978  170788  170976  170979
CHEXA      46099       4  155854  155779  155778  155853  165145  165144+
+         165341  165342  161490  161301  161488  161491  152449  152341+
+         152339  152448  170980  170791  170978  170981
CHEXA      46100       4  155855  155780  155779  155854  164943  164942+
+         165144  165145  161492  161304  161490  161493  152450  152343+
+         152341  152449  170982  170794  170980  170983
CHEXA      46101       4  155856  155781  155780  155855  164735  164734+
+         164942  164943  161494  161307  161492  161495  152451  152345+
+         152343  152450  170984  170797  170982  170985
CHEXA      46102       4  155857  155782  155781  155856  164523  164522+
+         164734  164735  161496  161310  161494  161497  152452  152347+
+         152345  152451  170986  170800  170984  170987
CHEXA      46103       4  155858  155783  155782  155857  164305  164304+
+         164522  164523  161498  161313  161496  161499  152453  152349+
+         152347  152452  170988  170803  170986  170989
CHEXA      46104       4  155859  155784  155783  155858  164080  164079+
+         164304  164305  161500  161316  161498  161501  152454  152351+
+         152349  152453  170990  170806  170988  170991
CHEXA      46105       4  155860  155785  155784  155859  163848  163847+
+         164079  164080  161502  161319  161500  161503  152455  152353+
+         152351  152454  170992  170809  170990  170993
CHEXA      46106       4  155861  155786  155785  155860  163596  163595+
+         163847  163848  161504  161322  161502  161505  152456  152355+
+         152353  152455  170994  170812  170992  170995
CHEXA      46107       4  155788  155787  155786  155861  163252  163251+
+         163595  163596  161329  161325  161504  161506  152359  152357+
+         152355  152456  170819  170815  170994  170996
CHEXA      46108       4  155862  155789  155788  155861  163597  163253+
+         163252  163596  161507  161331  161506  161508  152457  152360+
+         152359  152456  170997  170821  170996  170998
CHEXA      46109       4  155863  155790  155789  155862  163598  163254+
+         163253  163597  161509  161333  161507  161510  152458  152361+
+         152360  152457  170999  170823  170997  171000
CHEXA      46110       4  155864  155791  155790  155863  163599  163255+
+         163254  163598  161511  161335  161509  161512  152459  152362+
+         152361  152458  171001  170825  170999  171002
CHEXA      46111       4  155865  155792  155791  155864  163600  163256+
+         163255  163599  161513  161337  161511  161514  152460  152363+
+         152362  152459  171003  170827  171001  171004
CHEXA      46112       4  155866  155793  155792  155865  163601  163257+
+         163256  163600  161515  161339  161513  161516  152461  152364+
+         152363  152460  171005  170829  171003  171006
CHEXA      46113       4  155867  155794  155793  155866  163602  163258+
+         163257  163601  161517  161341  161515  161518  152462  152365+
+         152364  152461  171007  170831  171005  171008
CHEXA      46114       4  155868  155795  155794  155867  163603  163259+
+         163258  163602  161519  161343  161517  161520  152463  152366+
+         152365  152462  171009  170833  171007  171010
CHEXA      46115       4  155869  155796  155795  155868  163604  163260+
+         163259  163603  161521  161345  161519  161522  152464  152367+
+         152366  152463  171011  170835  171009  171012
CHEXA      46116       4  155870  155797  155796  155869  163605  163261+
+         163260  163604  161523  161347  161521  161524  152465  152368+
+         152367  152464  171013  170837  171011  171014
CHEXA      46117       4  155871  155798  155797  155870  163606  163262+
+         163261  163605  161525  161349  161523  161526  152466  152369+
+         152368  152465  171015  170839  171013  171016
CHEXA      46118       4  155872  155799  155798  155871  163607  163263+
+         163262  163606  161527  161351  161525  161528  152467  152370+
+         152369  152466  171017  170841  171015  171018
CHEXA      46119       4  155801  155800  155799  155872  163608  163264+
+         163263  163607  161358  161353  161527  161529  152373  152371+
+         152370  152467  170848  170843  171017  171019
CHEXA      46120       4  155873  155802  155801  155872  163859  163860+
+         163608  163607  161530  161361  161529  161531  152468  152375+
+         152373  152467  171020  170851  171019  171021
CHEXA      46121       4  155874  155803  155802  155873  164091  164092+
+         163860  163859  161532  161364  161530  161533  152469  152377+
+         152375  152468  171022  170854  171020  171023
CHEXA      46122       4  155875  155804  155803  155874  164316  164317+
+         164092  164091  161534  161367  161532  161535  152470  152379+
+         152377  152469  171024  170857  171022  171025
CHEXA      46123       4  155876  155805  155804  155875  164534  164535+
+         164317  164316  161536  161370  161534  161537  152471  152381+
+         152379  152470  171026  170860  171024  171027
CHEXA      46124       4  155877  155806  155805  155876  164746  164747+
+         164535  164534  161538  161373  161536  161539  152472  152383+
+         152381  152471  171028  170863  171026  171029
CHEXA      46125       4  155878  155807  155806  155877  164954  164955+
+         164747  164746  161540  161376  161538  161541  152473  152385+
+         152383  152472  171030  170866  171028  171031
CHEXA      46126       4  155879  155808  155807  155878  165157  165158+
+         164955  164954  161542  161379  161540  161543  152474  152387+
+         152385  152473  171032  170869  171030  171033
CHEXA      46127       4  155880  155809  155808  155879  165355  165356+
+         165158  165157  161544  161382  161542  161545  152475  152389+
+         152387  152474  171034  170872  171032  171035
CHEXA      46128       4  155881  155810  155809  155880  165547  165548+
+         165356  165355  161546  161385  161544  161547  152476  152391+
+         152389  152475  171036  170875  171034  171037
CHEXA      46129       4  155882  155811  155810  155881  165731  165732+
+         165548  165547  161548  161388  161546  161549  152477  152393+
+         152391  152476  171038  170878  171036  171039
CHEXA      46130       4  155883  155812  155811  155882  165884  165885+
+         165732  165731  161550  161391  161548  161551  152478  152395+
+         152393  152477  171040  170881  171038  171041
CHEXA      46131       4  155884  155813  155812  155883  165954  165940+
+         165885  165884  161552  161394  161550  161553  152479  152397+
+         152395  152478  171042  170884  171040  171043
CHEXA      46132       4  155885  155814  155813  155884  165941  165852+
+         165940  165954  161554  161397  161552  161555  152480  152399+
+         152397  152479  171044  170887  171042  171045
CHEXA      46133       4  155886  155815  155814  155885  165853  165680+
+         165852  165941  161556  161400  161554  161557  152481  152401+
+         152399  152480  171046  170890  171044  171047
CHEXA      46134       4  155887  155816  155815  155886  165681  165492+
+         165680  165853  161558  161403  161556  161559  152482  152403+
+         152401  152481  171048  170893  171046  171049
CHEXA      46135       4  155888  155817  155816  155887  165493  165295+
+         165492  165681  161560  161406  161558  161561  152483  152405+
+         152403  152482  171050  170896  171048  171051
CHEXA      46136       4  155889  155818  155817  155888  165296  165092+
+         165295  165493  161562  161409  161560  161563  152484  152407+
+         152405  152483  171052  170899  171050  171053
CHEXA      46137       4  155890  155819  155818  155889  165093  164887+
+         165092  165296  161564  161412  161562  161565  152485  152409+
+         152407  152484  171054  170902  171052  171055
CHEXA      46138       4  155891  155820  155819  155890  164888  164675+
+         164887  165093  161566  161415  161564  161567  152486  152411+
+         152409  152485  171056  170905  171054  171057
CHEXA      46139       4  155892  155821  155820  155891  164676  164459+
+         164675  164888  161568  161418  161566  161569  152487  152413+
+         152411  152486  171058  170908  171056  171059
CHEXA      46140       4  155893  155822  155821  155892  164460  164235+
+         164459  164676  161570  161421  161568  161571  152488  152415+
+         152413  152487  171060  170911  171058  171061
CHEXA      46141       4  155894  155823  155822  155893  164236  164005+
+         164235  164460  161572  161424  161570  161573  152489  152417+
+         152415  152488  171062  170914  171060  171063
CHEXA      46142       4  155895  155824  155823  155894  164006  163759+
+         164005  164236  161574  161427  161572  161575  152490  152419+
+         152417  152489  171064  170917  171062  171065
CHEXA      46143       4  155896  155825  155824  155895  163761  163464+
+         163759  164006  161576  161429  161574  161577  152491  152420+
+         152419  152490  171066  170919  171064  171067
CHEXA      46144       4  155827  155826  155825  155896  163466  163465+
+         163464  163761  161434  161431  161576  161578  152422  152421+
+         152420  152491  170924  170921  171066  171068
CHEXA      46145       4  155897  155828  155827  155896  163762  163467+
+         163466  163761  161579  161436  161578  161580  152492  152423+
+         152422  152491  171069  170926  171068  171070
CHEXA      46146       4  155898  155829  155828  155897  163763  163468+
+         163467  163762  161581  161438  161579  161582  152493  152424+
+         152423  152492  171071  170928  171069  171072
CHEXA      46147       4  155899  155830  155829  155898  163764  163469+
+         163468  163763  161583  161440  161581  161584  152494  152425+
+         152424  152493  171073  170930  171071  171074
CHEXA      46148       4  155900  155831  155830  155899  163765  163470+
+         163469  163764  161585  161442  161583  161586  152495  152426+
+         152425  152494  171075  170932  171073  171076
CHEXA      46149       4  155901  155832  155831  155900  163766  163471+
+         163470  163765  161587  161444  161585  161588  152496  152427+
+         152426  152495  171077  170934  171075  171078
CHEXA      46150       4  155902  155833  155832  155901  163767  163472+
+         163471  163766  161589  161446  161587  161590  152497  152428+
+         152427  152496  171079  170936  171077  171080
CHEXA      46151       4  155903  155834  155833  155902  163768  163473+
+         163472  163767  161591  161448  161589  161592  152498  152429+
+         152428  152497  171081  170938  171079  171082
CHEXA      46152       4  155904  155835  155834  155903  163769  163474+
+         163473  163768  161593  161450  161591  161594  152499  152430+
+         152429  152498  171083  170940  171081  171084
CHEXA      46153       4  155905  155836  155835  155904  163770  163475+
+         163474  163769  161595  161452  161593  161596  152500  152431+
+         152430  152499  171085  170942  171083  171086
CHEXA      46154       4  155906  155837  155836  155905  163771  163476+
+         163475  163770  161597  161454  161595  161598  152501  152432+
+         152431  152500  171087  170944  171085  171088
CHEXA      46155       4  155907  155838  155837  155906  163772  163477+
+         163476  163771  161599  161456  161597  161600  152502  152433+
+         152432  152501  171089  170946  171087  171090
CHEXA      46156       4  155840  155839  155838  155907  163773  163478+
+         163477  163772  161462  161458  161599  161601  152435  152434+
+         152433  152502  170952  170948  171089  171091
CHEXA      46157       4  155841  155840  155907  155908  164019  163773+
+         163772  164018  161465  161601  161602  161603  152436  152435+
+         152502  152503  170955  171091  171092  171093
CHEXA      46158       4  155909  155842  155841  155908  164248  164249+
+         164019  164018  161604  161467  161603  161605  152504  152437+
+         152436  152503  171094  170957  171093  171095
CHEXA      46159       4  155910  155843  155842  155909  164472  164473+
+         164249  164248  161606  161469  161604  161607  152505  152438+
+         152437  152504  171096  170959  171094  171097
CHEXA      46160       4  155911  155844  155843  155910  164688  164689+
+         164473  164472  161608  161471  161606  161609  152506  152439+
+         152438  152505  171098  170961  171096  171099
CHEXA      46161       4  155912  155845  155844  155911  164900  164901+
+         164689  164688  161610  161473  161608  161611  152507  152440+
+         152439  152506  171100  170963  171098  171101
CHEXA      46162       4  155913  155846  155845  155912  165106  165107+
+         164901  164900  161612  161475  161610  161613  152508  152441+
+         152440  152507  171102  170965  171100  171103
CHEXA      46163       4  155914  155847  155846  155913  165308  165309+
+         165107  165106  161614  161477  161612  161615  152509  152442+
+         152441  152508  171104  170967  171102  171105
CHEXA      46164       4  155915  155848  155847  155914  165505  165506+
+         165309  165308  161616  161479  161614  161617  152510  152443+
+         152442  152509  171106  170969  171104  171107
CHEXA      46165       4  155916  155849  155848  155915  165693  165694+
+         165506  165505  161618  161481  161616  161619  152511  152444+
+         152443  152510  171108  170971  171106  171109
CHEXA      46166       4  155917  155850  155849  155916  165865  165866+
+         165694  165693  161620  161483  161618  161621  152512  152445+
+         152444  152511  171110  170973  171108  171111
CHEXA      46167       4  155918  155851  155850  155917  165719  165718+
+         165866  165865  161622  161485  161620  161623  152513  152446+
+         152445  152512  171112  170975  171110  171113
CHEXA      46168       4  155919  155852  155851  155918  165535  165534+
+         165718  165719  161624  161487  161622  161625  152514  152447+
+         152446  152513  171114  170977  171112  171115
CHEXA      46169       4  155920  155853  155852  155919  165343  165342+
+         165534  165535  161626  161489  161624  161627  152515  152448+
+         152447  152514  171116  170979  171114  171117
CHEXA      46170       4  155921  155854  155853  155920  165146  165145+
+         165342  165343  161628  161491  161626  161629  152516  152449+
+         152448  152515  171118  170981  171116  171119
CHEXA      46171       4  155922  155855  155854  155921  164944  164943+
+         165145  165146  161630  161493  161628  161631  152517  152450+
+         152449  152516  171120  170983  171118  171121
CHEXA      46172       4  155923  155856  155855  155922  164736  164735+
+         164943  164944  161632  161495  161630  161633  152518  152451+
+         152450  152517  171122  170985  171120  171123
CHEXA      46173       4  155924  155857  155856  155923  164524  164523+
+         164735  164736  161634  161497  161632  161635  152519  152452+
+         152451  152518  171124  170987  171122  171125
CHEXA      46174       4  155925  155858  155857  155924  164306  164305+
+         164523  164524  161636  161499  161634  161637  152520  152453+
+         152452  152519  171126  170989  171124  171127
CHEXA      46175       4  155926  155859  155858  155925  164081  164080+
+         164305  164306  161638  161501  161636  161639  152521  152454+
+         152453  152520  171128  170991  171126  171129
CHEXA      46176       4  155927  155860  155859  155926  163849  163848+
+         164080  164081  161640  161503  161638  161641  152522  152455+
+         152454  152521  171130  170993  171128  171131
CHEXA      46177       4  155862  155861  155860  155927  163597  163596+
+         163848  163849  161508  161505  161640  161642  152457  152456+
+         152455  152522  170998  170995  171130  171132
CHEXA      46178       4  155928  155863  155862  155927  163850  163598+
+         163597  163849  161643  161510  161642  161644  152523  152458+
+         152457  152522  171133  171000  171132  171134
CHEXA      46179       4  155929  155864  155863  155928  163851  163599+
+         163598  163850  161645  161512  161643  161646  152524  152459+
+         152458  152523  171135  171002  171133  171136
CHEXA      46180       4  155930  155865  155864  155929  163852  163600+
+         163599  163851  161647  161514  161645  161648  152525  152460+
+         152459  152524  171137  171004  171135  171138
CHEXA      46181       4  155931  155866  155865  155930  163853  163601+
+         163600  163852  161649  161516  161647  161650  152526  152461+
+         152460  152525  171139  171006  171137  171140
CHEXA      46182       4  155932  155867  155866  155931  163854  163602+
+         163601  163853  161651  161518  161649  161652  152527  152462+
+         152461  152526  171141  171008  171139  171142
CHEXA      46183       4  155933  155868  155867  155932  163855  163603+
+         163602  163854  161653  161520  161651  161654  152528  152463+
+         152462  152527  171143  171010  171141  171144
CHEXA      46184       4  155934  155869  155868  155933  163856  163604+
+         163603  163855  161655  161522  161653  161656  152529  152464+
+         152463  152528  171145  171012  171143  171146
CHEXA      46185       4  155935  155870  155869  155934  163857  163605+
+         163604  163856  161657  161524  161655  161658  152530  152465+
+         152464  152529  171147  171014  171145  171148
CHEXA      46186       4  155936  155871  155870  155935  163858  163606+
+         163605  163857  161659  161526  161657  161660  152531  152466+
+         152465  152530  171149  171016  171147  171150
CHEXA      46187       4  155873  155872  155871  155936  163859  163607+
+         163606  163858  161531  161528  161659  161661  152468  152467+
+         152466  152531  171021  171018  171149  171151
CHEXA      46188       4  155937  155874  155873  155936  164090  164091+
+         163859  163858  161662  161533  161661  161663  152532  152469+
+         152468  152531  171152  171023  171151  171153
CHEXA      46189       4  155938  155875  155874  155937  164315  164316+
+         164091  164090  161664  161535  161662  161665  152533  152470+
+         152469  152532  171154  171025  171152  171155
CHEXA      46190       4  155939  155876  155875  155938  164533  164534+
+         164316  164315  161666  161537  161664  161667  152534  152471+
+         152470  152533  171156  171027  171154  171157
CHEXA      46191       4  155940  155877  155876  155939  164745  164746+
+         164534  164533  161668  161539  161666  161669  152535  152472+
+         152471  152534  171158  171029  171156  171159
CHEXA      46192       4  155941  155878  155877  155940  164953  164954+
+         164746  164745  161670  161541  161668  161671  152536  152473+
+         152472  152535  171160  171031  171158  171161
CHEXA      46193       4  155942  155879  155878  155941  165156  165157+
+         164954  164953  161672  161543  161670  161673  152537  152474+
+         152473  152536  171162  171033  171160  171163
CHEXA      46194       4  155943  155880  155879  155942  165354  165355+
+         165157  165156  161674  161545  161672  161675  152538  152475+
+         152474  152537  171164  171035  171162  171165
CHEXA      46195       4  155944  155881  155880  155943  165546  165547+
+         165355  165354  161676  161547  161674  161677  152539  152476+
+         152475  152538  171166  171037  171164  171167
CHEXA      46196       4  155945  155882  155881  155944  165730  165731+
+         165547  165546  161678  161549  161676  161679  152540  152477+
+         152476  152539  171168  171039  171166  171169
CHEXA      46197       4  155946  155883  155882  155945  165883  165884+
+         165731  165730  161680  161551  161678  161681  152541  152478+
+         152477  152540  171170  171041  171168  171171
CHEXA      46198       4  155947  155884  155883  155946  165953  165954+
+         165884  165883  161682  161553  161680  161683  152542  152479+
+         152478  152541  171172  171043  171170  171173
CHEXA      46199       4  155948  155885  155884  155947  165942  165941+
+         165954  165953  161684  161555  161682  161685  152543  152480+
+         152479  152542  171174  171045  171172  171175
CHEXA      46200       4  155949  155886  155885  155948  165854  165853+
+         165941  165942  161686  161557  161684  161687  152544  152481+
+         152480  152543  171176  171047  171174  171177
CHEXA      46201       4  155950  155887  155886  155949  165683  165681+
+         165853  165854  161688  161559  161686  161689  152545  152482+
+         152481  152544  171178  171049  171176  171179
CHEXA      46202       4  155951  155888  155887  155950  165495  165493+
+         165681  165683  161690  161561  161688  161691  152546  152483+
+         152482  152545  171180  171051  171178  171181
CHEXA      46203       4  155952  155889  155888  155951  165298  165296+
+         165493  165495  161692  161563  161690  161693  152547  152484+
+         152483  152546  171182  171053  171180  171183
CHEXA      46204       4  155953  155890  155889  155952  165095  165093+
+         165296  165298  161694  161565  161692  161695  152548  152485+
+         152484  152547  171184  171055  171182  171185
CHEXA      46205       4  155954  155891  155890  155953  164890  164888+
+         165093  165095  161696  161567  161694  161697  152549  152486+
+         152485  152548  171186  171057  171184  171187
CHEXA      46206       4  155955  155892  155891  155954  164678  164676+
+         164888  164890  161698  161569  161696  161699  152550  152487+
+         152486  152549  171188  171059  171186  171189
CHEXA      46207       4  155956  155893  155892  155955  164462  164460+
+         164676  164678  161700  161571  161698  161701  152551  152488+
+         152487  152550  171190  171061  171188  171191
CHEXA      46208       4  155957  155894  155893  155956  164238  164236+
+         164460  164462  161702  161573  161700  161703  152552  152489+
+         152488  152551  171192  171063  171190  171193
CHEXA      46209       4  155958  155895  155894  155957  164008  164006+
+         164236  164238  161704  161575  161702  161705  152553  152490+
+         152489  152552  171194  171065  171192  171195
CHEXA      46210       4  155897  155896  155895  155958  163762  163761+
+         164006  164008  161580  161577  161704  161706  152492  152491+
+         152490  152553  171070  171067  171194  171196
CHEXA      46211       4  155959  155898  155897  155958  164009  163763+
+         163762  164008  161707  161582  161706  161708  152554  152493+
+         152492  152553  171197  171072  171196  171198
CHEXA      46212       4  155960  155899  155898  155959  164010  163764+
+         163763  164009  161709  161584  161707  161710  152555  152494+
+         152493  152554  171199  171074  171197  171200
CHEXA      46213       4  155961  155900  155899  155960  164011  163765+
+         163764  164010  161711  161586  161709  161712  152556  152495+
+         152494  152555  171201  171076  171199  171202
CHEXA      46214       4  155962  155901  155900  155961  164012  163766+
+         163765  164011  161713  161588  161711  161714  152557  152496+
+         152495  152556  171203  171078  171201  171204
CHEXA      46215       4  155963  155902  155901  155962  164013  163767+
+         163766  164012  161715  161590  161713  161716  152558  152497+
+         152496  152557  171205  171080  171203  171206
CHEXA      46216       4  155964  155903  155902  155963  164014  163768+
+         163767  164013  161717  161592  161715  161718  152559  152498+
+         152497  152558  171207  171082  171205  171208
CHEXA      46217       4  155965  155904  155903  155964  164015  163769+
+         163768  164014  161719  161594  161717  161720  152560  152499+
+         152498  152559  171209  171084  171207  171210
CHEXA      46218       4  155966  155905  155904  155965  164016  163770+
+         163769  164015  161721  161596  161719  161722  152561  152500+
+         152499  152560  171211  171086  171209  171212
CHEXA      46219       4  155967  155906  155905  155966  164017  163771+
+         163770  164016  161723  161598  161721  161724  152562  152501+
+         152500  152561  171213  171088  171211  171214
CHEXA      46220       4  155908  155907  155906  155967  164018  163772+
+         163771  164017  161602  161600  161723  161725  152503  152502+
+         152501  152562  171092  171090  171213  171215
CHEXA      46221       4  155909  155908  155967  155968  164248  164018+
+         164017  164247  161605  161725  161726  161727  152504  152503+
+         152562  152563  171095  171215  171216  171217
CHEXA      46222       4  155969  155910  155909  155968  164471  164472+
+         164248  164247  161728  161607  161727  161729  152564  152505+
+         152504  152563  171218  171097  171217  171219
CHEXA      46223       4  155970  155911  155910  155969  164687  164688+
+         164472  164471  161730  161609  161728  161731  152565  152506+
+         152505  152564  171220  171099  171218  171221
CHEXA      46224       4  155971  155912  155911  155970  164899  164900+
+         164688  164687  161732  161611  161730  161733  152566  152507+
+         152506  152565  171222  171101  171220  171223
CHEXA      46225       4  155972  155913  155912  155971  165105  165106+
+         164900  164899  161734  161613  161732  161735  152567  152508+
+         152507  152566  171224  171103  171222  171225
CHEXA      46226       4  155973  155914  155913  155972  165307  165308+
+         165106  165105  161736  161615  161734  161737  152568  152509+
+         152508  152567  171226  171105  171224  171227
CHEXA      46227       4  155974  155915  155914  155973  165504  165505+
+         165308  165307  161738  161617  161736  161739  152569  152510+
+         152509  152568  171228  171107  171226  171229
CHEXA      46228       4  155975  155916  155915  155974  165692  165693+
+         165505  165504  161740  161619  161738  161741  152570  152511+
+         152510  152569  171230  171109  171228  171231
CHEXA      46229       4  155976  155917  155916  155975  165864  165865+
+         165693  165692  161742  161621  161740  161743  152571  152512+
+         152511  152570  171232  171111  171230  171233
CHEXA      46230       4  155977  155918  155917  155976  165720  165719+
+         165865  165864  161744  161623  161742  161745  152572  152513+
+         152512  152571  171234  171113  171232  171235
CHEXA      46231       4  155978  155919  155918  155977  165536  165535+
+         165719  165720  161746  161625  161744  161747  152573  152514+
+         152513  152572  171236  171115  171234  171237
CHEXA      46232       4  155979  155920  155919  155978  165344  165343+
+         165535  165536  161748  161627  161746  161749  152574  152515+
+         152514  152573  171238  171117  171236  171239
CHEXA      46233       4  155980  155921  155920  155979  165147  165146+
+         165343  165344  161750  161629  161748  161751  152575  152516+
+         152515  152574  171240  171119  171238  171241
CHEXA      46234       4  155981  155922  155921  155980  164945  164944+
+         165146  165147  161752  161631  161750  161753  152576  152517+
+         152516  152575  171242  171121  171240  171243
CHEXA      46235       4  155982  155923  155922  155981  164737  164736+
+         164944  164945  161754  161633  161752  161755  152577  152518+
+         152517  152576  171244  171123  171242  171245
CHEXA      46236       4  155983  155924  155923  155982  164525  164524+
+         164736  164737  161756  161635  161754  161757  152578  152519+
+         152518  152577  171246  171125  171244  171247
CHEXA      46237       4  155984  155925  155924  155983  164307  164306+
+         164524  164525  161758  161637  161756  161759  152579  152520+
+         152519  152578  171248  171127  171246  171249
CHEXA      46238       4  155985  155926  155925  155984  164082  164081+
+         164306  164307  161760  161639  161758  161761  152580  152521+
+         152520  152579  171250  171129  171248  171251
CHEXA      46239       4  155928  155927  155926  155985  163850  163849+
+         164081  164082  161644  161641  161760  161762  152523  152522+
+         152521  152580  171134  171131  171250  171252
CHEXA      46240       4  155986  155929  155928  155985  164083  163851+
+         163850  164082  161763  161646  161762  161764  152581  152524+
+         152523  152580  171253  171136  171252  171254
CHEXA      46241       4  155987  155930  155929  155986  164084  163852+
+         163851  164083  161765  161648  161763  161766  152582  152525+
+         152524  152581  171255  171138  171253  171256
CHEXA      46242       4  155988  155931  155930  155987  164085  163853+
+         163852  164084  161767  161650  161765  161768  152583  152526+
+         152525  152582  171257  171140  171255  171258
CHEXA      46243       4  155989  155932  155931  155988  164086  163854+
+         163853  164085  161769  161652  161767  161770  152584  152527+
+         152526  152583  171259  171142  171257  171260
CHEXA      46244       4  155990  155933  155932  155989  164087  163855+
+         163854  164086  161771  161654  161769  161772  152585  152528+
+         152527  152584  171261  171144  171259  171262
CHEXA      46245       4  155991  155934  155933  155990  164088  163856+
+         163855  164087  161773  161656  161771  161774  152586  152529+
+         152528  152585  171263  171146  171261  171264
CHEXA      46246       4  155992  155935  155934  155991  164089  163857+
+         163856  164088  161775  161658  161773  161776  152587  152530+
+         152529  152586  171265  171148  171263  171266
CHEXA      46247       4  155937  155936  155935  155992  164090  163858+
+         163857  164089  161663  161660  161775  161777  152532  152531+
+         152530  152587  171153  171150  171265  171267
CHEXA      46248       4  155993  155938  155937  155992  164314  164315+
+         164090  164089  161778  161665  161777  161779  152588  152533+
+         152532  152587  171268  171155  171267  171269
CHEXA      46249       4  155994  155939  155938  155993  164532  164533+
+         164315  164314  161780  161667  161778  161781  152589  152534+
+         152533  152588  171270  171157  171268  171271
CHEXA      46250       4  155995  155940  155939  155994  164744  164745+
+         164533  164532  161782  161669  161780  161783  152590  152535+
+         152534  152589  171272  171159  171270  171273
CHEXA      46251       4  155996  155941  155940  155995  164952  164953+
+         164745  164744  161784  161671  161782  161785  152591  152536+
+         152535  152590  171274  171161  171272  171275
CHEXA      46252       4  155997  155942  155941  155996  165155  165156+
+         164953  164952  161786  161673  161784  161787  152592  152537+
+         152536  152591  171276  171163  171274  171277
CHEXA      46253       4  155998  155943  155942  155997  165353  165354+
+         165156  165155  161788  161675  161786  161789  152593  152538+
+         152537  152592  171278  171165  171276  171279
CHEXA      46254       4  155999  155944  155943  155998  165545  165546+
+         165354  165353  161790  161677  161788  161791  152594  152539+
+         152538  152593  171280  171167  171278  171281
CHEXA      46255       4  156000  155945  155944  155999  165729  165730+
+         165546  165545  161792  161679  161790  161793  152595  152540+
+         152539  152594  171282  171169  171280  171283
CHEXA      46256       4  156001  155946  155945  156000  165882  165883+
+         165730  165729  161794  161681  161792  161795  152596  152541+
+         152540  152595  171284  171171  171282  171285
CHEXA      46257       4  156002  155947  155946  156001  165952  165953+
+         165883  165882  161796  161683  161794  161797  152597  152542+
+         152541  152596  171286  171173  171284  171287
CHEXA      46258       4  156003  155948  155947  156002  165943  165942+
+         165953  165952  161798  161685  161796  161799  152598  152543+
+         152542  152597  171288  171175  171286  171289
CHEXA      46259       4  156004  155949  155948  156003  165855  165854+
+         165942  165943  161800  161687  161798  161801  152599  152544+
+         152543  152598  171290  171177  171288  171291
CHEXA      46260       4  156005  155950  155949  156004  165684  165683+
+         165854  165855  161802  161689  161800  161803  152600  152545+
+         152544  152599  171292  171179  171290  171293
CHEXA      46261       4  156006  155951  155950  156005  165496  165495+
+         165683  165684  161804  161691  161802  161805  152601  152546+
+         152545  152600  171294  171181  171292  171295
CHEXA      46262       4  156007  155952  155951  156006  165299  165298+
+         165495  165496  161806  161693  161804  161807  152602  152547+
+         152546  152601  171296  171183  171294  171297
CHEXA      46263       4  156008  155953  155952  156007  165096  165095+
+         165298  165299  161808  161695  161806  161809  152603  152548+
+         152547  152602  171298  171185  171296  171299
CHEXA      46264       4  156009  155954  155953  156008  164891  164890+
+         165095  165096  161810  161697  161808  161811  152604  152549+
+         152548  152603  171300  171187  171298  171301
CHEXA      46265       4  156010  155955  155954  156009  164679  164678+
+         164890  164891  161812  161699  161810  161813  152605  152550+
+         152549  152604  171302  171189  171300  171303
CHEXA      46266       4  156011  155956  155955  156010  164463  164462+
+         164678  164679  161814  161701  161812  161815  152606  152551+
+         152550  152605  171304  171191  171302  171305
CHEXA      46267       4  156012  155957  155956  156011  164239  164238+
+         164462  164463  161816  161703  161814  161817  152607  152552+
+         152551  152606  171306  171193  171304  171307
CHEXA      46268       4  155959  155958  155957  156012  164009  164008+
+         164238  164239  161708  161705  161816  161818  152554  152553+
+         152552  152607  171198  171195  171306  171308
CHEXA      46269       4  156013  155960  155959  156012  164240  164010+
+         164009  164239  161819  161710  161818  161820  152608  152555+
+         152554  152607  171309  171200  171308  171310
CHEXA      46270       4  156014  155961  155960  156013  164241  164011+
+         164010  164240  161821  161712  161819  161822  152609  152556+
+         152555  152608  171311  171202  171309  171312
CHEXA      46271       4  156015  155962  155961  156014  164242  164012+
+         164011  164241  161823  161714  161821  161824  152610  152557+
+         152556  152609  171313  171204  171311  171314
CHEXA      46272       4  156016  155963  155962  156015  164243  164013+
+         164012  164242  161825  161716  161823  161826  152611  152558+
+         152557  152610  171315  171206  171313  171316
CHEXA      46273       4  156017  155964  155963  156016  164244  164014+
+         164013  164243  161827  161718  161825  161828  152612  152559+
+         152558  152611  171317  171208  171315  171318
CHEXA      46274       4  156018  155965  155964  156017  164245  164015+
+         164014  164244  161829  161720  161827  161830  152613  152560+
+         152559  152612  171319  171210  171317  171320
CHEXA      46275       4  156019  155966  155965  156018  164246  164016+
+         164015  164245  161831  161722  161829  161832  152614  152561+
+         152560  152613  171321  171212  171319  171322
CHEXA      46276       4  155968  155967  155966  156019  164247  164017+
+         164016  164246  161726  161724  161831  161833  152563  152562+
+         152561  152614  171216  171214  171321  171323
CHEXA      46277       4  155969  155968  156019  156020  164471  164247+
+         164246  164470  161729  161833  161834  161835  152564  152563+
+         152614  152615  171219  171323  171324  171325
CHEXA      46278       4  156021  155970  155969  156020  164686  164687+
+         164471  164470  161836  161731  161835  161837  152616  152565+
+         152564  152615  171326  171221  171325  171327
CHEXA      46279       4  156022  155971  155970  156021  164898  164899+
+         164687  164686  161838  161733  161836  161839  152617  152566+
+         152565  152616  171328  171223  171326  171329
CHEXA      46280       4  156023  155972  155971  156022  165104  165105+
+         164899  164898  161840  161735  161838  161841  152618  152567+
+         152566  152617  171330  171225  171328  171331
CHEXA      46281       4  156024  155973  155972  156023  165306  165307+
+         165105  165104  161842  161737  161840  161843  152619  152568+
+         152567  152618  171332  171227  171330  171333
CHEXA      46282       4  156025  155974  155973  156024  165503  165504+
+         165307  165306  161844  161739  161842  161845  152620  152569+
+         152568  152619  171334  171229  171332  171335
CHEXA      46283       4  156026  155975  155974  156025  165691  165692+
+         165504  165503  161846  161741  161844  161847  152621  152570+
+         152569  152620  171336  171231  171334  171337
CHEXA      46284       4  156027  155976  155975  156026  165863  165864+
+         165692  165691  161848  161743  161846  161849  152622  152571+
+         152570  152621  171338  171233  171336  171339
CHEXA      46285       4  156028  155977  155976  156027  165721  165720+
+         165864  165863  161850  161745  161848  161851  152623  152572+
+         152571  152622  171340  171235  171338  171341
CHEXA      46286       4  156029  155978  155977  156028  165537  165536+
+         165720  165721  161852  161747  161850  161853  152624  152573+
+         152572  152623  171342  171237  171340  171343
CHEXA      46287       4  156030  155979  155978  156029  165345  165344+
+         165536  165537  161854  161749  161852  161855  152625  152574+
+         152573  152624  171344  171239  171342  171345
CHEXA      46288       4  156031  155980  155979  156030  165148  165147+
+         165344  165345  161856  161751  161854  161857  152626  152575+
+         152574  152625  171346  171241  171344  171347
CHEXA      46289       4  156032  155981  155980  156031  164946  164945+
+         165147  165148  161858  161753  161856  161859  152627  152576+
+         152575  152626  171348  171243  171346  171349
CHEXA      46290       4  156033  155982  155981  156032  164738  164737+
+         164945  164946  161860  161755  161858  161861  152628  152577+
+         152576  152627  171350  171245  171348  171351
CHEXA      46291       4  156034  155983  155982  156033  164526  164525+
+         164737  164738  161862  161757  161860  161863  152629  152578+
+         152577  152628  171352  171247  171350  171353
CHEXA      46292       4  156035  155984  155983  156034  164308  164307+
+         164525  164526  161864  161759  161862  161865  152630  152579+
+         152578  152629  171354  171249  171352  171355
CHEXA      46293       4  155986  155985  155984  156035  164083  164082+
+         164307  164308  161764  161761  161864  161866  152581  152580+
+         152579  152630  171254  171251  171354  171356
CHEXA      46294       4  156036  155987  155986  156035  164309  164084+
+         164083  164308  161867  161766  161866  161868  152631  152582+
+         152581  152630  171357  171256  171356  171358
CHEXA      46295       4  156037  155988  155987  156036  164310  164085+
+         164084  164309  161869  161768  161867  161870  152632  152583+
+         152582  152631  171359  171258  171357  171360
CHEXA      46296       4  156038  155989  155988  156037  164311  164086+
+         164085  164310  161871  161770  161869  161872  152633  152584+
+         152583  152632  171361  171260  171359  171362
CHEXA      46297       4  156039  155990  155989  156038  164312  164087+
+         164086  164311  161873  161772  161871  161874  152634  152585+
+         152584  152633  171363  171262  171361  171364
CHEXA      46298       4  156040  155991  155990  156039  164313  164088+
+         164087  164312  161875  161774  161873  161876  152635  152586+
+         152585  152634  171365  171264  171363  171366
CHEXA      46299       4  155993  155992  155991  156040  164314  164089+
+         164088  164313  161779  161776  161875  161877  152588  152587+
+         152586  152635  171269  171266  171365  171367
CHEXA      46300       4  156041  155994  155993  156040  164531  164532+
+         164314  164313  161878  161781  161877  161879  152636  152589+
+         152588  152635  171368  171271  171367  171369
CHEXA      46301       4  156042  155995  155994  156041  164743  164744+
+         164532  164531  161880  161783  161878  161881  152637  152590+
+         152589  152636  171370  171273  171368  171371
CHEXA      46302       4  156043  155996  155995  156042  164951  164952+
+         164744  164743  161882  161785  161880  161883  152638  152591+
+         152590  152637  171372  171275  171370  171373
CHEXA      46303       4  156044  155997  155996  156043  165154  165155+
+         164952  164951  161884  161787  161882  161885  152639  152592+
+         152591  152638  171374  171277  171372  171375
CHEXA      46304       4  156045  155998  155997  156044  165352  165353+
+         165155  165154  161886  161789  161884  161887  152640  152593+
+         152592  152639  171376  171279  171374  171377
CHEXA      46305       4  156046  155999  155998  156045  165544  165545+
+         165353  165352  161888  161791  161886  161889  152641  152594+
+         152593  152640  171378  171281  171376  171379
CHEXA      46306       4  156047  156000  155999  156046  165728  165729+
+         165545  165544  161890  161793  161888  161891  152642  152595+
+         152594  152641  171380  171283  171378  171381
CHEXA      46307       4  156048  156001  156000  156047  165881  165882+
+         165729  165728  161892  161795  161890  161893  152643  152596+
+         152595  152642  171382  171285  171380  171383
CHEXA      46308       4  156049  156002  156001  156048  165951  165952+
+         165882  165881  161894  161797  161892  161895  152644  152597+
+         152596  152643  171384  171287  171382  171385
CHEXA      46309       4  156050  156003  156002  156049  165944  165943+
+         165952  165951  161896  161799  161894  161897  152645  152598+
+         152597  152644  171386  171289  171384  171387
CHEXA      46310       4  156051  156004  156003  156050  165856  165855+
+         165943  165944  161898  161801  161896  161899  152646  152599+
+         152598  152645  171388  171291  171386  171389
CHEXA      46311       4  156052  156005  156004  156051  165685  165684+
+         165855  165856  161900  161803  161898  161901  152647  152600+
+         152599  152646  171390  171293  171388  171391
CHEXA      46312       4  156053  156006  156005  156052  165497  165496+
+         165684  165685  161902  161805  161900  161903  152648  152601+
+         152600  152647  171392  171295  171390  171393
CHEXA      46313       4  156054  156007  156006  156053  165300  165299+
+         165496  165497  161904  161807  161902  161905  152649  152602+
+         152601  152648  171394  171297  171392  171395
CHEXA      46314       4  156055  156008  156007  156054  165097  165096+
+         165299  165300  161906  161809  161904  161907  152650  152603+
+         152602  152649  171396  171299  171394  171397
CHEXA      46315       4  156056  156009  156008  156055  164892  164891+
+         165096  165097  161908  161811  161906  161909  152651  152604+
+         152603  152650  171398  171301  171396  171399
CHEXA      46316       4  156057  156010  156009  156056  164680  164679+
+         164891  164892  161910  161813  161908  161911  152652  152605+
+         152604  152651  171400  171303  171398  171401
CHEXA      46317       4  156058  156011  156010  156057  164464  164463+
+         164679  164680  161912  161815  161910  161913  152653  152606+
+         152605  152652  171402  171305  171400  171403
CHEXA      46318       4  156013  156012  156011  156058  164240  164239+
+         164463  164464  161820  161817  161912  161914  152608  152607+
+         152606  152653  171310  171307  171402  171404
CHEXA      46319       4  156059  156014  156013  156058  164465  164241+
+         164240  164464  161915  161822  161914  161916  152654  152609+
+         152608  152653  171405  171312  171404  171406
CHEXA      46320       4  156060  156015  156014  156059  164466  164242+
+         164241  164465  161917  161824  161915  161918  152655  152610+
+         152609  152654  171407  171314  171405  171408
CHEXA      46321       4  156061  156016  156015  156060  164467  164243+
+         164242  164466  161919  161826  161917  161920  152656  152611+
+         152610  152655  171409  171316  171407  171410
CHEXA      46322       4  156062  156017  156016  156061  164468  164244+
+         164243  164467  161921  161828  161919  161922  152657  152612+
+         152611  152656  171411  171318  171409  171412
CHEXA      46323       4  156063  156018  156017  156062  164469  164245+
+         164244  164468  161923  161830  161921  161924  152658  152613+
+         152612  152657  171413  171320  171411  171414
CHEXA      46324       4  156020  156019  156018  156063  164470  164246+
+         164245  164469  161834  161832  161923  161925  152615  152614+
+         152613  152658  171324  171322  171413  171415
CHEXA      46325       4  156021  156020  156063  156064  164686  164470+
+         164469  164685  161837  161925  161926  161927  152616  152615+
+         152658  152659  171327  171415  171416  171417
CHEXA      46326       4  156065  156022  156021  156064  164897  164898+
+         164686  164685  161928  161839  161927  161929  152660  152617+
+         152616  152659  171418  171329  171417  171419
CHEXA      46327       4  156066  156023  156022  156065  165103  165104+
+         164898  164897  161930  161841  161928  161931  152661  152618+
+         152617  152660  171420  171331  171418  171421
CHEXA      46328       4  156067  156024  156023  156066  165305  165306+
+         165104  165103  161932  161843  161930  161933  152662  152619+
+         152618  152661  171422  171333  171420  171423
CHEXA      46329       4  156068  156025  156024  156067  165502  165503+
+         165306  165305  161934  161845  161932  161935  152663  152620+
+         152619  152662  171424  171335  171422  171425
CHEXA      46330       4  156069  156026  156025  156068  165690  165691+
+         165503  165502  161936  161847  161934  161937  152664  152621+
+         152620  152663  171426  171337  171424  171427
CHEXA      46331       4  156070  156027  156026  156069  165862  165863+
+         165691  165690  161938  161849  161936  161939  152665  152622+
+         152621  152664  171428  171339  171426  171429
CHEXA      46332       4  156071  156028  156027  156070  165722  165721+
+         165863  165862  161940  161851  161938  161941  152666  152623+
+         152622  152665  171430  171341  171428  171431
CHEXA      46333       4  156072  156029  156028  156071  165538  165537+
+         165721  165722  161942  161853  161940  161943  152667  152624+
+         152623  152666  171432  171343  171430  171433
CHEXA      46334       4  156073  156030  156029  156072  165346  165345+
+         165537  165538  161944  161855  161942  161945  152668  152625+
+         152624  152667  171434  171345  171432  171435
CHEXA      46335       4  156074  156031  156030  156073  165149  165148+
+         165345  165346  161946  161857  161944  161947  152669  152626+
+         152625  152668  171436  171347  171434  171437
CHEXA      46336       4  156075  156032  156031  156074  164947  164946+
+         165148  165149  161948  161859  161946  161949  152670  152627+
+         152626  152669  171438  171349  171436  171439
CHEXA      46337       4  156076  156033  156032  156075  164739  164738+
+         164946  164947  161950  161861  161948  161951  152671  152628+
+         152627  152670  171440  171351  171438  171441
CHEXA      46338       4  156077  156034  156033  156076  164527  164526+
+         164738  164739  161952  161863  161950  161953  152672  152629+
+         152628  152671  171442  171353  171440  171443
CHEXA      46339       4  156036  156035  156034  156077  164309  164308+
+         164526  164527  161868  161865  161952  161954  152631  152630+
+         152629  152672  171358  171355  171442  171444
CHEXA      46340       4  156078  156037  156036  156077  164528  164310+
+         164309  164527  161955  161870  161954  161956  152673  152632+
+         152631  152672  171445  171360  171444  171446
CHEXA      46341       4  156079  156038  156037  156078  164529  164311+
+         164310  164528  161957  161872  161955  161958  152674  152633+
+         152632  152673  171447  171362  171445  171448
CHEXA      46342       4  156080  156039  156038  156079  164530  164312+
+         164311  164529  161959  161874  161957  161960  152675  152634+
+         152633  152674  171449  171364  171447  171450
CHEXA      46343       4  156041  156040  156039  156080  164531  164313+
+         164312  164530  161879  161876  161959  161961  152636  152635+
+         152634  152675  171369  171366  171449  171451
CHEXA      46344       4  156081  156042  156041  156080  164742  164743+
+         164531  164530  161962  161881  161961  161963  152676  152637+
+         152636  152675  171452  171371  171451  171453
CHEXA      46345       4  156082  156043  156042  156081  164950  164951+
+         164743  164742  161964  161883  161962  161965  152677  152638+
+         152637  152676  171454  171373  171452  171455
CHEXA      46346       4  156083  156044  156043  156082  165153  165154+
+         164951  164950  161966  161885  161964  161967  152678  152639+
+         152638  152677  171456  171375  171454  171457
CHEXA      46347       4  156084  156045  156044  156083  165351  165352+
+         165154  165153  161968  161887  161966  161969  152679  152640+
+         152639  152678  171458  171377  171456  171459
CHEXA      46348       4  156085  156046  156045  156084  165543  165544+
+         165352  165351  161970  161889  161968  161971  152680  152641+
+         152640  152679  171460  171379  171458  171461
CHEXA      46349       4  156086  156047  156046  156085  165727  165728+
+         165544  165543  161972  161891  161970  161973  152681  152642+
+         152641  152680  171462  171381  171460  171463
CHEXA      46350       4  156087  156048  156047  156086  165880  165881+
+         165728  165727  161974  161893  161972  161975  152682  152643+
+         152642  152681  171464  171383  171462  171465
CHEXA      46351       4  156088  156049  156048  156087  165950  165951+
+         165881  165880  161976  161895  161974  161977  152683  152644+
+         152643  152682  171466  171385  171464  171467
CHEXA      46352       4  156089  156050  156049  156088  165945  165944+
+         165951  165950  161978  161897  161976  161979  152684  152645+
+         152644  152683  171468  171387  171466  171469
CHEXA      46353       4  156090  156051  156050  156089  165857  165856+
+         165944  165945  161980  161899  161978  161981  152685  152646+
+         152645  152684  171470  171389  171468  171471
CHEXA      46354       4  156091  156052  156051  156090  165686  165685+
+         165856  165857  161982  161901  161980  161983  152686  152647+
+         152646  152685  171472  171391  171470  171473
CHEXA      46355       4  156092  156053  156052  156091  165498  165497+
+         165685  165686  161984  161903  161982  161985  152687  152648+
+         152647  152686  171474  171393  171472  171475
CHEXA      46356       4  156093  156054  156053  156092  165301  165300+
+         165497  165498  161986  161905  161984  161987  152688  152649+
+         152648  152687  171476  171395  171474  171477
CHEXA      46357       4  156094  156055  156054  156093  165098  165097+
+         165300  165301  161988  161907  161986  161989  152689  152650+
+         152649  152688  171478  171397  171476  171479
CHEXA      46358       4  156095  156056  156055  156094  164893  164892+
+         165097  165098  161990  161909  161988  161991  152690  152651+
+         152650  152689  171480  171399  171478  171481
CHEXA      46359       4  156096  156057  156056  156095  164681  164680+
+         164892  164893  161992  161911  161990  161993  152691  152652+
+         152651  152690  171482  171401  171480  171483
CHEXA      46360       4  156059  156058  156057  156096  164465  164464+
+         164680  164681  161916  161913  161992  161994  152654  152653+
+         152652  152691  171406  171403  171482  171484
CHEXA      46361       4  156097  156060  156059  156096  164682  164466+
+         164465  164681  161995  161918  161994  161996  152692  152655+
+         152654  152691  171485  171408  171484  171486
CHEXA      46362       4  156098  156061  156060  156097  164683  164467+
+         164466  164682  161997  161920  161995  161998  152693  152656+
+         152655  152692  171487  171410  171485  171488
CHEXA      46363       4  156099  156062  156061  156098  164684  164468+
+         164467  164683  161999  161922  161997  162000  152694  152657+
+         152656  152693  171489  171412  171487  171490
CHEXA      46364       4  156064  156063  156062  156099  164685  164469+
+         164468  164684  161926  161924  161999  162001  152659  152658+
+         152657  152694  171416  171414  171489  171491
CHEXA      46365       4  156065  156064  156099  156100  164897  164685+
+         164684  164896  161929  162001  162002  162003  152660  152659+
+         152694  152695  171419  171491  171492  171493
CHEXA      46366       4  156101  156066  156065  156100  165101  165103+
+         164897  164896  162004  161931  162003  162005  152696  152661+
+         152660  152695  171494  171421  171493  171495
CHEXA      46367       4  156102  156067  156066  156101  165303  165305+
+         165103  165101  162006  161933  162004  162007  152697  152662+
+         152661  152696  171496  171423  171494  171497
CHEXA      46368       4  156103  156068  156067  156102  165500  165502+
+         165305  165303  162008  161935  162006  162009  152698  152663+
+         152662  152697  171498  171425  171496  171499
CHEXA      46369       4  156104  156069  156068  156103  165688  165690+
+         165502  165500  162010  161937  162008  162011  152699  152664+
+         152663  152698  171500  171427  171498  171501
CHEXA      46370       4  156105  156070  156069  156104  165859  165862+
+         165690  165688  162012  161939  162010  162013  152700  152665+
+         152664  152699  171502  171429  171500  171503
CHEXA      46371       4  156106  156071  156070  156105  165723  165722+
+         165862  165859  162014  161941  162012  162015  152701  152666+
+         152665  152700  171504  171431  171502  171505
CHEXA      46372       4  156107  156072  156071  156106  165539  165538+
+         165722  165723  162016  161943  162014  162017  152702  152667+
+         152666  152701  171506  171433  171504  171507
CHEXA      46373       4  156108  156073  156072  156107  165347  165346+
+         165538  165539  162018  161945  162016  162019  152703  152668+
+         152667  152702  171508  171435  171506  171509
CHEXA      46374       4  156109  156074  156073  156108  165150  165149+
+         165346  165347  162020  161947  162018  162021  152704  152669+
+         152668  152703  171510  171437  171508  171511
CHEXA      46375       4  156110  156075  156074  156109  164948  164947+
+         165149  165150  162022  161949  162020  162023  152705  152670+
+         152669  152704  171512  171439  171510  171513
CHEXA      46376       4  156111  156076  156075  156110  164740  164739+
+         164947  164948  162024  161951  162022  162025  152706  152671+
+         152670  152705  171514  171441  171512  171515
CHEXA      46377       4  156078  156077  156076  156111  164528  164527+
+         164739  164740  161956  161953  162024  162026  152673  152672+
+         152671  152706  171446  171443  171514  171516
CHEXA      46378       4  156112  156079  156078  156111  164741  164529+
+         164528  164740  162027  161958  162026  162028  152707  152674+
+         152673  152706  171517  171448  171516  171518
CHEXA      46379       4  156081  156080  156079  156112  164742  164530+
+         164529  164741  161963  161960  162027  162029  152676  152675+
+         152674  152707  171453  171450  171517  171519
CHEXA      46380       4  156113  156082  156081  156112  164949  164950+
+         164742  164741  162030  161965  162029  162031  152708  152677+
+         152676  152707  171520  171455  171519  171521
CHEXA      46381       4  156114  156083  156082  156113  165152  165153+
+         164950  164949  162032  161967  162030  162033  152709  152678+
+         152677  152708  171522  171457  171520  171523
CHEXA      46382       4  156115  156084  156083  156114  165350  165351+
+         165153  165152  162034  161969  162032  162035  152710  152679+
+         152678  152709  171524  171459  171522  171525
CHEXA      46383       4  156116  156085  156084  156115  165542  165543+
+         165351  165350  162036  161971  162034  162037  152711  152680+
+         152679  152710  171526  171461  171524  171527
CHEXA      46384       4  156117  156086  156085  156116  165726  165727+
+         165543  165542  162038  161973  162036  162039  152712  152681+
+         152680  152711  171528  171463  171526  171529
CHEXA      46385       4  156118  156087  156086  156117  165879  165880+
+         165727  165726  162040  161975  162038  162041  152713  152682+
+         152681  152712  171530  171465  171528  171531
CHEXA      46386       4  156119  156088  156087  156118  165949  165950+
+         165880  165879  162042  161977  162040  162043  152714  152683+
+         152682  152713  171532  171467  171530  171533
CHEXA      46387       4  156120  156089  156088  156119  165946  165945+
+         165950  165949  162044  161979  162042  162045  152715  152684+
+         152683  152714  171534  171469  171532  171535
CHEXA      46388       4  156121  156090  156089  156120  165858  165857+
+         165945  165946  162046  161981  162044  162047  152716  152685+
+         152684  152715  171536  171471  171534  171537
CHEXA      46389       4  156122  156091  156090  156121  165687  165686+
+         165857  165858  162048  161983  162046  162049  152717  152686+
+         152685  152716  171538  171473  171536  171539
CHEXA      46390       4  156123  156092  156091  156122  165499  165498+
+         165686  165687  162050  161985  162048  162051  152718  152687+
+         152686  152717  171540  171475  171538  171541
CHEXA      46391       4  156124  156093  156092  156123  165302  165301+
+         165498  165499  162052  161987  162050  162053  152719  152688+
+         152687  152718  171542  171477  171540  171543
CHEXA      46392       4  156125  156094  156093  156124  165099  165098+
+         165301  165302  162054  161989  162052  162055  152720  152689+
+         152688  152719  171544  171479  171542  171545
CHEXA      46393       4  156126  156095  156094  156125  164894  164893+
+         165098  165099  162056  161991  162054  162057  152721  152690+
+         152689  152720  171546  171481  171544  171547
CHEXA      46394       4  156097  156096  156095  156126  164682  164681+
+         164893  164894  161996  161993  162056  162058  152692  152691+
+         152690  152721  171486  171483  171546  171548
CHEXA      46395       4  156127  156098  156097  156126  164895  164683+
+         164682  164894  162059  161998  162058  162060  152722  152693+
+         152692  152721  171549  171488  171548  171550
CHEXA      46396       4  156100  156099  156098  156127  164896  164684+
+         164683  164895  162002  162000  162059  162061  152695  152694+
+         152693  152722  171492  171490  171549  171551
CHEXA      46397       4  156113  156112  156111  156110  164949  164741+
+         164740  164948  162031  162028  162025  162062  152708  152707+
+         152706  152705  171521  171518  171515  171552
CHEXA      46398       4  156127  156126  156125  156129  164895  164894+
+         165099  165100  162060  162057  162063  162064  152722  152721+
+         152720  152723  171550  171547  171553  171554
CHEXA      46399       4  156130  156128  156101  156100  165102  165304+
+         165101  164896  162066  162065  162005  162067  152724  152725+
+         152696  152695  171555  171556  171495  171557
CHEXA      46400       4  156127  156129  156130  156100  164895  165100+
+         165102  164896  162064  162068  162067  162061  152722  152723+
+         152724  152695  171554  171558  171557  171551
CHEXA      46401       4  156110  156109  156132  156131  164948  165150+
+         165348  165151  162023  162070  162069  162071  152705  152704+
+         152726  152727  171513  171559  171560  171561
CHEXA      46402       4  156114  156113  156110  156131  165152  164949+
+         164948  165151  162033  162062  162071  162072  152709  152708+
+         152705  152727  171523  171552  171561  171562
CHEXA      46403       4  156108  156134  156132  156109  165347  165540+
+         165348  165150  162074  162073  162070  162021  152703  152728+
+         152726  152704  171563  171564  171559  171511
CHEXA      46404       4  156134  156133  156131  156132  165540  165349+
+         165151  165348  162076  162075  162069  162073  152728  152729+
+         152727  152726  171565  171566  171560  171564
CHEXA      46405       4  156133  156115  156114  156131  165349  165350+
+         165152  165151  162077  162035  162072  162075  152729  152710+
+         152709  152727  171567  171525  171562  171566
CHEXA      46406       4  156128  156123  156122  156135  165304  165499+
+         165687  165501  162079  162051  162078  162080  152725  152718+
+         152717  152730  171568  171541  171569  171570
CHEXA      46407       4  156102  156101  156128  156135  165303  165101+
+         165304  165501  162007  162065  162080  162081  152697  152696+
+         152725  152730  171497  171556  171570  171571
CHEXA      46408       4  156107  156137  156134  156108  165539  165724+
+         165540  165347  162083  162082  162074  162019  152702  152731+
+         152728  152703  171572  171573  171563  171509
CHEXA      46409       4  156137  156136  156133  156134  165724  165541+
+         165349  165540  162085  162084  162076  162082  152731  152732+
+         152729  152728  171574  171575  171565  171573
CHEXA      46410       4  156136  156116  156115  156133  165541  165542+
+         165350  165349  162086  162037  162077  162084  152732  152711+
+         152710  152729  171576  171527  171567  171575
CHEXA      46411       4  156135  156122  156121  156138  165501  165687+
+         165858  165689  162078  162049  162087  162088  152730  152717+
+         152716  152733  171569  171539  171577  171578
CHEXA      46412       4  156103  156102  156135  156138  165500  165303+
+         165501  165689  162009  162081  162088  162089  152698  152697+
+         152730  152733  171499  171571  171578  171579
CHEXA      46413       4  156106  156140  156137  156107  165723  165877+
+         165724  165539  162091  162090  162083  162017  152701  152734+
+         152731  152702  171580  171581  171572  171507
CHEXA      46414       4  156140  156139  156136  156137  165877  165725+
+         165541  165724  162093  162092  162085  162090  152734  152735+
+         152732  152731  171582  171583  171574  171581
CHEXA      46415       4  156139  156117  156116  156136  165725  165726+
+         165542  165541  162094  162039  162086  162092  152735  152712+
+         152711  152732  171584  171529  171576  171583
CHEXA      46416       4  156105  156142  156140  156106  165859  165947+
+         165877  165723  162096  162095  162091  162015  152700  152736+
+         152734  152701  171585  171586  171580  171505
CHEXA      46417       4  156142  156141  156139  156140  165947  165878+
+         165725  165877  162098  162097  162093  162095  152736  152737+
+         152735  152734  171587  171588  171582  171586
CHEXA      46418       4  156141  156118  156117  156139  165878  165879+
+         165726  165725  162099  162041  162094  162097  152737  152713+
+         152712  152735  171589  171531  171584  171588
CHEXA      46419       4  156138  156121  156120  156143  165689  165858+
+         165946  165860  162087  162047  162100  162101  152733  152716+
+         152715  152738  171577  171537  171590  171591
CHEXA      46420       4  156104  156103  156138  156143  165688  165500+
+         165689  165860  162011  162089  162101  162102  152699  152698+
+         152733  152738  171501  171579  171591  171592
CHEXA      46421       4  156142  156105  156104  156144  165947  165859+
+         165688  165861  162096  162013  162103  162104  152736  152700+
+         152699  152739  171585  171503  171593  171594
CHEXA      46422       4  156145  156141  156142  156144  165948  165878+
+         165947  165861  162105  162098  162104  162106  152740  152737+
+         152736  152739  171595  171587  171594  171596
CHEXA      46423       4  156145  156119  156118  156141  165948  165949+
+         165879  165878  162107  162043  162099  162105  152740  152714+
+         152713  152737  171597  171533  171589  171595
CHEXA      46424       4  156170  156148  156147  156175  163836  163837+
+         163585  163584  162110  162109  162108  162111  152741  152742+
+         152743  152744  171598  171599  171600  171601
CHEXA      46425       4  156171  156170  156175  156174  163812  163836+
+         163584  163583  162113  162111  162112  162114  152745  152741+
+         152744  152746  171602  171601  171603  171604
CHEXA      46426       4  153460  153459  156172  156176  163163  163162+
+         163534  163535  156634  162116  162115  162117  150057  150056+
+         152747  152748  166124  171605  171606  171607
CHEXA      46427       4  156177  156171  156174  156173  163536  163812+
+         163583  163537  162119  162114  162118  162120  152749  152745+
+         152746  152750  171608  171604  171609  171610
CHEXA      46428       4  156177  156176  156172  156171  163536  163535+
+         163534  163812  162122  162115  162121  162119  152749  152748+
+         152747  152745  171611  171606  171612  171608
CHEXA      46429       4  156146  153478  153477  156178  163241  162872+
+         162871  163240  162124  156668  162123  162125  152751  150074+
+         150073  152752  171613  166158  171614  171615
CHEXA      46430       4  156175  156147  156146  156178  163584  163585+
+         163241  163240  162108  162126  162125  162127  152744  152743+
+         152751  152752  171600  171616  171615  171617
CHEXA      46431       4  156178  153477  153476  156179  163240  162871+
+         162870  163239  162123  156666  162128  162129  152752  150073+
+         150072  152753  171614  166156  171618  171619
CHEXA      46432       4  156174  156175  156178  156179  163583  163584+
+         163240  163239  162112  162127  162129  162130  152746  152744+
+         152752  152753  171603  171617  171619  171620
CHEXA      46433       4  156180  156179  153476  153475  163238  163239+
+         162870  162869  162131  162128  156664  162132  152754  152753+
+         150072  150071  171621  171618  166154  171622
CHEXA      46434       4  155732  153464  153463  156180  163237  163538+
+         163166  163238  161244  156643  162133  162134  152308  150061+
+         150060  152754  170735  166133  171623  171624
CHEXA      46435       4  153475  153474  155732  156180  162869  162868+
+         163237  163238  156662  161249  162134  162132  150071  150070+
+         152308  152754  166152  170739  171624  171622
CHEXA      46436       4  156173  156174  156179  156180  163537  163583+
+         163239  163238  162118  162130  162131  162135  152750  152746+
+         152753  152754  171609  171620  171621  171625
CHEXA      46437       4  156149  156148  156170  156181  164069  163837+
+         163836  164068  162137  162110  162136  162138  152755  152742+
+         152741  152756  171626  171598  171627  171628
CHEXA      46438       4  156182  156150  156149  156181  164292  164294+
+         164069  164068  162140  162139  162138  162141  152757  152758+
+         152755  152756  171629  171630  171628  171631
CHEXA      46439       4  156183  156151  156150  156182  164510  164512+
+         164294  164292  162143  162142  162140  162144  152759  152760+
+         152758  152757  171632  171633  171629  171634
CHEXA      46440       4  156184  156152  156151  156183  164722  164724+
+         164512  164510  162146  162145  162143  162147  152761  152762+
+         152760  152759  171635  171636  171632  171637
CHEXA      46441       4  156185  156153  156152  156184  164930  164932+
+         164724  164722  162149  162148  162146  162150  152763  152764+
+         152762  152761  171638  171639  171635  171640
CHEXA      46442       4  156186  156154  156153  156185  165132  165134+
+         164932  164930  162152  162151  162149  162153  152765  152766+
+         152764  152763  171641  171642  171638  171643
CHEXA      46443       4  156187  156155  156154  156186  165330  165331+
+         165134  165132  162155  162154  162152  162156  152767  152768+
+         152766  152765  171644  171645  171641  171646
CHEXA      46444       4  156188  156156  156155  156187  165522  165523+
+         165331  165330  162158  162157  162155  162159  152769  152770+
+         152768  152767  171647  171648  171644  171649
CHEXA      46445       4  156189  156157  156156  156188  165521  165707+
+         165523  165522  162161  162160  162158  162162  152771  152772+
+         152770  152769  171650  171651  171647  171652
CHEXA      46446       4  156190  156158  156157  156189  165520  165706+
+         165707  165521  162164  162163  162161  162165  152773  152774+
+         152772  152771  171653  171654  171650  171655
CHEXA      46447       4  156191  156159  156158  156190  165519  165705+
+         165706  165520  162167  162166  162164  162168  152775  152776+
+         152774  152773  171656  171657  171653  171658
CHEXA      46448       4  156192  156160  156159  156191  165518  165517+
+         165705  165519  162170  162169  162167  162171  152777  152778+
+         152776  152775  171659  171660  171656  171661
CHEXA      46449       4  156193  156161  156160  156192  165321  165320+
+         165517  165518  162173  162172  162170  162174  152779  152780+
+         152778  152777  171662  171663  171659  171664
CHEXA      46450       4  156194  156162  156161  156193  165119  165118+
+         165320  165321  162176  162175  162173  162177  152781  152782+
+         152780  152779  171665  171666  171662  171667
CHEXA      46451       4  156195  156163  156162  156194  164913  164912+
+         165118  165119  162179  162178  162176  162180  152783  152784+
+         152782  152781  171668  171669  171665  171670
CHEXA      46452       4  156196  156164  156163  156195  164701  164700+
+         164912  164913  162182  162181  162179  162183  152785  152786+
+         152784  152783  171671  171672  171668  171673
CHEXA      46453       4  156197  156165  156164  156196  164485  164484+
+         164700  164701  162185  162184  162182  162186  152787  152788+
+         152786  152785  171674  171675  171671  171676
CHEXA      46454       4  156198  156166  156165  156197  164261  164260+
+         164484  164485  162188  162187  162185  162189  152789  152790+
+         152788  152787  171677  171678  171674  171679
CHEXA      46455       4  156199  156167  156166  156198  164031  164030+
+         164260  164261  162191  162190  162188  162192  152791  152792+
+         152790  152789  171680  171681  171677  171682
CHEXA      46456       4  156200  156168  156167  156199  163785  163784+
+         164030  164031  162194  162193  162191  162195  152793  152794+
+         152792  152791  171683  171684  171680  171685
CHEXA      46457       4  156201  156169  156168  156200  163490  163489+
+         163784  163785  162197  162196  162194  162198  152795  152796+
+         152794  152793  171686  171687  171683  171688
CHEXA      46458       4  153732  153731  156169  156201  163118  163117+
+         163489  163490  157178  162199  162197  162200  150328  150327+
+         152796  152795  166668  171689  171686  171690
CHEXA      46459       4  156202  153733  153732  156201  163491  163119+
+         163118  163490  162201  157180  162200  162202  152797  150329+
+         150328  152795  171691  166670  171690  171692
CHEXA      46460       4  156203  153734  153733  156202  163492  163120+
+         163119  163491  162203  157182  162201  162204  152798  150330+
+         150329  152797  171693  166672  171691  171694
CHEXA      46461       4  153382  153735  153734  156203  163493  163121+
+         163120  163492  162205  157184  162203  162206  149978  150331+
+         150330  152798  171695  166674  171693  171696
CHEXA      46462       4  156204  153383  153382  156203  163570  163219+
+         163493  163492  162207  156490  162206  162208  152799  149979+
+         149978  152798  171697  165979  171696  171698
CHEXA      46463       4  156205  153384  153383  156204  163571  163220+
+         163219  163570  162209  156493  162207  162210  152800  149980+
+         149979  152799  171699  165983  171697  171700
CHEXA      46464       4  156206  153385  153384  156205  163572  163221+
+         163220  163571  162211  156495  162209  162212  152801  149981+
+         149980  152800  171701  165985  171699  171702
CHEXA      46465       4  156207  153386  153385  156206  163573  163222+
+         163221  163572  162213  156497  162211  162214  152802  149982+
+         149981  152801  171703  165987  171701  171704
CHEXA      46466       4  156208  153387  153386  156207  163575  163223+
+         163222  163573  162215  156499  162213  162216  152803  149983+
+         149982  152802  171705  165989  171703  171706
CHEXA      46467       4  156209  153388  153387  156208  163832  163574+
+         163223  163575  162217  156502  162215  162218  152804  149984+
+         149983  152803  171707  165992  171705  171708
CHEXA      46468       4  156210  155636  153388  156209  164065  163831+
+         163574  163832  162219  161074  162217  162220  152805  152234+
+         149984  152804  171709  170564  171707  171710
CHEXA      46469       4  156211  155635  155636  156210  164290  164064+
+         163831  164065  162221  161071  162219  162222  152806  152232+
+         152234  152805  171711  170562  171709  171712
CHEXA      46470       4  156212  155634  155635  156211  164509  164289+
+         164064  164290  162223  161068  162221  162224  152807  152230+
+         152232  152806  171713  170559  171711  171714
CHEXA      46471       4  156213  155633  155634  156212  164721  164508+
+         164289  164509  162225  161065  162223  162226  152808  152228+
+         152230  152807  171715  170556  171713  171716
CHEXA      46472       4  156214  155632  155633  156213  164915  164703+
+         164508  164721  162227  161062  162225  162228  152809  152226+
+         152228  152808  171717  170553  171715  171718
CHEXA      46473       4  156215  155631  155632  156214  164916  164704+
+         164703  164915  162229  161059  162227  162230  152810  152224+
+         152226  152809  171719  170550  171717  171720
CHEXA      46474       4  156216  155630  155631  156215  164917  164705+
+         164704  164916  162231  161056  162229  162232  152811  152222+
+         152224  152810  171721  170547  171719  171722
CHEXA      46475       4  156217  155629  155630  156216  164918  164706+
+         164705  164917  162233  161053  162231  162234  152812  152220+
+         152222  152811  171723  170544  171721  171724
CHEXA      46476       4  156218  155628  155629  156217  164919  164707+
+         164706  164918  162235  161050  162233  162236  152813  152218+
+         152220  152812  171725  170541  171723  171726
CHEXA      46477       4  156219  155627  155628  156218  164920  164708+
+         164707  164919  162237  161047  162235  162238  152814  152216+
+         152218  152813  171727  170538  171725  171728
CHEXA      46478       4  156220  155626  155627  156219  164921  164709+
+         164708  164920  162239  161044  162237  162240  152815  152214+
+         152216  152814  171729  170535  171727  171730
CHEXA      46479       4  156221  155625  155626  156220  164922  164710+
+         164709  164921  162241  161041  162239  162242  152816  152212+
+         152214  152815  171731  170532  171729  171732
CHEXA      46480       4  156222  155624  155625  156221  164923  164711+
+         164710  164922  162243  161038  162241  162244  152817  152210+
+         152212  152816  171733  170529  171731  171734
CHEXA      46481       4  156223  155623  155624  156222  164712  164496+
+         164711  164923  162245  161035  162243  162246  152818  152208+
+         152210  152817  171735  170526  171733  171736
CHEXA      46482       4  156224  155622  155623  156223  164497  164274+
+         164496  164712  162247  161032  162245  162248  152819  152206+
+         152208  152818  171737  170523  171735  171738
CHEXA      46483       4  156225  155621  155622  156224  164275  164047+
+         164274  164497  162249  161029  162247  162250  152820  152204+
+         152206  152819  171739  170520  171737  171740
CHEXA      46484       4  156226  155620  155621  156225  164048  163809+
+         164047  164275  162251  161026  162249  162252  152821  152202+
+         152204  152820  171741  170517  171739  171742
CHEXA      46485       4  156227  153458  155620  156226  163810  163532+
+         163809  164048  162253  161024  162251  162254  152822  150055+
+         152202  152821  171743  170514  171741  171744
CHEXA      46486       4  156172  153459  153458  156227  163534  163162+
+         163532  163810  162116  156631  162253  162255  152747  150056+
+         150055  152822  171605  166120  171743  171745
CHEXA      46487       4  156228  156171  156172  156227  164049  163812+
+         163534  163810  162256  162121  162255  162257  152823  152745+
+         152747  152822  171746  171612  171745  171747
CHEXA      46488       4  156181  156170  156171  156228  164068  163836+
+         163812  164049  162136  162113  162256  162258  152756  152741+
+         152745  152823  171627  171602  171746  171748
CHEXA      46489       4  156202  156201  156200  156232  163491  163490+
+         163785  163786  162202  162198  162259  162260  152797  152795+
+         152793  152824  171692  171688  171749  171750
CHEXA      46490       4  156233  156231  156205  156204  163787  163829+
+         163571  163570  162262  162261  162210  162263  152825  152826+
+         152800  152799  171751  171752  171700  171753
CHEXA      46491       4  156233  156202  156232  156231  163787  163491+
+         163786  163829  162265  162260  162264  162262  152825  152797+
+         152824  152826  171754  171750  171755  171751
CHEXA      46492       4  156203  156202  156233  156204  163492  163491+
+         163787  163570  162204  162265  162263  162208  152798  152797+
+         152825  152799  171694  171754  171753  171698
CHEXA      46493       4  156232  156200  156199  156230  163786  163785+
+         164031  164032  162259  162195  162266  162267  152824  152793+
+         152791  152827  171749  171685  171756  171757
CHEXA      46494       4  156229  156231  156232  156230  163830  163829+
+         163786  164032  162268  162264  162267  162269  152828  152826+
+         152824  152827  171758  171755  171757  171759
CHEXA      46495       4  156229  156208  156207  156206  163830  163575+
+         163573  163572  162270  162216  162214  162271  152828  152803+
+         152802  152801  171760  171706  171704  171761
CHEXA      46496       4  156205  156231  156229  156206  163571  163829+
+         163830  163572  162261  162268  162271  162212  152800  152826+
+         152828  152801  171752  171758  171761  171702
CHEXA      46497       4  156226  156225  156237  156238  164048  164275+
+         164498  164276  162252  162273  162272  162274  152821  152820+
+         152829  152830  171742  171762  171763  171764
CHEXA      46498       4  156228  156227  156226  156238  164049  163810+
+         164048  164276  162257  162254  162274  162275  152823  152822+
+         152821  152830  171747  171744  171764  171765
CHEXA      46499       4  156239  156236  156182  156181  164293  164511+
+         164292  164068  162277  162276  162141  162278  152831  152832+
+         152757  152756  171766  171767  171631  171768
CHEXA      46500       4  156239  156238  156237  156236  164293  164276+
+         164498  164511  162280  162272  162279  162277  152831  152830+
+         152829  152832  171769  171763  171770  171766
CHEXA      46501       4  156228  156238  156239  156181  164049  164276+
+         164293  164068  162275  162280  162278  162258  152823  152830+
+         152831  152756  171765  171769  171768  171748
CHEXA      46502       4  156182  156236  156234  156183  164292  164511+
+         164723  164510  162276  162282  162281  162144  152757  152832+
+         152833  152759  171767  171771  171772  171634
CHEXA      46503       4  156236  156237  156235  156234  164511  164498+
+         164713  164723  162279  162284  162283  162282  152832  152829+
+         152834  152833  171770  171773  171774  171771
CHEXA      46504       4  156237  156225  156224  156235  164498  164275+
+         164497  164713  162273  162250  162285  162284  152829  152820+
+         152819  152834  171762  171740  171775  171773
CHEXA      46505       4  156241  156243  156242  156240  164924  165129+
+         165133  164931  162288  162287  162286  162289  152835  152836+
+         152837  152838  171776  171777  171778  171779
CHEXA      46506       4  156243  156245  156244  156242  165129  165128+
+         165329  165133  162292  162291  162290  162287  152836  152839+
+         152840  152837  171780  171781  171782  171777
CHEXA      46507       4  156245  156247  156246  156244  165128  165127+
+         165328  165329  162295  162294  162293  162291  152839  152841+
+         152842  152840  171783  171784  171785  171781
CHEXA      46508       4  156247  156249  156248  156246  165127  165126+
+         165327  165328  162298  162297  162296  162294  152841  152843+
+         152844  152842  171786  171787  171788  171784
CHEXA      46509       4  156249  156251  156250  156248  165126  165125+
+         165326  165327  162301  162300  162299  162297  152843  152845+
+         152846  152844  171789  171790  171791  171787
CHEXA      46510       4  156251  156253  156252  156250  165125  165124+
+         165325  165326  162304  162303  162302  162300  152845  152847+
+         152848  152846  171792  171793  171794  171790
CHEXA      46511       4  156253  156255  156254  156252  165124  165123+
+         165324  165325  162307  162306  162305  162303  152847  152849+
+         152850  152848  171795  171796  171797  171793
CHEXA      46512       4  156255  156257  156256  156254  165123  165122+
+         165323  165324  162310  162309  162308  162306  152849  152851+
+         152852  152850  171798  171799  171800  171796
CHEXA      46513       4  156257  156259  156258  156256  165122  165121+
+         165322  165323  162313  162312  162311  162309  152851  152853+
+         152854  152852  171801  171802  171803  171799
CHEXA      46514       4  156259  156261  156260  156258  165121  164929+
+         165120  165322  162316  162315  162314  162312  152853  152855+
+         152856  152854  171804  171805  171806  171802
CHEXA      46515       4  156261  156263  156262  156260  164929  164720+
+         164914  165120  162319  162318  162317  162315  152855  152857+
+         152858  152856  171807  171808  171809  171805
CHEXA      46516       4  156263  156265  156264  156262  164720  164507+
+         164702  164914  162322  162321  162320  162318  152857  152859+
+         152860  152858  171810  171811  171812  171808
CHEXA      46517       4  156265  156267  156266  156264  164507  164288+
+         164486  164702  162325  162324  162323  162321  152859  152861+
+         152862  152860  171813  171814  171815  171811
CHEXA      46518       4  156267  156269  156268  156266  164288  164063+
+         164262  164486  162328  162327  162326  162324  152861  152863+
+         152864  152862  171816  171817  171818  171814
CHEXA      46519       4  156234  156240  156184  156183  164723  164931+
+         164722  164510  162330  162329  162147  162281  152833  152838+
+         152761  152759  171819  171820  171637  171772
CHEXA      46520       4  156240  156242  156185  156184  164931  165133+
+         164930  164722  162286  162331  162150  162329  152838  152837+
+         152763  152761  171778  171821  171640  171820
CHEXA      46521       4  156242  156244  156186  156185  165133  165329+
+         165132  164930  162290  162332  162153  162331  152837  152840+
+         152765  152763  171782  171822  171643  171821
CHEXA      46522       4  156244  156246  156187  156186  165329  165328+
+         165330  165132  162293  162333  162156  162332  152840  152842+
+         152767  152765  171785  171823  171646  171822
CHEXA      46523       4  156246  156248  156188  156187  165328  165327+
+         165522  165330  162296  162334  162159  162333  152842  152844+
+         152769  152767  171788  171824  171649  171823
CHEXA      46524       4  156248  156250  156189  156188  165327  165326+
+         165521  165522  162299  162335  162162  162334  152844  152846+
+         152771  152769  171791  171825  171652  171824
CHEXA      46525       4  156250  156252  156190  156189  165326  165325+
+         165520  165521  162302  162336  162165  162335  152846  152848+
+         152773  152771  171794  171826  171655  171825
CHEXA      46526       4  156252  156254  156191  156190  165325  165324+
+         165519  165520  162305  162337  162168  162336  152848  152850+
+         152775  152773  171797  171827  171658  171826
CHEXA      46527       4  156254  156256  156192  156191  165324  165323+
+         165518  165519  162308  162338  162171  162337  152850  152852+
+         152777  152775  171800  171828  171661  171827
CHEXA      46528       4  156256  156258  156193  156192  165323  165322+
+         165321  165518  162311  162339  162174  162338  152852  152854+
+         152779  152777  171803  171829  171664  171828
CHEXA      46529       4  156258  156260  156194  156193  165322  165120+
+         165119  165321  162314  162340  162177  162339  152854  152856+
+         152781  152779  171806  171830  171667  171829
CHEXA      46530       4  156260  156262  156195  156194  165120  164914+
+         164913  165119  162317  162341  162180  162340  152856  152858+
+         152783  152781  171809  171831  171670  171830
CHEXA      46531       4  156262  156264  156196  156195  164914  164702+
+         164701  164913  162320  162342  162183  162341  152858  152860+
+         152785  152783  171812  171832  171673  171831
CHEXA      46532       4  156264  156266  156197  156196  164702  164486+
+         164485  164701  162323  162343  162186  162342  152860  152862+
+         152787  152785  171815  171833  171676  171832
CHEXA      46533       4  156266  156268  156198  156197  164486  164262+
+         164261  164485  162326  162344  162189  162343  152862  152864+
+         152789  152787  171818  171834  171679  171833
CHEXA      46534       4  156268  156230  156199  156198  164262  164032+
+         164031  164261  162345  162266  162192  162344  152864  152827+
+         152791  152789  171835  171756  171682  171834
CHEXA      46535       4  156269  156229  156230  156268  164063  163830+
+         164032  164262  162346  162269  162345  162327  152863  152828+
+         152827  152864  171836  171759  171835  171817
CHEXA      46536       4  156209  156208  156229  156269  163832  163575+
+         163830  164063  162218  162270  162346  162347  152804  152803+
+         152828  152863  171708  171760  171836  171837
CHEXA      46537       4  156210  156209  156269  156267  164065  163832+
+         164063  164288  162220  162347  162328  162348  152805  152804+
+         152863  152861  171710  171837  171816  171838
CHEXA      46538       4  156211  156210  156267  156265  164290  164065+
+         164288  164507  162222  162348  162325  162349  152806  152805+
+         152861  152859  171712  171838  171813  171839
CHEXA      46539       4  156212  156211  156265  156263  164509  164290+
+         164507  164720  162224  162349  162322  162350  152807  152806+
+         152859  152857  171714  171839  171810  171840
CHEXA      46540       4  156213  156212  156263  156261  164721  164509+
+         164720  164929  162226  162350  162319  162351  152808  152807+
+         152857  152855  171716  171840  171807  171841
CHEXA      46541       4  156214  156213  156261  156259  164915  164721+
+         164929  165121  162228  162351  162316  162352  152809  152808+
+         152855  152853  171718  171841  171804  171842
CHEXA      46542       4  156215  156214  156259  156257  164916  164915+
+         165121  165122  162230  162352  162313  162353  152810  152809+
+         152853  152851  171720  171842  171801  171843
CHEXA      46543       4  156216  156215  156257  156255  164917  164916+
+         165122  165123  162232  162353  162310  162354  152811  152810+
+         152851  152849  171722  171843  171798  171844
CHEXA      46544       4  156217  156216  156255  156253  164918  164917+
+         165123  165124  162234  162354  162307  162355  152812  152811+
+         152849  152847  171724  171844  171795  171845
CHEXA      46545       4  156218  156217  156253  156251  164919  164918+
+         165124  165125  162236  162355  162304  162356  152813  152812+
+         152847  152845  171726  171845  171792  171846
CHEXA      46546       4  156219  156218  156251  156249  164920  164919+
+         165125  165126  162238  162356  162301  162357  152814  152813+
+         152845  152843  171728  171846  171789  171847
CHEXA      46547       4  156220  156219  156249  156247  164921  164920+
+         165126  165127  162240  162357  162298  162358  152815  152814+
+         152843  152841  171730  171847  171786  171848
CHEXA      46548       4  156221  156220  156247  156245  164922  164921+
+         165127  165128  162242  162358  162295  162359  152816  152815+
+         152841  152839  171732  171848  171783  171849
CHEXA      46549       4  156222  156221  156245  156243  164923  164922+
+         165128  165129  162244  162359  162292  162360  152817  152816+
+         152839  152836  171734  171849  171780  171850
CHEXA      46550       4  156223  156222  156243  156241  164712  164923+
+         165129  164924  162246  162360  162288  162361  152818  152817+
+         152836  152835  171736  171850  171776  171851
CHEXA      46551       4  156224  156223  156241  156235  164497  164712+
+         164924  164713  162248  162361  162362  162285  152819  152818+
+         152835  152834  171738  171851  171852  171775
CHEXA      46552       4  156235  156241  156240  156234  164713  164924+
+         164931  164723  162362  162289  162330  162283  152834  152835+
+         152838  152833  171852  171779  171819  171774
CHEXA      46553       4  153479  153478  156146  156270  162873  162872+
+         163241  163242  156670  162124  162363  162364  150075  150074+
+         152751  152865  166160  171613  171853  171854
CHEXA      46554       4  156271  153480  153479  156270  163243  162874+
+         162873  163242  162365  156672  162364  162366  152866  150076+
+         150075  152865  171855  166162  171854  171856
CHEXA      46555       4  156272  153481  153480  156271  163244  162875+
+         162874  163243  162367  156674  162365  162368  152867  150077+
+         150076  152866  171857  166164  171855  171858
CHEXA      46556       4  156273  153482  153481  156272  163245  162876+
+         162875  163244  162369  156676  162367  162370  152868  150078+
+         150077  152867  171859  166166  171857  171860
CHEXA      46557       4  156274  153483  153482  156273  163246  162877+
+         162876  163245  162371  156678  162369  162372  152869  150079+
+         150078  152868  171861  166168  171859  171862
CHEXA      46558       4  156275  153484  153483  156274  163247  162878+
+         162877  163246  162373  156680  162371  162374  152870  150080+
+         150079  152869  171863  166170  171861  171864
CHEXA      46559       4  156276  153485  153484  156275  163248  162879+
+         162878  163247  162375  156682  162373  162376  152871  150081+
+         150080  152870  171865  166172  171863  171866
CHEXA      46560       4  156277  153486  153485  156276  163249  162880+
+         162879  163248  162377  156684  162375  162378  152872  150082+
+         150081  152871  171867  166174  171865  171868
CHEXA      46561       4  155763  153487  153486  156277  163250  162881+
+         162880  163249  161326  156686  162377  162379  152358  150083+
+         150082  152872  170816  166176  171867  171869
CHEXA      46562       4  156278  155762  155763  156277  163593  163594+
+         163250  163249  162380  161323  162379  162381  152873  152356+
+         152358  152872  171870  170814  171869  171871
CHEXA      46563       4  156279  155761  155762  156278  163845  163846+
+         163594  163593  162382  161320  162380  162383  152874  152354+
+         152356  152873  171872  170811  171870  171873
CHEXA      46564       4  156280  155760  155761  156279  164077  164078+
+         163846  163845  162384  161317  162382  162385  152875  152352+
+         152354  152874  171874  170808  171872  171875
CHEXA      46565       4  156281  155759  155760  156280  164302  164303+
+         164078  164077  162386  161314  162384  162387  152876  152350+
+         152352  152875  171876  170805  171874  171877
CHEXA      46566       4  156282  155758  155759  156281  164520  164521+
+         164303  164302  162388  161311  162386  162389  152877  152348+
+         152350  152876  171878  170802  171876  171879
CHEXA      46567       4  156283  155757  155758  156282  164732  164733+
+         164521  164520  162390  161308  162388  162391  152878  152346+
+         152348  152877  171880  170799  171878  171881
CHEXA      46568       4  156284  155756  155757  156283  164940  164941+
+         164733  164732  162392  161305  162390  162393  152879  152344+
+         152346  152878  171882  170796  171880  171883
CHEXA      46569       4  156285  155755  155756  156284  165142  165143+
+         164941  164940  162394  161302  162392  162395  152880  152342+
+         152344  152879  171884  170793  171882  171885
CHEXA      46570       4  156286  155754  155755  156285  165339  165340+
+         165143  165142  162396  161299  162394  162397  152881  152340+
+         152342  152880  171886  170790  171884  171887
CHEXA      46571       4  156287  155753  155754  156286  165531  165532+
+         165340  165339  162398  161296  162396  162399  152882  152338+
+         152340  152881  171888  170787  171886  171889
CHEXA      46572       4  156288  155752  155753  156287  165715  165716+
+         165532  165531  162400  161293  162398  162401  152883  152336+
+         152338  152882  171890  170784  171888  171891
CHEXA      46573       4  156289  155751  155752  156288  165869  165868+
+         165716  165715  162402  161290  162400  162403  152884  152334+
+         152336  152883  171892  170781  171890  171893
CHEXA      46574       4  156290  155750  155751  156289  165697  165696+
+         165868  165869  162404  161287  162402  162405  152885  152332+
+         152334  152884  171894  170778  171892  171895
CHEXA      46575       4  156291  155749  155750  156290  165509  165508+
+         165696  165697  162406  161284  162404  162407  152886  152330+
+         152332  152885  171896  170775  171894  171897
CHEXA      46576       4  156292  155748  155749  156291  165312  165311+
+         165508  165509  162408  161281  162406  162409  152887  152328+
+         152330  152886  171898  170772  171896  171899
CHEXA      46577       4  156293  155747  155748  156292  165110  165109+
+         165311  165312  162410  161278  162408  162411  152888  152326+
+         152328  152887  171900  170769  171898  171901
CHEXA      46578       4  156294  155746  155747  156293  164904  164903+
+         165109  165110  162412  161275  162410  162413  152889  152324+
+         152326  152888  171902  170766  171900  171903
CHEXA      46579       4  156295  155745  155746  156294  164692  164691+
+         164903  164904  162414  161272  162412  162415  152890  152322+
+         152324  152889  171904  170763  171902  171905
CHEXA      46580       4  156296  155744  155745  156295  164476  164475+
+         164691  164692  162416  161269  162414  162417  152891  152320+
+         152322  152890  171906  170760  171904  171907
CHEXA      46581       4  156297  155743  155744  156296  164252  164251+
+         164475  164476  162418  161266  162416  162419  152892  152318+
+         152320  152891  171908  170757  171906  171909
CHEXA      46582       4  156298  155742  155743  156297  164022  164021+
+         164251  164252  162420  161263  162418  162421  152893  152316+
+         152318  152892  171910  170754  171908  171911
CHEXA      46583       4  156299  155741  155742  156298  163776  163775+
+         164021  164022  162422  161260  162420  162423  152894  152312+
+         152316  152893  171912  170751  171910  171913
CHEXA      46584       4  156300  155740  155741  156299  163481  163480+
+         163775  163776  162424  161257  162422  162425  152895  152313+
+         152312  152894  171914  170747  171912  171915
CHEXA      46585       4  153723  153722  155740  156300  163109  163108+
+         163480  163481  157160  161461  162424  162426  150319  150318+
+         152313  152895  166650  170951  171914  171916
CHEXA      46586       4  156301  153724  153723  156300  163482  163110+
+         163109  163481  162427  157162  162426  162428  152896  150320+
+         150319  152895  171917  166652  171916  171918
CHEXA      46587       4  156302  153725  153724  156301  163483  163111+
+         163110  163482  162429  157164  162427  162430  152897  150321+
+         150320  152896  171919  166654  171917  171920
CHEXA      46588       4  156303  153726  153725  156302  163484  163112+
+         163111  163483  162431  157166  162429  162432  152898  150322+
+         150321  152897  171921  166656  171919  171922
CHEXA      46589       4  156304  153727  153726  156303  163485  163113+
+         163112  163484  162433  157168  162431  162434  152899  150323+
+         150322  152898  171923  166658  171921  171924
CHEXA      46590       4  156305  153728  153727  156304  163486  163114+
+         163113  163485  162435  157170  162433  162436  152900  150324+
+         150323  152899  171925  166660  171923  171926
CHEXA      46591       4  156306  153729  153728  156305  163487  163115+
+         163114  163486  162437  157172  162435  162438  152901  150325+
+         150324  152900  171927  166662  171925  171928
CHEXA      46592       4  156307  153730  153729  156306  163488  163116+
+         163115  163487  162439  157174  162437  162440  152902  150326+
+         150325  152901  171929  166664  171927  171930
CHEXA      46593       4  156169  153731  153730  156307  163489  163117+
+         163116  163488  162199  157176  162439  162441  152796  150327+
+         150326  152902  171689  166666  171929  171931
CHEXA      46594       4  156308  156168  156169  156307  163783  163784+
+         163489  163488  162442  162196  162441  162443  152903  152794+
+         152796  152902  171932  171687  171931  171933
CHEXA      46595       4  156309  156167  156168  156308  164029  164030+
+         163784  163783  162444  162193  162442  162445  152904  152792+
+         152794  152903  171934  171684  171932  171935
CHEXA      46596       4  156310  156166  156167  156309  164259  164260+
+         164030  164029  162446  162190  162444  162447  152905  152790+
+         152792  152904  171936  171681  171934  171937
CHEXA      46597       4  156311  156165  156166  156310  164483  164484+
+         164260  164259  162448  162187  162446  162449  152906  152788+
+         152790  152905  171938  171678  171936  171939
CHEXA      46598       4  156312  156164  156165  156311  164699  164700+
+         164484  164483  162450  162184  162448  162451  152907  152786+
+         152788  152906  171940  171675  171938  171941
CHEXA      46599       4  156313  156163  156164  156312  164911  164912+
+         164700  164699  162452  162181  162450  162453  152908  152784+
+         152786  152907  171942  171672  171940  171943
CHEXA      46600       4  156314  156162  156163  156313  165117  165118+
+         164912  164911  162454  162178  162452  162455  152909  152782+
+         152784  152908  171944  171669  171942  171945
CHEXA      46601       4  156315  156161  156162  156314  165319  165320+
+         165118  165117  162456  162175  162454  162457  152910  152780+
+         152782  152909  171946  171666  171944  171947
CHEXA      46602       4  156316  156160  156161  156315  165516  165517+
+         165320  165319  162458  162172  162456  162459  152911  152778+
+         152780  152910  171948  171663  171946  171949
CHEXA      46603       4  156317  156159  156160  156316  165704  165705+
+         165517  165516  162460  162169  162458  162461  152912  152776+
+         152778  152911  171950  171660  171948  171951
CHEXA      46604       4  156318  156158  156159  156317  165876  165706+
+         165705  165704  162462  162166  162460  162463  152913  152774+
+         152776  152912  171952  171657  171950  171953
CHEXA      46605       4  156319  156157  156158  156318  165708  165707+
+         165706  165876  162464  162163  162462  162465  152914  152772+
+         152774  152913  171954  171654  171952  171955
CHEXA      46606       4  156320  156156  156157  156319  165524  165523+
+         165707  165708  162466  162160  162464  162467  152915  152770+
+         152772  152914  171956  171651  171954  171957
CHEXA      46607       4  156321  156155  156156  156320  165332  165331+
+         165523  165524  162468  162157  162466  162469  152916  152768+
+         152770  152915  171958  171648  171956  171959
CHEXA      46608       4  156322  156154  156155  156321  165135  165134+
+         165331  165332  162470  162154  162468  162471  152917  152766+
+         152768  152916  171960  171645  171958  171961
CHEXA      46609       4  156323  156153  156154  156322  164933  164932+
+         165134  165135  162472  162151  162470  162473  152918  152764+
+         152766  152917  171962  171642  171960  171963
CHEXA      46610       4  156324  156152  156153  156323  164725  164724+
+         164932  164933  162474  162148  162472  162475  152919  152762+
+         152764  152918  171964  171639  171962  171965
CHEXA      46611       4  156325  156151  156152  156324  164513  164512+
+         164724  164725  162476  162145  162474  162477  152920  152760+
+         152762  152919  171966  171636  171964  171967
CHEXA      46612       4  156326  156150  156151  156325  164295  164294+
+         164512  164513  162478  162142  162476  162479  152921  152758+
+         152760  152920  171968  171633  171966  171969
CHEXA      46613       4  156327  156149  156150  156326  164070  164069+
+         164294  164295  162480  162139  162478  162481  152922  152755+
+         152758  152921  171970  171630  171968  171971
CHEXA      46614       4  156328  156148  156149  156327  163838  163837+
+         164069  164070  162482  162137  162480  162483  152923  152742+
+         152755  152922  171972  171626  171970  171973
CHEXA      46615       4  156329  156147  156148  156328  163586  163585+
+         163837  163838  162484  162109  162482  162485  152924  152743+
+         152742  152923  171974  171599  171972  171975
CHEXA      46616       4  156270  156146  156147  156329  163242  163241+
+         163585  163586  162363  162126  162484  162486  152865  152751+
+         152743  152924  171853  171616  171974  171976
CHEXA      46617       4  156271  156270  156329  156330  163243  163242+
+         163586  163587  162366  162486  162487  162488  152866  152865+
+         152924  152925  171856  171976  171977  171978
CHEXA      46618       4  156331  156272  156271  156330  163588  163244+
+         163243  163587  162489  162368  162488  162490  152926  152867+
+         152866  152925  171979  171858  171978  171980
CHEXA      46619       4  156332  156273  156272  156331  163589  163245+
+         163244  163588  162491  162370  162489  162492  152927  152868+
+         152867  152926  171981  171860  171979  171982
CHEXA      46620       4  156333  156274  156273  156332  163590  163246+
+         163245  163589  162493  162372  162491  162494  152928  152869+
+         152868  152927  171983  171862  171981  171984
CHEXA      46621       4  156334  156275  156274  156333  163591  163247+
+         163246  163590  162495  162374  162493  162496  152929  152870+
+         152869  152928  171985  171864  171983  171986
CHEXA      46622       4  156335  156276  156275  156334  163592  163248+
+         163247  163591  162497  162376  162495  162498  152930  152871+
+         152870  152929  171987  171866  171985  171988
CHEXA      46623       4  156278  156277  156276  156335  163593  163249+
+         163248  163592  162381  162378  162497  162499  152873  152872+
+         152871  152930  171871  171868  171987  171989
CHEXA      46624       4  156336  156279  156278  156335  163844  163845+
+         163593  163592  162500  162383  162499  162501  152931  152874+
+         152873  152930  171990  171873  171989  171991
CHEXA      46625       4  156337  156280  156279  156336  164076  164077+
+         163845  163844  162502  162385  162500  162503  152932  152875+
+         152874  152931  171992  171875  171990  171993
CHEXA      46626       4  156338  156281  156280  156337  164301  164302+
+         164077  164076  162504  162387  162502  162505  152933  152876+
+         152875  152932  171994  171877  171992  171995
CHEXA      46627       4  156339  156282  156281  156338  164519  164520+
+         164302  164301  162506  162389  162504  162507  152934  152877+
+         152876  152933  171996  171879  171994  171997
CHEXA      46628       4  156340  156283  156282  156339  164731  164732+
+         164520  164519  162508  162391  162506  162509  152935  152878+
+         152877  152934  171998  171881  171996  171999
CHEXA      46629       4  156341  156284  156283  156340  164939  164940+
+         164732  164731  162510  162393  162508  162511  152936  152879+
+         152878  152935  172000  171883  171998  172001
CHEXA      46630       4  156342  156285  156284  156341  165141  165142+
+         164940  164939  162512  162395  162510  162513  152937  152880+
+         152879  152936  172002  171885  172000  172003
CHEXA      46631       4  156343  156286  156285  156342  165338  165339+
+         165142  165141  162514  162397  162512  162515  152938  152881+
+         152880  152937  172004  171887  172002  172005
CHEXA      46632       4  156344  156287  156286  156343  165530  165531+
+         165339  165338  162516  162399  162514  162517  152939  152882+
+         152881  152938  172006  171889  172004  172007
CHEXA      46633       4  156345  156288  156287  156344  165714  165715+
+         165531  165530  162518  162401  162516  162519  152940  152883+
+         152882  152939  172008  171891  172006  172009
CHEXA      46634       4  156346  156289  156288  156345  165870  165869+
+         165715  165714  162520  162403  162518  162521  152941  152884+
+         152883  152940  172010  171893  172008  172011
CHEXA      46635       4  156347  156290  156289  156346  165698  165697+
+         165869  165870  162522  162405  162520  162523  152942  152885+
+         152884  152941  172012  171895  172010  172013
CHEXA      46636       4  156348  156291  156290  156347  165510  165509+
+         165697  165698  162524  162407  162522  162525  152943  152886+
+         152885  152942  172014  171897  172012  172015
CHEXA      46637       4  156349  156292  156291  156348  165313  165312+
+         165509  165510  162526  162409  162524  162527  152944  152887+
+         152886  152943  172016  171899  172014  172017
CHEXA      46638       4  156350  156293  156292  156349  165111  165110+
+         165312  165313  162528  162411  162526  162529  152945  152888+
+         152887  152944  172018  171901  172016  172019
CHEXA      46639       4  156351  156294  156293  156350  164905  164904+
+         165110  165111  162530  162413  162528  162531  152946  152889+
+         152888  152945  172020  171903  172018  172021
CHEXA      46640       4  156352  156295  156294  156351  164693  164692+
+         164904  164905  162532  162415  162530  162533  152947  152890+
+         152889  152946  172022  171905  172020  172023
CHEXA      46641       4  156353  156296  156295  156352  164477  164476+
+         164692  164693  162534  162417  162532  162535  152948  152891+
+         152890  152947  172024  171907  172022  172025
CHEXA      46642       4  156354  156297  156296  156353  164253  164252+
+         164476  164477  162536  162419  162534  162537  152949  152892+
+         152891  152948  172026  171909  172024  172027
CHEXA      46643       4  156355  156298  156297  156354  164023  164022+
+         164252  164253  162538  162421  162536  162539  152950  152893+
+         152892  152949  172028  171911  172026  172029
CHEXA      46644       4  156356  156299  156298  156355  163777  163776+
+         164022  164023  162540  162423  162538  162541  152951  152894+
+         152893  152950  172030  171913  172028  172031
CHEXA      46645       4  156301  156300  156299  156356  163482  163481+
+         163776  163777  162428  162425  162540  162542  152896  152895+
+         152894  152951  171918  171915  172030  172032
CHEXA      46646       4  156357  156302  156301  156356  163778  163483+
+         163482  163777  162543  162430  162542  162544  152952  152897+
+         152896  152951  172033  171920  172032  172034
CHEXA      46647       4  156358  156303  156302  156357  163779  163484+
+         163483  163778  162545  162432  162543  162546  152953  152898+
+         152897  152952  172035  171922  172033  172036
CHEXA      46648       4  156359  156304  156303  156358  163780  163485+
+         163484  163779  162547  162434  162545  162548  152954  152899+
+         152898  152953  172037  171924  172035  172038
CHEXA      46649       4  156360  156305  156304  156359  163781  163486+
+         163485  163780  162549  162436  162547  162550  152955  152900+
+         152899  152954  172039  171926  172037  172040
CHEXA      46650       4  156361  156306  156305  156360  163782  163487+
+         163486  163781  162551  162438  162549  162552  152956  152901+
+         152900  152955  172041  171928  172039  172042
CHEXA      46651       4  156308  156307  156306  156361  163783  163488+
+         163487  163782  162443  162440  162551  162553  152903  152902+
+         152901  152956  171933  171930  172041  172043
CHEXA      46652       4  156362  156309  156308  156361  164028  164029+
+         163783  163782  162554  162445  162553  162555  152957  152904+
+         152903  152956  172044  171935  172043  172045
CHEXA      46653       4  156363  156310  156309  156362  164258  164259+
+         164029  164028  162556  162447  162554  162557  152958  152905+
+         152904  152957  172046  171937  172044  172047
CHEXA      46654       4  156364  156311  156310  156363  164482  164483+
+         164259  164258  162558  162449  162556  162559  152959  152906+
+         152905  152958  172048  171939  172046  172049
CHEXA      46655       4  156365  156312  156311  156364  164698  164699+
+         164483  164482  162560  162451  162558  162561  152960  152907+
+         152906  152959  172050  171941  172048  172051
CHEXA      46656       4  156366  156313  156312  156365  164910  164911+
+         164699  164698  162562  162453  162560  162563  152961  152908+
+         152907  152960  172052  171943  172050  172053
CHEXA      46657       4  156367  156314  156313  156366  165116  165117+
+         164911  164910  162564  162455  162562  162565  152962  152909+
+         152908  152961  172054  171945  172052  172055
CHEXA      46658       4  156368  156315  156314  156367  165318  165319+
+         165117  165116  162566  162457  162564  162567  152963  152910+
+         152909  152962  172056  171947  172054  172057
CHEXA      46659       4  156369  156316  156315  156368  165515  165516+
+         165319  165318  162568  162459  162566  162569  152964  152911+
+         152910  152963  172058  171949  172056  172059
CHEXA      46660       4  156370  156317  156316  156369  165703  165704+
+         165516  165515  162570  162461  162568  162571  152965  152912+
+         152911  152964  172060  171951  172058  172061
CHEXA      46661       4  156371  156318  156317  156370  165875  165876+
+         165704  165703  162572  162463  162570  162573  152966  152913+
+         152912  152965  172062  171953  172060  172063
CHEXA      46662       4  156372  156319  156318  156371  165709  165708+
+         165876  165875  162574  162465  162572  162575  152967  152914+
+         152913  152966  172064  171955  172062  172065
CHEXA      46663       4  156373  156320  156319  156372  165525  165524+
+         165708  165709  162576  162467  162574  162577  152968  152915+
+         152914  152967  172066  171957  172064  172067
CHEXA      46664       4  156374  156321  156320  156373  165333  165332+
+         165524  165525  162578  162469  162576  162579  152969  152916+
+         152915  152968  172068  171959  172066  172069
CHEXA      46665       4  156375  156322  156321  156374  165136  165135+
+         165332  165333  162580  162471  162578  162581  152970  152917+
+         152916  152969  172070  171961  172068  172071
CHEXA      46666       4  156376  156323  156322  156375  164934  164933+
+         165135  165136  162582  162473  162580  162583  152971  152918+
+         152917  152970  172072  171963  172070  172073
CHEXA      46667       4  156377  156324  156323  156376  164726  164725+
+         164933  164934  162584  162475  162582  162585  152972  152919+
+         152918  152971  172074  171965  172072  172075
CHEXA      46668       4  156378  156325  156324  156377  164514  164513+
+         164725  164726  162586  162477  162584  162587  152973  152920+
+         152919  152972  172076  171967  172074  172077
CHEXA      46669       4  156379  156326  156325  156378  164296  164295+
+         164513  164514  162588  162479  162586  162589  152974  152921+
+         152920  152973  172078  171969  172076  172079
CHEXA      46670       4  156380  156327  156326  156379  164071  164070+
+         164295  164296  162590  162481  162588  162591  152975  152922+
+         152921  152974  172080  171971  172078  172081
CHEXA      46671       4  156381  156328  156327  156380  163839  163838+
+         164070  164071  162592  162483  162590  162593  152976  152923+
+         152922  152975  172082  171973  172080  172083
CHEXA      46672       4  156330  156329  156328  156381  163587  163586+
+         163838  163839  162487  162485  162592  162594  152925  152924+
+         152923  152976  171977  171975  172082  172084
CHEXA      46673       4  156331  156330  156381  156382  163588  163587+
+         163839  163840  162490  162594  162595  162596  152926  152925+
+         152976  152977  171980  172084  172085  172086
CHEXA      46674       4  156383  156332  156331  156382  163841  163589+
+         163588  163840  162597  162492  162596  162598  152978  152927+
+         152926  152977  172087  171982  172086  172088
CHEXA      46675       4  156384  156333  156332  156383  163842  163590+
+         163589  163841  162599  162494  162597  162600  152979  152928+
+         152927  152978  172089  171984  172087  172090
CHEXA      46676       4  156385  156334  156333  156384  163843  163591+
+         163590  163842  162601  162496  162599  162602  152980  152929+
+         152928  152979  172091  171986  172089  172092
CHEXA      46677       4  156336  156335  156334  156385  163844  163592+
+         163591  163843  162501  162498  162601  162603  152931  152930+
+         152929  152980  171991  171988  172091  172093
CHEXA      46678       4  156386  156337  156336  156385  164075  164076+
+         163844  163843  162604  162503  162603  162605  152981  152932+
+         152931  152980  172094  171993  172093  172095
CHEXA      46679       4  156387  156338  156337  156386  164300  164301+
+         164076  164075  162606  162505  162604  162607  152982  152933+
+         152932  152981  172096  171995  172094  172097
CHEXA      46680       4  156388  156339  156338  156387  164518  164519+
+         164301  164300  162608  162507  162606  162609  152983  152934+
+         152933  152982  172098  171997  172096  172099
CHEXA      46681       4  156389  156340  156339  156388  164730  164731+
+         164519  164518  162610  162509  162608  162611  152984  152935+
+         152934  152983  172100  171999  172098  172101
CHEXA      46682       4  156390  156341  156340  156389  164938  164939+
+         164731  164730  162612  162511  162610  162613  152985  152936+
+         152935  152984  172102  172001  172100  172103
CHEXA      46683       4  156391  156342  156341  156390  165140  165141+
+         164939  164938  162614  162513  162612  162615  152986  152937+
+         152936  152985  172104  172003  172102  172105
CHEXA      46684       4  156392  156343  156342  156391  165337  165338+
+         165141  165140  162616  162515  162614  162617  152987  152938+
+         152937  152986  172106  172005  172104  172107
CHEXA      46685       4  156393  156344  156343  156392  165529  165530+
+         165338  165337  162618  162517  162616  162619  152988  152939+
+         152938  152987  172108  172007  172106  172109
CHEXA      46686       4  156394  156345  156344  156393  165713  165714+
+         165530  165529  162620  162519  162618  162621  152989  152940+
+         152939  152988  172110  172009  172108  172111
CHEXA      46687       4  156395  156346  156345  156394  165871  165870+
+         165714  165713  162622  162521  162620  162623  152990  152941+
+         152940  152989  172112  172011  172110  172113
CHEXA      46688       4  156396  156347  156346  156395  165699  165698+
+         165870  165871  162624  162523  162622  162625  152991  152942+
+         152941  152990  172114  172013  172112  172115
CHEXA      46689       4  156397  156348  156347  156396  165511  165510+
+         165698  165699  162626  162525  162624  162627  152992  152943+
+         152942  152991  172116  172015  172114  172117
CHEXA      46690       4  156398  156349  156348  156397  165314  165313+
+         165510  165511  162628  162527  162626  162629  152993  152944+
+         152943  152992  172118  172017  172116  172119
CHEXA      46691       4  156399  156350  156349  156398  165112  165111+
+         165313  165314  162630  162529  162628  162631  152994  152945+
+         152944  152993  172120  172019  172118  172121
CHEXA      46692       4  156400  156351  156350  156399  164906  164905+
+         165111  165112  162632  162531  162630  162633  152995  152946+
+         152945  152994  172122  172021  172120  172123
CHEXA      46693       4  156401  156352  156351  156400  164694  164693+
+         164905  164906  162634  162533  162632  162635  152996  152947+
+         152946  152995  172124  172023  172122  172125
CHEXA      46694       4  156402  156353  156352  156401  164478  164477+
+         164693  164694  162636  162535  162634  162637  152997  152948+
+         152947  152996  172126  172025  172124  172127
CHEXA      46695       4  156403  156354  156353  156402  164254  164253+
+         164477  164478  162638  162537  162636  162639  152998  152949+
+         152948  152997  172128  172027  172126  172129
CHEXA      46696       4  156404  156355  156354  156403  164024  164023+
+         164253  164254  162640  162539  162638  162641  152999  152950+
+         152949  152998  172130  172029  172128  172131
CHEXA      46697       4  156357  156356  156355  156404  163778  163777+
+         164023  164024  162544  162541  162640  162642  152952  152951+
+         152950  152999  172034  172031  172130  172132
CHEXA      46698       4  156405  156358  156357  156404  164025  163779+
+         163778  164024  162643  162546  162642  162644  153000  152953+
+         152952  152999  172133  172036  172132  172134
CHEXA      46699       4  156406  156359  156358  156405  164026  163780+
+         163779  164025  162645  162548  162643  162646  153001  152954+
+         152953  153000  172135  172038  172133  172136
CHEXA      46700       4  156407  156360  156359  156406  164027  163781+
+         163780  164026  162647  162550  162645  162648  153002  152955+
+         152954  153001  172137  172040  172135  172138
CHEXA      46701       4  156362  156361  156360  156407  164028  163782+
+         163781  164027  162555  162552  162647  162649  152957  152956+
+         152955  153002  172045  172042  172137  172139
CHEXA      46702       4  156408  156363  156362  156407  164257  164258+
+         164028  164027  162650  162557  162649  162651  153003  152958+
+         152957  153002  172140  172047  172139  172141
CHEXA      46703       4  156409  156364  156363  156408  164481  164482+
+         164258  164257  162652  162559  162650  162653  153004  152959+
+         152958  153003  172142  172049  172140  172143
CHEXA      46704       4  156410  156365  156364  156409  164697  164698+
+         164482  164481  162654  162561  162652  162655  153005  152960+
+         152959  153004  172144  172051  172142  172145
CHEXA      46705       4  156411  156366  156365  156410  164909  164910+
+         164698  164697  162656  162563  162654  162657  153006  152961+
+         152960  153005  172146  172053  172144  172147
CHEXA      46706       4  156412  156367  156366  156411  165115  165116+
+         164910  164909  162658  162565  162656  162659  153007  152962+
+         152961  153006  172148  172055  172146  172149
CHEXA      46707       4  156413  156368  156367  156412  165317  165318+
+         165116  165115  162660  162567  162658  162661  153008  152963+
+         152962  153007  172150  172057  172148  172151
CHEXA      46708       4  156414  156369  156368  156413  165514  165515+
+         165318  165317  162662  162569  162660  162663  153009  152964+
+         152963  153008  172152  172059  172150  172153
CHEXA      46709       4  156415  156370  156369  156414  165702  165703+
+         165515  165514  162664  162571  162662  162665  153010  152965+
+         152964  153009  172154  172061  172152  172155
CHEXA      46710       4  156416  156371  156370  156415  165874  165875+
+         165703  165702  162666  162573  162664  162667  153011  152966+
+         152965  153010  172156  172063  172154  172157
CHEXA      46711       4  156417  156372  156371  156416  165710  165709+
+         165875  165874  162668  162575  162666  162669  153012  152967+
+         152966  153011  172158  172065  172156  172159
CHEXA      46712       4  156418  156373  156372  156417  165526  165525+
+         165709  165710  162670  162577  162668  162671  153013  152968+
+         152967  153012  172160  172067  172158  172161
CHEXA      46713       4  156419  156374  156373  156418  165334  165333+
+         165525  165526  162672  162579  162670  162673  153014  152969+
+         152968  153013  172162  172069  172160  172163
CHEXA      46714       4  156420  156375  156374  156419  165137  165136+
+         165333  165334  162674  162581  162672  162675  153015  152970+
+         152969  153014  172164  172071  172162  172165
CHEXA      46715       4  156421  156376  156375  156420  164935  164934+
+         165136  165137  162676  162583  162674  162677  153016  152971+
+         152970  153015  172166  172073  172164  172167
CHEXA      46716       4  156422  156377  156376  156421  164727  164726+
+         164934  164935  162678  162585  162676  162679  153017  152972+
+         152971  153016  172168  172075  172166  172169
CHEXA      46717       4  156423  156378  156377  156422  164515  164514+
+         164726  164727  162680  162587  162678  162681  153018  152973+
+         152972  153017  172170  172077  172168  172171
CHEXA      46718       4  156424  156379  156378  156423  164297  164296+
+         164514  164515  162682  162589  162680  162683  153019  152974+
+         152973  153018  172172  172079  172170  172173
CHEXA      46719       4  156425  156380  156379  156424  164072  164071+
+         164296  164297  162684  162591  162682  162685  153020  152975+
+         152974  153019  172174  172081  172172  172175
CHEXA      46720       4  156382  156381  156380  156425  163840  163839+
+         164071  164072  162595  162593  162684  162686  152977  152976+
+         152975  153020  172085  172083  172174  172176
CHEXA      46721       4  156383  156382  156425  156426  163841  163840+
+         164072  164073  162598  162686  162687  162688  152978  152977+
+         153020  153021  172088  172176  172177  172178
CHEXA      46722       4  156427  156384  156383  156426  164074  163842+
+         163841  164073  162689  162600  162688  162690  153022  152979+
+         152978  153021  172179  172090  172178  172180
CHEXA      46723       4  156386  156385  156384  156427  164075  163843+
+         163842  164074  162605  162602  162689  162691  152981  152980+
+         152979  153022  172095  172092  172179  172181
CHEXA      46724       4  156428  156387  156386  156427  164299  164300+
+         164075  164074  162692  162607  162691  162693  153023  152982+
+         152981  153022  172182  172097  172181  172183
CHEXA      46725       4  156429  156388  156387  156428  164517  164518+
+         164300  164299  162694  162609  162692  162695  153024  152983+
+         152982  153023  172184  172099  172182  172185
CHEXA      46726       4  156430  156389  156388  156429  164729  164730+
+         164518  164517  162696  162611  162694  162697  153025  152984+
+         152983  153024  172186  172101  172184  172187
CHEXA      46727       4  156431  156390  156389  156430  164937  164938+
+         164730  164729  162698  162613  162696  162699  153026  152985+
+         152984  153025  172188  172103  172186  172189
CHEXA      46728       4  156432  156391  156390  156431  165139  165140+
+         164938  164937  162700  162615  162698  162701  153027  152986+
+         152985  153026  172190  172105  172188  172191
CHEXA      46729       4  156433  156392  156391  156432  165336  165337+
+         165140  165139  162702  162617  162700  162703  153028  152987+
+         152986  153027  172192  172107  172190  172193
CHEXA      46730       4  156434  156393  156392  156433  165528  165529+
+         165337  165336  162704  162619  162702  162705  153029  152988+
+         152987  153028  172194  172109  172192  172195
CHEXA      46731       4  156435  156394  156393  156434  165712  165713+
+         165529  165528  162706  162621  162704  162707  153030  152989+
+         152988  153029  172196  172111  172194  172197
CHEXA      46732       4  156436  156395  156394  156435  165872  165871+
+         165713  165712  162708  162623  162706  162709  153031  152990+
+         152989  153030  172198  172113  172196  172199
CHEXA      46733       4  156437  156396  156395  156436  165700  165699+
+         165871  165872  162710  162625  162708  162711  153032  152991+
+         152990  153031  172200  172115  172198  172201
CHEXA      46734       4  156438  156397  156396  156437  165512  165511+
+         165699  165700  162712  162627  162710  162713  153033  152992+
+         152991  153032  172202  172117  172200  172203
CHEXA      46735       4  156439  156398  156397  156438  165315  165314+
+         165511  165512  162714  162629  162712  162715  153034  152993+
+         152992  153033  172204  172119  172202  172205
CHEXA      46736       4  156440  156399  156398  156439  165113  165112+
+         165314  165315  162716  162631  162714  162717  153035  152994+
+         152993  153034  172206  172121  172204  172207
CHEXA      46737       4  156441  156400  156399  156440  164907  164906+
+         165112  165113  162718  162633  162716  162719  153036  152995+
+         152994  153035  172208  172123  172206  172209
CHEXA      46738       4  156442  156401  156400  156441  164695  164694+
+         164906  164907  162720  162635  162718  162721  153037  152996+
+         152995  153036  172210  172125  172208  172211
CHEXA      46739       4  156443  156402  156401  156442  164479  164478+
+         164694  164695  162722  162637  162720  162723  153038  152997+
+         152996  153037  172212  172127  172210  172213
CHEXA      46740       4  156444  156403  156402  156443  164255  164254+
+         164478  164479  162724  162639  162722  162725  153039  152998+
+         152997  153038  172214  172129  172212  172215
CHEXA      46741       4  156405  156404  156403  156444  164025  164024+
+         164254  164255  162644  162641  162724  162726  153000  152999+
+         152998  153039  172134  172131  172214  172216
CHEXA      46742       4  156445  156406  156405  156444  164256  164026+
+         164025  164255  162727  162646  162726  162728  153040  153001+
+         153000  153039  172217  172136  172216  172218
CHEXA      46743       4  156408  156407  156406  156445  164257  164027+
+         164026  164256  162651  162648  162727  162729  153003  153002+
+         153001  153040  172141  172138  172217  172219
CHEXA      46744       4  156446  156409  156408  156445  164480  164481+
+         164257  164256  162730  162653  162729  162731  153041  153004+
+         153003  153040  172220  172143  172219  172221
CHEXA      46745       4  156447  156410  156409  156446  164696  164697+
+         164481  164480  162732  162655  162730  162733  153042  153005+
+         153004  153041  172222  172145  172220  172223
CHEXA      46746       4  156448  156411  156410  156447  164908  164909+
+         164697  164696  162734  162657  162732  162735  153043  153006+
+         153005  153042  172224  172147  172222  172225
CHEXA      46747       4  156449  156412  156411  156448  165114  165115+
+         164909  164908  162736  162659  162734  162737  153044  153007+
+         153006  153043  172226  172149  172224  172227
CHEXA      46748       4  156450  156413  156412  156449  165316  165317+
+         165115  165114  162738  162661  162736  162739  153045  153008+
+         153007  153044  172228  172151  172226  172229
CHEXA      46749       4  156451  156414  156413  156450  165513  165514+
+         165317  165316  162740  162663  162738  162741  153046  153009+
+         153008  153045  172230  172153  172228  172231
CHEXA      46750       4  156452  156415  156414  156451  165701  165702+
+         165514  165513  162742  162665  162740  162743  153047  153010+
+         153009  153046  172232  172155  172230  172233
CHEXA      46751       4  156453  156416  156415  156452  165873  165874+
+         165702  165701  162744  162667  162742  162745  153048  153011+
+         153010  153047  172234  172157  172232  172235
CHEXA      46752       4  156454  156417  156416  156453  165711  165710+
+         165874  165873  162746  162669  162744  162747  153049  153012+
+         153011  153048  172236  172159  172234  172237
CHEXA      46753       4  156455  156418  156417  156454  165527  165526+
+         165710  165711  162748  162671  162746  162749  153050  153013+
+         153012  153049  172238  172161  172236  172239
CHEXA      46754       4  156456  156419  156418  156455  165335  165334+
+         165526  165527  162750  162673  162748  162751  153051  153014+
+         153013  153050  172240  172163  172238  172241
CHEXA      46755       4  156457  156420  156419  156456  165138  165137+
+         165334  165335  162752  162675  162750  162753  153052  153015+
+         153014  153051  172242  172165  172240  172243
CHEXA      46756       4  156458  156421  156420  156457  164936  164935+
+         165137  165138  162754  162677  162752  162755  153053  153016+
+         153015  153052  172244  172167  172242  172245
CHEXA      46757       4  156459  156422  156421  156458  164728  164727+
+         164935  164936  162756  162679  162754  162757  153054  153017+
+         153016  153053  172246  172169  172244  172247
CHEXA      46758       4  156460  156423  156422  156459  164516  164515+
+         164727  164728  162758  162681  162756  162759  153055  153018+
+         153017  153054  172248  172171  172246  172249
CHEXA      46759       4  156461  156424  156423  156460  164298  164297+
+         164515  164516  162760  162683  162758  162761  153056  153019+
+         153018  153055  172250  172173  172248  172251
CHEXA      46760       4  156426  156425  156424  156461  164073  164072+
+         164297  164298  162687  162685  162760  162762  153021  153020+
+         153019  153056  172177  172175  172250  172252
CHEXA      46761       4  156426  156461  156428  156427  164073  164298+
+         164299  164074  162762  162763  162693  162690  153021  153056+
+         153023  153022  172252  172253  172183  172180
CHEXA      46762       4  156461  156460  156429  156428  164298  164516+
+         164517  164299  162761  162764  162695  162763  153056  153055+
+         153024  153023  172251  172254  172185  172253
CHEXA      46763       4  156460  156459  156430  156429  164516  164728+
+         164729  164517  162759  162765  162697  162764  153055  153054+
+         153025  153024  172249  172255  172187  172254
CHEXA      46764       4  156459  156458  156431  156430  164728  164936+
+         164937  164729  162757  162766  162699  162765  153054  153053+
+         153026  153025  172247  172256  172189  172255
CHEXA      46765       4  156458  156457  156432  156431  164936  165138+
+         165139  164937  162755  162767  162701  162766  153053  153052+
+         153027  153026  172245  172257  172191  172256
CHEXA      46766       4  156457  156456  156433  156432  165138  165335+
+         165336  165139  162753  162768  162703  162767  153052  153051+
+         153028  153027  172243  172258  172193  172257
CHEXA      46767       4  156456  156455  156434  156433  165335  165527+
+         165528  165336  162751  162769  162705  162768  153051  153050+
+         153029  153028  172241  172259  172195  172258
CHEXA      46768       4  156455  156454  156435  156434  165527  165711+
+         165712  165528  162749  162770  162707  162769  153050  153049+
+         153030  153029  172239  172260  172197  172259
CHEXA      46769       4  156454  156453  156436  156435  165711  165873+
+         165872  165712  162747  162771  162709  162770  153049  153048+
+         153031  153030  172237  172261  172199  172260
CHEXA      46770       4  156453  156452  156437  156436  165873  165701+
+         165700  165872  162745  162772  162711  162771  153048  153047+
+         153032  153031  172235  172262  172201  172261
CHEXA      46771       4  156452  156451  156438  156437  165701  165513+
+         165512  165700  162743  162773  162713  162772  153047  153046+
+         153033  153032  172233  172263  172203  172262
CHEXA      46772       4  156451  156450  156439  156438  165513  165316+
+         165315  165512  162741  162774  162715  162773  153046  153045+
+         153034  153033  172231  172264  172205  172263
CHEXA      46773       4  156450  156449  156440  156439  165316  165114+
+         165113  165315  162739  162775  162717  162774  153045  153044+
+         153035  153034  172229  172265  172207  172264
CHEXA      46774       4  156449  156448  156441  156440  165114  164908+
+         164907  165113  162737  162776  162719  162775  153044  153043+
+         153036  153035  172227  172266  172209  172265
CHEXA      46775       4  156448  156447  156442  156441  164908  164696+
+         164695  164907  162735  162777  162721  162776  153043  153042+
+         153037  153036  172225  172267  172211  172266
CHEXA      46776       4  156447  156446  156443  156442  164696  164480+
+         164479  164695  162733  162778  162723  162777  153042  153041+
+         153038  153037  172223  172268  172213  172267
CHEXA      46777       4  156446  156445  156444  156443  164480  164256+
+         164255  164479  162731  162728  162725  162778  153041  153040+
+         153039  153038  172221  172218  172215  172268
CHEXA      46778       4  156463  155614  153741  153740  163498  163499+
+         163127  163126  162779  160990  157197  162780  153057  152186+
+         150337  150336  172269  170480  166687  172270
CHEXA      46779       4  153739  156462  156463  153740  163125  163497+
+         163498  163126  162782  162781  162780  157194  150335  153058+
+         153057  150336  172271  172272  172270  166684
CHEXA      46780       4  153378  153377  153738  153737  163215  163214+
+         163124  163123  156482  162783  157190  162784  149974  149973+
+         150334  150333  165972  172273  166680  172274
CHEXA      46781       4  153736  153735  153382  153381  163122  163121+
+         163493  163218  157186  162205  156491  162785  150332  150331+
+         149978  149977  166676  171695  165981  172275
CHEXA      46782       4  156464  156465  153380  153379  163495  163494+
+         163217  163216  162787  162786  156486  162788  153059  153060+
+         149976  149975  172276  172277  165976  172278
CHEXA      46783       4  156465  153736  153381  153380  163494  163122+
+         163218  163217  162789  162785  156488  162786  153060  150332+
+         149977  149976  172279  172275  165978  172277
CHEXA      46784       4  153737  153736  156465  156464  163123  163122+
+         163494  163495  157188  162789  162787  162790  150333  150332+
+         153060  153059  166678  172279  172276  172280
CHEXA      46785       4  153379  153378  153737  156464  163216  163215+
+         163123  163495  156484  162784  162790  162788  149975  149974+
+         150333  153059  165974  172274  172280  172278
CHEXA      46786       4  156467  153504  153503  153502  163266  162898+
+         162897  162896  162791  156721  156718  162792  153061  150100+
+         150099  150098  172281  166211  166208  172282
CHEXA      46787       4  156467  156466  153505  153504  163266  163267+
+         162899  162898  162794  162793  156723  162791  153061  153062+
+         150101  150100  172283  172284  166213  172281
CHEXA      46788       4  155589  156466  156467  153502  163265  163267+
+         163266  162896  162795  162794  162792  161354  152372  153062+
+         153061  150098  172285  172283  172282  170844
CHEXA      46789       4  155601  155602  153777  153778  165886  165851+
+         165682  165734  161392  162796  160973  162797  152396  152398+
+         152181  152121  170883  172286  170464  172287
CHEXA      46790       4  155602  155603  153776  153777  165851  165679+
+         165494  165682  161395  162798  160970  162796  152398  152400+
+         152179  152181  170886  172288  170462  172286
CHEXA      46791       4  155603  155604  153775  153776  165679  165491+
+         165297  165494  161398  162799  160967  162798  152400  152402+
+         152177  152179  170889  172289  170459  172288
CHEXA      46792       4  155604  155605  153774  153775  165491  165294+
+         165094  165297  161401  162800  160964  162799  152402  152404+
+         152175  152177  170892  172290  170456  172289
CHEXA      46793       4  155605  155606  153773  153774  165294  165091+
+         164889  165094  161404  162801  160961  162800  152404  152406+
+         152173  152175  170895  172291  170453  172290
CHEXA      46794       4  155606  155607  153772  153773  165091  164886+
+         164677  164889  161407  162802  160958  162801  152406  152408+
+         152171  152173  170898  172292  170450  172291
CHEXA      46795       4  155607  155608  153771  153772  164886  164674+
+         164461  164677  161410  162803  160955  162802  152408  152410+
+         152164  152171  170901  172293  170447  172292
CHEXA      46796       4  155608  155609  153770  153771  164674  164458+
+         164237  164461  161413  162804  160944  162803  152410  152412+
+         152165  152164  170904  172294  170435  172293
CHEXA      46797       4  155609  155610  153769  153770  164458  164234+
+         164007  164237  161416  162805  160947  162804  152412  152414+
+         152166  152165  170907  172295  170437  172294
CHEXA      46798       4  155610  155611  153768  153769  164234  164004+
+         163760  164007  161419  162806  160949  162805  152414  152416+
+         152167  152166  170910  172296  170439  172295
CHEXA      46799       4  155611  155612  153767  153768  164004  163758+
+         163463  163760  161422  162808  162807  162806  152416  152418+
+         152169  152167  170913  172297  172298  172296
CHEXA      46800       4  155612  153703  153702  153767  163758  163462+
+         163089  163463  161425  157121  160953  162808  152418  150299+
+         150298  152169  170916  166611  170443  172297
CHEXA      46801       4  155595  155596  153783  153784  164748  164956+
+         164749  164537  161374  162809  160871  162810  152384  152386+
+         152131  152133  170865  172299  170362  172300
CHEXA      46802       4  155596  155597  153782  153783  164956  165159+
+         164957  164749  161377  162811  160868  162809  152386  152388+
+         152129  152131  170868  172301  170359  172299
CHEXA      46803       4  155597  155598  153781  153782  165159  165357+
+         165160  164957  161380  162812  160865  162811  152388  152390+
+         152127  152129  170871  172302  170356  172301
CHEXA      46804       4  155598  155599  153780  153781  165357  165549+
+         165358  165160  161383  162813  160862  162812  152390  152392+
+         152125  152127  170874  172303  170353  172302
CHEXA      46805       4  155599  155600  153779  153780  165549  165733+
+         165550  165358  161386  162814  160859  162813  152392  152394+
+         152120  152125  170877  172304  170350  172303
CHEXA      46806       4  155600  155601  153778  153779  165733  165886+
+         165734  165550  161389  162797  160857  162814  152394  152396+
+         152121  152120  170880  172287  170345  172304
CHEXA      46807       4  155592  155593  153786  153787  164093  164318+
+         164094  163862  161365  162815  160880  162816  152378  152380+
+         152137  152139  170856  172305  170371  172306
CHEXA      46808       4  155593  155594  153785  153786  164318  164536+
+         164319  164094  161368  162817  160877  162815  152380  152382+
+         152135  152137  170859  172307  170368  172305
CHEXA      46809       4  155594  155595  153784  153785  164536  164748+
+         164537  164319  161371  162810  160874  162817  152382  152384+
+         152133  152135  170862  172300  170365  172307
CHEXA      46810       4  155591  155592  153787  153788  163861  164093+
+         163862  163610  161362  162816  160883  162818  152376  152378+
+         152139  152141  170853  172306  170374  172308
CHEXA      46811       4  155590  155591  153788  153507  163609  163861+
+         163610  163268  161359  162818  160886  162819  152374  152376+
+         152141  150103  170850  172308  170376  172309
CHEXA      46812       4  156468  153506  153505  156466  163269  162900+
+         162899  163267  162820  156725  162793  162821  153063  150102+
+         150101  153062  172310  166215  172284  172311
CHEXA      46813       4  156468  155590  153507  153506  163269  163609+
+         163268  162900  162822  162819  156728  162820  153063  152374+
+         150103  150102  172312  172309  166218  172310
CHEXA      46814       4  155589  155590  156468  156466  163265  163609+
+         163269  163267  161356  162822  162821  162795  152372  152374+
+         153063  153062  170847  172312  172311  172285
CHEXA      46815       4  155473  155472  155483  155482  165657  165469+
+         165468  165656  160721  160673  162823  160665  152044  152048+
+         152047  152045  170212  170163  172313  170156
CHEXA      46816       4  155476  155482  155483  155481  165830  165656+
+         165468  165655  160667  162823  160668  160661  152035  152045+
+         152047  152042  170157  172313  170159  170151
CHEXA      46817       4  156469  153449  153448  155735  163524  163154+
+         163153  163523  162824  156614  161235  162825  153064  150046+
+         150045  152304  172314  166104  170724  172315
CHEXA      46818       4  156469  155642  153450  153449  163524  163525+
+         163155  163154  162826  161007  156616  162824  153064  152193+
+         150047  150046  172316  170497  166106  172314
CHEXA      46819       4  156469  155735  153765  155642  163524  163523+
+         163521  163525  162825  161237  161009  162826  153064  152304+
+         152191  152193  172315  170727  170498  172316
CHEXA      46820       4  154076  154075  154078  154079  163564  163562+
+         163390  163692  157640  157645  162827  162828  150559  150558+
+         150561  153065  167130  167135  172317  172318
CHEXA      46821       4  153812  153811  154780  154776  163727  163426+
+         163424  163724  160839  159231  162829  159227  151321  151323+
+         151322  151315  170330  168721  172319  168717
CHEXA      46822       4  154780  154775  154779  154776  163424  163423+
+         163422  163724  159228  159220  162830  162829  151322  151317+
+         151316  151315  168718  168710  172320  172319
CHEXA      46823       4  154776  154779  153833  153834  163724  163422+
+         163421  163723  162830  159217  157610  159216  151315  151316+
+         150542  150540  172320  168707  167098  168706
CHEXA      46824       4  155487  155361  155360  155490  165067  164863+
+         164862  165066  160687  160436  160690  162831  152055  151932+
+         151931  152057  170176  169926  170180  172321
CHEXA      46825       4  155507  155506  155495  155494  165275  165472+
+         165473  165276  160737  160733  160703  162832  152078  152077+
+         152062  152061  170226  170223  170193  172322
CHEXA      46826       4  155492  155491  155502  155503  165072  165071+
+         165273  165274  160696  160726  160731  162833  152059  152058+
+         152073  152076  170186  170216  170222  172323
CHEXA      46827       4  155504  155507  155492  155503  165471  165275+
+         165072  165274  160736  162834  162833  160732  152075  152078+
+         152059  152076  170227  172324  172323  170221
CHEXA      46828       4  155507  155494  155493  155492  165275  165276+
+         165073  165072  162832  160701  160698  162834  152078  152061+
+         152060  152059  172322  170191  170188  172324
CHEXA      46829       4  155543  155544  155545  155540  165378  165570+
+         165753  165571  160816  160822  160819  162835  152115  152114+
+         152116  152112  170307  170312  170309  172325
CHEXA      46830       4  155543  155540  155541  155542  165378  165571+
+         165572  165379  162835  160813  160814  162836  152115  152112+
+         152111  152113  172325  170303  170305  172326
CHEXA      46831       4  155532  155531  155543  155542  165180  165179+
+         165378  165379  160792  160818  162836  162837  152103  152102+
+         152115  152113  170282  170308  172326  172327
CHEXA      46832       4  155533  155532  155542  155534  165181  165180+
+         165379  165380  160794  162837  160815  160797  152104  152103+
+         152113  152105  170284  172327  170304  170287
CHEXA      46833       4  153768  153767  155582  155578  163760  163463+
+         163461  163757  162807  160954  162838  160950  152167  152169+
+         152168  152161  172298  170444  172328  170440
CHEXA      46834       4  155582  155577  155581  155578  163461  163460+
+         163459  163757  160951  160943  162839  162838  152168  152163+
+         152162  152161  170441  170433  172329  172328
CHEXA      46835       4  155578  155581  153789  153790  163757  163459+
+         163458  163756  162839  160940  159334  160939  152161  152162+
+         151383  151381  172329  170430  168822  170429
CHEXA      46836       4  155619  155618  155614  156463  163569  163567+
+         163499  163498  160996  160992  162779  162840  152188  152187+
+         152186  153057  170485  170482  172269  172330
CHEXA      46837       4  156463  156462  155613  155619  163498  163497+
+         163496  163569  162781  162841  160998  162840  153057  153058+
+         152189  152188  172272  172331  170487  172330
CHEXA      46838       4  153452  155638  155685  155693  163526  163805+
+         163803  163806  161010  161120  161135  162842  150049  152195+
+         152256  152264  170501  170610  170625  172332
CHEXA      46839       4  155643  153453  153452  155693  163528  163157+
+         163526  163806  161015  156620  162842  161139  152198  150050+
+         150049  152264  170506  166109  172332  170630
CHEXA      46840       4  155709  155667  155666  155710  163835  163581+
+         163579  163834  161177  161083  162843  161212  152280  152238+
+         152237  152296  170666  170573  172333  170703
CHEXA      46841       4  155666  155665  155664  155710  163579  163578+
+         163577  163834  161081  161079  162844  162843  152237  152236+
+         152235  152296  170571  170569  172334  172333
CHEXA      46842       4  155710  155664  155663  155662  163834  163577+
+         163576  163833  162844  161077  161073  161210  152296  152235+
+         152233  152231  172334  170567  170563  170700
CHEXA      46843       4  156124  156123  156128  156130  165302  165499+
+         165304  165102  162053  162079  162066  162845  152719  152718+
+         152725  152724  171543  171568  171555  172335
CHEXA      46844       4  156130  156129  156125  156124  165102  165100+
+         165099  165302  162068  162063  162055  162845  152724  152723+
+         152720  152719  171558  171553  171545  172335
CHEXA      46845       4  156143  156120  156119  156145  165860  165946+
+         165949  165948  162100  162045  162107  162846  152738  152715+
+         152714  152740  171590  171535  171597  172336
CHEXA      46846       4  156144  156104  156143  156145  165861  165688+
+         165860  165948  162103  162102  162846  162106  152739  152699+
+         152738  152740  171593  171592  172336  171596
CHEXA      46847       4  153462  156173  156180  153463  163165  163537+
+         163238  163166  162847  162135  162133  156640  150059  152750+
+         152754  150060  172337  171625  171623  166130
CHEXA      46848       4  153461  156177  156173  153462  163164  163536+
+         163537  163165  162848  162120  162847  156638  150058  152749+
+         152750  150059  172338  171610  172337  166128
CHEXA      46849       4  153460  156176  156177  153461  163163  163535+
+         163536  163164  162117  162122  162848  156636  150057  152748+
+         152749  150058  171607  171611  172338  166126
CHEXA      46850       4  153738  153377  153376  155613  163124  163214+
+         163568  163496  162783  156479  160997  162849  150334  149973+
+         149972  152189  172273  165968  170488  172339
CHEXA      46851       4  156462  153739  153738  155613  163497  163125+
+         163124  163496  162782  157192  162849  162841  153058  150335+
+         150334  152189  172271  166682  172339  172331
CHEXA      46852       4  155488  155487  155490  155489  165069  165067+
+         165066  165269  160686  162831  160692  162850  152054  152055+
+         152057  152056  170177  172321  170182  172340
CHEXA      46853       4  155489  155485  155486  155488  165269  165466+
+         165271  165069  160688  160682  160684  162850  152056  152053+
+         152052  152054  170178  170171  170174  172340
CHEXA      46854       4  156470  153444  153443  154743  163550  163190+
+         163189  163352  162851  156603  159121  162852  153066  150040+
+         150039  151270  172341  166093  168611  172342
CHEXA      46855       4  156470  154746  153421  153444  163550  163353+
+         163171  163190  162853  159130  156604  162851  153066  151273+
+         150018  150040  172343  168620  166094  172341
CHEXA      46856       4  156470  154743  153592  154746  163550  163352+
+         162982  163353  162852  159123  159131  162853  153066  151270+
+         150188  151273  172342  168613  168621  172343
CHEXA      46857       4  156471  153401  153400  153983  163551  163194+
+         163193  163380  162854  156526  157515  162855  153067  149998+
+         149997  150487  172344  166016  167006  172345
CHEXA      46858       4  156471  153894  153402  153401  163551  163379+
+         163195  163194  162856  157260  156528  162854  153067  150365+
+         149999  149998  172346  166750  166018  172344
CHEXA      46859       4  156471  153983  153617  153894  163551  163380+
+         163007  163379  162855  157514  157261  162856  153067  150487+
+         150213  150365  172345  167004  166752  172346
CHEXA      46860       4  156472  153418  153417  153985  163565  163208+
+         163207  163386  162857  156557  157522  162858  153068  150015+
+         150014  150490  172347  166047  167011  172348
CHEXA      46861       4  156472  153988  153419  153418  163565  163387+
+         163209  163208  162859  157532  156559  162857  153068  150494+
+         150016  150015  172349  167022  166049  172347
CHEXA      46862       4  156472  153985  153622  153988  163565  163386+
+         163012  163387  162858  157524  157533  162859  153068  150490+
+         150218  150494  172348  167014  167023  172349
CHEXA      46863       4  153624  154074  154079  154078  163014  163389+
+         163692  163390  157636  162860  162827  162861  150220  150557+
+         153065  150561  167126  172350  172317  172351
CHEXA      46864       4  154078  154077  153625  153624  163390  163391+
+         163015  163014  157647  157642  156964  162861  150561  150560+
+         150221  150220  167137  167132  166454  172351
CHEXA      46865       4  153416  153415  154076  154079  163563  163206+
+         163564  163692  156555  157641  162828  162862  150013  150012+
+         150559  153065  166045  167131  172318  172352
CHEXA      46866       4  154074  153981  153416  154079  163389  163388+
+         163563  163692  157637  157521  162862  162860  150557  150491+
+         150013  153065  167127  167012  172352  172350
$*  Mesh Collector: Solid(1)
$*  Mesh: 3d_mesh(102)
CHEXA      47083       4  175494  175472  172652  173828  175503  175484+
+         172657  173829  175475  175474  172654  175495  175481  175470+
+         153349  172655  175486  175487  172659  175504
CHEXA      47084       4  175472  175452  173827  172652  175484  175457+
+         173830  172657  175476  175453  172653  175474  175470  175430+
+         172656  153349  175488  175459  172658  175487
CHEXA      47085       4  175473  175451  175452  175472  175485  175458+
+         175457  175484  175477  175454  175476  175478  175471  175431+
+         175430  175470  175489  175460  175488  175490
CHEXA      47086       4  175498  175468  175451  175473  175507  175469+
+         175458  175485  175499  175455  175477  175479  175483  175456+
+         175431  175471  175509  175461  175489  175491
CHEXA      47087       4  175510  175498  175473  175493  175511  175507+
+         175485  175502  175500  175479  175480  175496  175501  175483+
+         175471  175482  175508  175491  175492  175506
CHEXA      47088       4  175493  175473  175472  175494  175502  175485+
+         175484  175503  175480  175478  175475  175497  175482  175471+
+         175470  175481  175492  175490  175486  175505
$*  Mesh Collector: Solid(1)
$*  Mesh: 3d_mesh(77)
CHEXA      46933       4  174413  174415  174414  174412  174435  174434+
+         174433  174432  174418  174417  174416  174419  174408  174409+
+         174410  174411  174436  174437  174438  174439
CHEXA      46934       4  174378  174412  174461  174404  174395  174432+
+         174471  174406  174421  174420  174463  174379  174353  174411+
+         174428  174387  174440  174441  174473  174398
CHEXA      46935       4  174412  174414  174462  174461  174432  174433+
+         174472  174471  174416  174422  174464  174420  174411  174410+
+         174429  174428  174438  174442  174474  174441
CHEXA      46936       4  174414  174451  173877  174462  174433  174457+
+         173879  174472  174423  174452  174465  174422  174410  174448+
+         172750  174429  174443  174458  174475  174442
CHEXA      46937       4  174415  174450  174451  174414  174434  174456+
+         174457  174433  174424  174453  174423  174417  174409  174449+
+         174448  174410  174444  174459  174443  174437
CHEXA      46938       4  174467  174481  174450  174415  174476  174482+
+         174456  174434  174468  174454  174424  174425  174430  174455+
+         174449  174409  174478  174460  174444  174445
CHEXA      46939       4  174466  174467  174415  174413  174477  174476+
+         174434  174435  174469  174425  174418  174426  174431  174430+
+         174409  174408  174479  174445  174436  174446
CHEXA      46940       4  174405  174466  174413  174377  174407  174477+
+         174435  174394  174470  174426  174427  174381  174388  174431+
+         174408  174352  174480  174446  174447  174396
CHEXA      46941       4  174377  174413  174412  174378  174394  174435+
+         174432  174395  174427  174419  174421  174380  174352  174408+
+         174411  174353  174447  174439  174440  174397
$*  Mesh Collector: Solid(1)
$*  Mesh: 3d_mesh(67)
CHEXA      46867       4  173894  173896  173895  173893  173920  173919+
+         173918  173917  173899  173898  173897  173900  173889  173890+
+         173891  173892  173921  173922  173923  173924
CHEXA      46868       4  173938  173893  173948  173770  173962  173917+
+         173971  173769  173902  173901  173950  173940  173911  173892+
+         173915  172569  173925  173926  173973  173963
CHEXA      46869       4  173893  173895  173949  173948  173917  173918+
+         173972  173971  173897  173903  173951  173901  173892  173891+
+         173916  173915  173923  173927  173974  173926
CHEXA      46870       4  173895  173944  173978  173949  173918  173966+
+         173981  173972  173904  173945  173952  173903  173891  173913+
+         173955  173916  173928  173968  173975  173927
CHEXA      46871       4  173896  173943  173944  173895  173919  173967+
+         173966  173918  173905  173946  173904  173898  173890  173914+
+         173913  173891  173929  173969  173928  173922
CHEXA      46872       4  173934  173977  173943  173896  173956  173980+
+         173967  173919  173935  173947  173905  173906  173910  173954+
+         173914  173890  173960  173970  173929  173930
CHEXA      46873       4  173933  173934  173896  173894  173957  173956+
+         173919  173920  173936  173906  173899  173907  173909  173910+
+         173890  173889  173959  173930  173921  173931
CHEXA      46874       4  173976  173933  173894  173939  173979  173957+
+         173920  173961  173937  173907  173908  173941  173953  173909+
+         173889  173912  173958  173931  173932  173965
CHEXA      46875       4  173939  173894  173893  173938  173961  173920+
+         173917  173962  173908  173900  173902  173942  173912  173889+
+         173892  173911  173932  173924  173925  173964
$*  Mesh Collector: Solid(1)
$*  Mesh: 3d_mesh(128)
CHEXA      47242       4  176615  176617  176616  176614  176639  176638+
+         176637  176636  176620  176619  176618  176621  176610  176611+
+         176612  176613  176640  176641  176642  176643
CHEXA      47243       4  176595  176614  176652  173888  176602  176636+
+         176669  173887  176623  176622  176654  176597  176593  176613+
+         176630  172758  176644  176645  176671  176603
CHEXA      47244       4  176614  176616  176653  176652  176636  176637+
+         176670  176669  176618  176624  176655  176622  176613  176612+
+         176631  176630  176642  176646  176672  176645
CHEXA      47245       4  176616  176658  176684  176653  176637  176675+
+         176686  176670  176625  176659  176656  176624  176612  176633+
+         176667  176631  176647  176678  176673  176646
CHEXA      47246       4  176617  176657  176658  176616  176638  176674+
+         176675  176637  176626  176660  176625  176619  176611  176632+
+         176633  176612  176648  176677  176647  176641
CHEXA      47247       4  176663  176685  176657  176617  176679  176687+
+         176674  176638  176664  176661  176626  176627  176635  176668+
+         176632  176611  176683  176676  176648  176649
CHEXA      47248       4  176662  176663  176617  176615  176680  176679+
+         176638  176639  176665  176627  176620  176628  176634  176635+
+         176611  176610  176682  176649  176640  176650
CHEXA      47249       4  176608  176662  176615  176596  176609  176680+
+         176639  176601  176666  176628  176629  176599  176600  176634+
+         176610  176594  176681  176650  176651  176605
CHEXA      47250       4  176596  176615  176614  176595  176601  176639+
+         176636  176602  176629  176621  176623  176598  176594  176610+
+         176613  176593  176651  176643  176644  176604
$*  Mesh Collector: Solid(1)
$*  Mesh: 3d_mesh(104)
CHEXA      47095       4  175578  175558  172825  173809  175583  175568+
+         172828  173811  175561  175560  172827  175581  175557  175554+
+         153343  172628  175570  175571  172830  175587
CHEXA      47096       4  175558  175536  173816  172825  175568  175541+
+         173815  172828  175562  175537  172826  175560  175554  175514+
+         172634  153343  175572  175543  172829  175571
CHEXA      47097       4  175559  175535  175536  175558  175569  175542+
+         175541  175568  175563  175538  175562  175564  175555  175515+
+         175514  175554  175573  175544  175572  175574
CHEXA      47098       4  175588  175552  175535  175559  175591  175553+
+         175542  175569  175589  175539  175563  175565  175567  175540+
+         175515  175555  175592  175545  175573  175575
CHEXA      47099       4  175594  175588  175559  175577  175595  175591+
+         175569  175584  175590  175565  175566  175579  175582  175567+
+         175555  175556  175593  175575  175576  175585
CHEXA      47100       4  175577  175559  175558  175578  175584  175569+
+         175568  175583  175566  175564  175561  175580  175556  175555+
+         175554  175557  175576  175574  175570  175586
$*  Mesh Collector: Solid(1)
$*  Mesh: 3d_mesh(81)
CHEXA      46957       4  174573  174590  172915  173863  174582  174600+
+         172918  173865  174593  174592  172917  174574  174558  174588+
+         153365  172727  174602  174603  172920  174583
CHEXA      46958       4  174590  174612  173871  172915  174600  174618+
+         173874  172918  174594  174613  172916  174592  174588  174609+
+         172744  153365  174604  174619  172919  174603
CHEXA      46959       4  174591  174611  174612  174590  174601  174617+
+         174618  174600  174595  174614  174594  174596  174589  174610+
+         174609  174588  174605  174620  174604  174606
CHEXA      46960       4  174622  174628  174611  174591  174625  174629+
+         174617  174601  174623  174615  174595  174597  174599  174616+
+         174610  174589  174627  174621  174605  174607
CHEXA      46961       4  174586  174622  174591  174572  174587  174625+
+         174601  174581  174624  174597  174598  174576  174577  174599+
+         174589  174559  174626  174607  174608  174585
CHEXA      46962       4  174572  174591  174590  174573  174581  174601+
+         174600  174582  174598  174596  174593  174575  174559  174589+
+         174588  174558  174608  174606  174602  174584
$*  Mesh Collector: Solid(1)
$*  Mesh: 3d_mesh(116)
CHEXA      47170       4  176099  176101  176100  176098  176121  176120+
+         176119  176118  176104  176103  176102  176105  176094  176095+
+         176096  176097  176122  176123  176124  176125
CHEXA      47171       4  176055  176098  176152  176090  176078  176118+
+         176162  176093  176107  176106  176154  176057  176026  176097+
+         176116  176067  176126  176127  176164  176082
CHEXA      47172       4  176098  176100  176153  176152  176118  176119+
+         176163  176162  176102  176108  176155  176106  176097  176096+
+         176117  176116  176124  176128  176165  176127
CHEXA      47173       4  176100  176136  173787  176153  176119  176142+
+         173790  176163  176109  176138  176156  176108  176096  176135+
+         172588  176117  176129  176144  176166  176128
CHEXA      47174       4  176101  176137  176136  176100  176120  176143+
+         176142  176119  176110  176139  176109  176103  176095  176134+
+         176135  176096  176130  176145  176129  176123
CHEXA      47175       4  176148  176167  176137  176101  176157  176168+
+         176143  176120  176149  176140  176110  176111  176114  176141+
+         176134  176095  176159  176146  176130  176131
CHEXA      47176       4  176147  176148  176101  176099  176158  176157+
+         176120  176121  176150  176111  176104  176112  176115  176114+
+         176095  176094  176160  176131  176122  176132
CHEXA      47177       4  176089  176147  176099  176056  176092  176158+
+         176121  176079  176151  176112  176113  176059  176066  176115+
+         176094  176025  176161  176132  176133  176080
CHEXA      47178       4  176056  176099  176098  176055  176079  176121+
+         176118  176078  176113  176105  176107  176058  176025  176094+
+         176097  176026  176133  176125  176126  176081
$*  Mesh Collector: Solid(1)
$*  Mesh: 3d_mesh(113)
CHEXA      47149       4  175914  175934  172885  173851  175922  175944+
+         172888  173853  175937  175936  172887  175915  175901  175932+
+         153363  172703  175946  175947  172890  175924
CHEXA      47150       4  175934  175956  173860  172885  175944  175962+
+         173861  172888  175938  175957  172886  175936  175932  175953+
+         172719  153363  175948  175963  172889  175947
CHEXA      47151       4  175935  175955  175956  175934  175945  175961+
+         175962  175944  175939  175958  175938  175940  175933  175954+
+         175953  175932  175949  175964  175948  175950
CHEXA      47152       4  175966  175972  175955  175935  175969  175973+
+         175961  175945  175967  175959  175939  175941  175943  175960+
+         175954  175933  175971  175965  175949  175951
CHEXA      47153       4  175930  175966  175935  175913  175931  175969+
+         175945  175923  175968  175941  175942  175917  175921  175943+
+         175933  175902  175970  175951  175952  175926
CHEXA      47154       4  175913  175935  175934  175914  175923  175945+
+         175944  175922  175942  175940  175937  175916  175902  175933+
+         175932  175901  175952  175950  175946  175925
$*  Mesh Collector: Solid(1)
$*  Mesh: 3d_mesh(110)
CHEXA      47131       4  175788  175808  172668  173836  175794  175820+
+         172673  173838  175811  175810  172669  175789  175766  175806+
+         153353  172672  175822  175823  172674  175795
CHEXA      47132       4  175808  175833  173835  172668  175820  175841+
+         173837  172673  175812  175834  172670  175810  175806  175819+
+         172671  153353  175824  175845  172675  175823
CHEXA      47133       4  175809  175832  175833  175808  175821  175842+
+         175841  175820  175813  175835  175812  175814  175807  175818+
+         175819  175806  175825  175844  175824  175826
CHEXA      47134       4  175829  175846  175832  175809  175838  175847+
+         175842  175821  175830  175836  175813  175815  175817  175837+
+         175818  175807  175839  175843  175825  175827
CHEXA      47135       4  175804  175829  175809  175787  175805  175838+
+         175821  175793  175831  175815  175816  175791  175792  175817+
+         175807  175767  175840  175827  175828  175797
CHEXA      47136       4  175787  175809  175808  175788  175793  175821+
+         175820  175794  175816  175814  175811  175790  175767  175807+
+         175806  175766  175828  175826  175822  175796
$*  Mesh Collector: Solid(1)
$*  Mesh: 3d_mesh(119)
CHEXA      47191       4  176234  176255  172777  173795  176241  176265+
+         172780  173796  176258  176257  172779  176236  176223  176253+
+         153335  172600  176267  176268  172782  176244
CHEXA      47192       4  176255  176277  173801  172777  176265  176283+
+         173803  172780  176259  176278  172778  176257  176253  176274+
+         172612  153335  176269  176284  172781  176268
CHEXA      47193       4  176256  176276  176277  176255  176266  176282+
+         176283  176265  176260  176279  176259  176261  176254  176275+
+         176274  176253  176270  176285  176269  176271
CHEXA      47194       4  176287  176293  176276  176256  176290  176294+
+         176282  176266  176288  176280  176260  176262  176264  176281+
+         176275  176254  176292  176286  176270  176272
CHEXA      47195       4  176251  176287  176256  176235  176252  176290+
+         176266  176240  176289  176262  176263  176238  176239  176264+
+         176254  176222  176291  176272  176273  176242
CHEXA      47196       4  176235  176256  176255  176234  176240  176266+
+         176265  176241  176263  176261  176258  176237  176222  176254+
+         176253  176223  176273  176271  176267  176243
$*  Mesh Collector: Solid(1)
$*  Mesh: 3d_mesh(107)
CHEXA      47113       4  175702  175667  172909  173859  175707  175677+
+         172912  173862  175670  175669  172910  175703  175688  175665+
+         153325  172720  175679  175680  172913  175709
CHEXA      47114       4  175667  175690  173844  172909  175677  175697+
+         173845  172912  175671  175692  172911  175669  175665  175686+
+         172687  153325  175681  175698  172914  175680
CHEXA      47115       4  175668  175691  175690  175667  175678  175696+
+         175697  175677  175672  175693  175671  175673  175666  175687+
+         175686  175665  175682  175699  175681  175683
CHEXA      47116       4  175712  175718  175691  175668  175715  175719+
+         175696  175678  175713  175694  175672  175674  175676  175695+
+         175687  175666  175717  175700  175682  175684
CHEXA      47117       4  175720  175712  175668  175701  175721  175715+
+         175678  175708  175714  175674  175675  175704  175706  175676+
+         175666  175689  175716  175684  175685  175710
CHEXA      47118       4  175701  175668  175667  175702  175708  175678+
+         175677  175707  175675  175673  175670  175705  175689  175666+
+         175665  175688  175685  175683  175679  175711
$*  Mesh Collector: Solid(1)
$*  Mesh: 3d_mesh(99)
CHEXA      47065       4  175366  175331  172855  173820  175371  175343+
+         172858  173822  175334  175333  172856  175367  175353  175329+
+         153323  172640  175345  175346  172859  175373
CHEXA      47066       4  175331  175354  173777  172855  175343  175360+
+         173778  172858  175335  175356  172857  175333  175329  175341+
+         172579  153323  175347  175362  172860  175346
CHEXA      47067       4  175332  175355  175354  175331  175344  175361+
+         175360  175343  175336  175357  175335  175337  175330  175342+
+         175341  175329  175348  175363  175347  175349
CHEXA      47068       4  175376  175382  175355  175332  175379  175383+
+         175361  175344  175377  175358  175336  175338  175340  175359+
+         175342  175330  175380  175364  175348  175350
CHEXA      47069       4  175384  175376  175332  175365  175385  175379+
+         175344  175372  175378  175338  175339  175368  175370  175340+
+         175330  175352  175381  175350  175351  175374
CHEXA      47070       4  175365  175332  175331  175366  175372  175344+
+         175343  175371  175339  175337  175334  175369  175352  175330+
+         175329  175353  175351  175349  175345  175375
$*  Mesh Collector: Solid(1)
$*  Mesh: 3d_mesh(97)
CHEXA      47053       4  175241  175262  172676  173839  175247  175274+
+         172681  173842  175265  175264  172678  175243  175239  175260+
+         153355  172680  175276  175277  172683  175249
CHEXA      47054       4  175262  175284  173840  172676  175274  175293+
+         173841  172681  175266  175285  172677  175264  175260  175272+
+         172679  153355  175278  175296  172682  175277
CHEXA      47055       4  175263  175283  175284  175262  175275  175292+
+         175293  175274  175267  175286  175266  175268  175261  175271+
+         175272  175260  175279  175295  175278  175280
CHEXA      47056       4  175288  175300  175283  175263  175297  175301+
+         175292  175275  175289  175287  175267  175269  175273  175291+
+         175271  175261  175299  175294  175279  175281
CHEXA      47057       4  175258  175288  175263  175242  175259  175297+
+         175275  175248  175290  175269  175270  175245  175246  175273+
+         175261  175240  175298  175281  175282  175251
CHEXA      47058       4  175242  175263  175262  175241  175248  175275+
+         175274  175247  175270  175268  175265  175244  175240  175261+
+         175260  175239  175282  175280  175276  175250
$*  Mesh Collector: Solid(1)
$*  Mesh: 3d_mesh(124)
CHEXA      47221       4  176432  176467  172921  173875  176437  176477+
+         172924  173876  176470  176469  172922  176433  176418  176463+
+         153368  172748  176479  176480  172925  176439
CHEXA      47222       4  176467  176486  173868  172921  176477  176492+
+         173870  172924  176471  176490  172923  176469  176463  176466+
+         172736  153368  176481  176496  172926  176480
CHEXA      47223       4  176468  176487  176486  176467  176478  176493+
+         176492  176477  176472  176489  176471  176473  176464  176465+
+         176466  176463  176482  176495  176481  176483
CHEXA      47224       4  176497  176503  176487  176468  176500  176504+
+         176493  176478  176498  176488  176472  176474  176476  176491+
+         176465  176464  176502  176494  176482  176484
CHEXA      47225       4  176459  176497  176468  176431  176460  176500+
+         176478  176438  176499  176474  176475  176435  176436  176476+
+         176464  176419  176501  176484  176485  176441
CHEXA      47226       4  176431  176468  176467  176432  176438  176478+
+         176477  176437  176475  176473  176470  176434  176419  176464+
+         176463  176418  176485  176483  176479  176440
$*  Mesh Collector: Solid(1)
$*  Mesh: 3d_mesh(108)
CHEXA      47119       4  175690  175724  172684  173844  175697  175736+
+         172689  173845  175727  175726  172685  175692  175686  175722+
+         153357  172687  175738  175739  172690  175698
CHEXA      47120       4  175724  175749  173843  172684  175736  175757+
+         173846  172689  175728  175750  172686  175726  175722  175735+
+         172688  153357  175740  175761  172691  175739
CHEXA      47121       4  175725  175748  175749  175724  175737  175758+
+         175757  175736  175729  175751  175728  175730  175723  175734+
+         175735  175722  175741  175760  175740  175742
CHEXA      47122       4  175745  175762  175748  175725  175754  175763+
+         175758  175737  175746  175752  175729  175731  175733  175753+
+         175734  175723  175756  175759  175741  175743
CHEXA      47123       4  175718  175745  175725  175691  175719  175754+
+         175737  175696  175747  175731  175732  175694  175695  175733+
+         175723  175687  175755  175743  175744  175700
CHEXA      47124       4  175691  175725  175724  175690  175696  175737+
+         175736  175697  175732  175730  175727  175693  175687  175723+
+         175722  175686  175744  175742  175738  175699
$*  Mesh Collector: Solid(1)
$*  Mesh: 3d_mesh(96)
CHEXA      47047       4  175203  175220  172867  173832  175212  175230+
+         172870  173833  175223  175222  172868  175204  175188  175218+
+         153351  172663  175232  175233  172871  175213
CHEXA      47048       4  175220  175241  173839  172867  175230  175247+
+         173842  172870  175224  175243  172869  175222  175218  175239+
+         172680  153351  175234  175249  172872  175233
CHEXA      47049       4  175221  175242  175241  175220  175231  175248+
+         175247  175230  175225  175244  175224  175226  175219  175240+
+         175239  175218  175235  175250  175234  175236
CHEXA      47050       4  175252  175258  175242  175221  175255  175259+
+         175248  175231  175253  175245  175225  175227  175229  175246+
+         175240  175219  175256  175251  175235  175237
CHEXA      47051       4  175216  175252  175221  175202  175217  175255+
+         175231  175211  175254  175227  175228  175206  175207  175229+
+         175219  175189  175257  175237  175238  175215
CHEXA      47052       4  175202  175221  175220  175203  175211  175231+
+         175230  175212  175228  175226  175223  175205  175189  175219+
+         175218  175188  175238  175236  175232  175214
$*  Mesh Collector: Solid(1)
$*  Mesh: 3d_mesh(118)
CHEXA      47185       4  176193  176213  172795  173788  176201  176225+
+         172798  173789  176216  176215  172797  176194  176180  176211+
+         153331  172587  176227  176228  172800  176203
CHEXA      47186       4  176213  176234  173795  172795  176225  176241+
+         173796  172798  176217  176236  172796  176215  176211  176223+
+         172600  153331  176229  176244  172799  176228
CHEXA      47187       4  176214  176235  176234  176213  176226  176240+
+         176241  176225  176218  176237  176217  176219  176212  176222+
+         176223  176211  176230  176243  176229  176231
CHEXA      47188       4  176245  176251  176235  176214  176248  176252+
+         176240  176226  176246  176238  176218  176220  176224  176239+
+         176222  176212  176250  176242  176230  176232
CHEXA      47189       4  176209  176245  176214  176192  176210  176248+
+         176226  176202  176247  176220  176221  176196  176200  176224+
+         176212  176181  176249  176232  176233  176205
CHEXA      47190       4  176192  176214  176213  176193  176202  176226+
+         176225  176201  176221  176219  176216  176195  176181  176212+
+         176211  176180  176233  176231  176227  176204
$*  Mesh Collector: Solid(1)
$*  Mesh: 3d_mesh(105)
CHEXA      47101       4  175622  175598  172625  173810  175632  175610+
+         172630  173812  175601  175600  172627  175624  175608  175596+
+         153339  172629  175612  175613  172632  175633
CHEXA      47102       4  175598  175578  173809  172625  175610  175583+
+         173811  172630  175602  175581  172626  175600  175596  175557+
+         172628  153339  175614  175587  172631  175613
CHEXA      47103       4  175599  175577  175578  175598  175611  175584+
+         175583  175610  175603  175580  175602  175604  175597  175556+
+         175557  175596  175615  175586  175614  175616
CHEXA      47104       4  175619  175594  175577  175599  175628  175595+
+         175584  175611  175620  175579  175603  175605  175607  175582+
+         175556  175597  175629  175585  175615  175617
CHEXA      47105       4  175636  175619  175599  175623  175637  175628+
+         175611  175631  175621  175605  175606  175625  175627  175607+
+         175597  175609  175630  175617  175618  175635
CHEXA      47106       4  175623  175599  175598  175622  175631  175611+
+         175610  175632  175606  175604  175601  175626  175609  175597+
+         175596  175608  175618  175616  175612  175634
$*  Mesh Collector: Solid(1)
$*  Mesh: 3d_mesh(95)
CHEXA      47041       4  175158  175178  172660  173831  175164  175190+
+         172665  173834  175181  175180  172661  175159  175155  175176+
+         153352  172664  175192  175193  172666  175165
CHEXA      47042       4  175178  175203  173832  172660  175190  175212+
+         173833  172665  175182  175204  172662  175180  175176  175188+
+         172663  153352  175194  175213  172667  175193
CHEXA      47043       4  175179  175202  175203  175178  175191  175211+
+         175212  175190  175183  175205  175182  175184  175177  175189+
+         175188  175176  175195  175214  175194  175196
CHEXA      47044       4  175199  175216  175202  175179  175208  175217+
+         175211  175191  175200  175206  175183  175185  175187  175207+
+         175189  175177  175209  175215  175195  175197
CHEXA      47045       4  175174  175199  175179  175157  175175  175208+
+         175191  175163  175201  175185  175186  175161  175162  175187+
+         175177  175156  175210  175197  175198  175167
CHEXA      47046       4  175157  175179  175178  175158  175163  175191+
+         175190  175164  175186  175184  175181  175160  175156  175177+
+         175176  175155  175198  175196  175192  175166
$*  Mesh Collector: Solid(1)
$*  Mesh: 3d_mesh(89)
CHEXA      47005       4  174947  174926  172819  173817  174953  174938+
+         172822  173818  174929  174928  172820  174949  174936  174924+
+         153344  172635  174940  174941  172823  174955
CHEXA      47006       4  174926  174906  173824  172819  174938  174915+
+         173825  172822  174930  174907  172821  174928  174924  174893+
+         172647  153344  174942  174916  172824  174941
CHEXA      47007       4  174927  174905  174906  174926  174939  174914+
+         174915  174938  174931  174909  174930  174932  174925  174894+
+         174893  174924  174943  174917  174942  174944
CHEXA      47008       4  174958  174922  174905  174927  174961  174923+
+         174914  174939  174959  174908  174931  174933  174935  174913+
+         174894  174925  174963  174918  174943  174945
CHEXA      47009       4  174964  174958  174927  174948  174965  174961+
+         174939  174954  174960  174933  174934  174950  174952  174935+
+         174925  174937  174962  174945  174946  174957
CHEXA      47010       4  174948  174927  174926  174947  174954  174939+
+         174938  174953  174934  174932  174929  174951  174937  174925+
+         174924  174936  174946  174944  174940  174956
$*  Mesh Collector: Solid(1)
$*  Mesh: 3d_mesh(83)
CHEXA      46969       4  174690  174659  172617  173806  174706  174673+
+         172622  173808  174662  174661  172618  174692  174672  174657+
+         153337  172621  174675  174676  172623  174709
CHEXA      46970       4  174659  174685  173805  172617  174673  174701+
+         173807  172622  174663  174687  172619  174661  174657  174670+
+         172620  153337  174677  174704  172624  174676
CHEXA      46971       4  174660  174686  174685  174659  174674  174700+
+         174701  174673  174664  174688  174663  174665  174658  174669+
+         174670  174657  174678  174703  174677  174679
CHEXA      46972       4  174682  174711  174686  174660  174697  174712+
+         174700  174674  174683  174689  174664  174666  174668  174695+
+         174669  174658  174699  174702  174678  174680
CHEXA      46973       4  174710  174682  174660  174691  174713  174697+
+         174674  174705  174684  174666  174667  174693  174696  174668+
+         174658  174671  174698  174680  174681  174707
CHEXA      46974       4  174691  174660  174659  174690  174705  174674+
+         174673  174706  174667  174665  174662  174694  174671  174658+
+         174657  174672  174681  174679  174675  174708
$*  Mesh Collector: Solid(1)
$*  Mesh: 3d_mesh(91)
CHEXA      47017       4  175024  174995  172708  173856  175039  175009+
+         172713  173857  174998  174997  172710  175025  175007  174993+
+         153361  172711  175011  175012  172715  175042
CHEXA      47018       4  174995  175019  173855  172708  175009  175034+
+         173858  172713  174999  175020  172709  174997  174993  175005+
+         172712  153361  175013  175037  172714  175012
CHEXA      47019       4  174996  175018  175019  174995  175010  175033+
+         175034  175009  175000  175021  174999  175001  174994  175004+
+         175005  174993  175014  175036  175013  175015
CHEXA      47020       4  175028  175046  175018  174996  175043  175048+
+         175033  175010  175029  175022  175000  175002  175008  175031+
+         175004  174994  175045  175035  175014  175016
CHEXA      47021       4  175047  175028  174996  175023  175049  175043+
+         175010  175038  175030  175002  175003  175026  175032  175008+
+         174994  175006  175044  175016  175017  175040
CHEXA      47022       4  175023  174996  174995  175024  175038  175010+
+         175009  175039  175003  175001  174998  175027  175006  174994+
+         174993  175007  175017  175015  175011  175041
$*  Mesh Collector: Solid(1)
$*  Mesh: 3d_mesh(82)
CHEXA      46963       4  174612  174632  172740  173871  174618  174642+
+         172745  173874  174635  174634  172742  174613  174609  174630+
+         153369  172744  174644  174645  172747  174619
CHEXA      46964       4  174632  174303  173872  172740  174642  174308+
+         173873  172745  174636  174306  172741  174634  174630  174295+
+         172743  153369  174646  174312  172746  174645
CHEXA      46965       4  174633  174302  174303  174632  174643  174309+
+         174308  174642  174637  174305  174636  174638  174631  174294+
+         174295  174630  174647  174311  174646  174648
CHEXA      46966       4  174651  174326  174302  174633  174654  174327+
+         174309  174643  174652  174304  174637  174639  174641  174307+
+         174294  174631  174655  174310  174647  174649
CHEXA      46967       4  174628  174651  174633  174611  174629  174654+
+         174643  174617  174653  174639  174640  174615  174616  174641+
+         174631  174610  174656  174649  174650  174621
CHEXA      46968       4  174611  174633  174632  174612  174617  174643+
+         174642  174618  174640  174638  174635  174614  174610  174631+
+         174630  174609  174650  174648  174644  174620
$*  Mesh Collector: Solid(1)
$*  Mesh: 3d_mesh(74)
CHEXA      46912       4  174239  174241  174240  174238  174261  174260+
+         174259  174258  174244  174243  174242  174245  174234  174235+
+         174236  174237  174262  174263  174264  174265
CHEXA      46913       4  173944  174238  174279  173978  173966  174258+
+         174289  173981  174247  174246  174281  173945  173913  174237+
+         174257  173955  174266  174267  174293  173968
CHEXA      46914       4  174238  174240  174280  174279  174258  174259+
+         174290  174289  174242  174248  174282  174246  174237  174236+
+         174256  174257  174264  174268  174292  174267
CHEXA      46915       4  174240  174215  173784  174280  174259  174222+
+         173783  174290  174249  174217  174283  174248  174236  174204+
+         172582  174256  174269  174223  174291  174268
CHEXA      46916       4  174241  174216  174215  174240  174260  174221+
+         174222  174259  174250  174219  174249  174243  174235  174205+
+         174204  174236  174270  174224  174269  174263
CHEXA      46917       4  174275  174232  174216  174241  174284  174233+
+         174221  174260  174276  174218  174250  174251  174254  174220+
+         174205  174235  174286  174225  174270  174271
CHEXA      46918       4  174274  174275  174241  174239  174285  174284+
+         174260  174261  174277  174251  174244  174252  174255  174254+
+         174235  174234  174287  174271  174262  174272
CHEXA      46919       4  173977  174274  174239  173943  173980  174285+
+         174261  173967  174278  174252  174253  173947  173954  174255+
+         174234  173914  174288  174272  174273  173970
CHEXA      46920       4  173943  174239  174238  173944  173967  174261+
+         174258  173966  174253  174245  174247  173946  173914  174234+
+         174237  173913  174273  174265  174266  173969
$*  Mesh Collector: Solid(1)
$*  Mesh: 3d_mesh(130)
CHEXA      47260       4  173882  176730  176442  173881  173883  176736+
+         176448  173884  176732  176763  176444  172753  172754  176692+
+         176430  172755  176738  176765  176450  172756
CHEXA      47261       4  176730  176731  176443  176442  176736  176737+
+         176449  176448  176733  176764  176446  176763  176692  176693+
+         176429  176430  176739  176766  176452  176765
CHEXA      47262       4  176731  176761  176461  176443  176737  176762+
+         176462  176449  176734  176767  176445  176764  176693  176735+
+         176447  176429  176740  176768  176451  176766
$*  Mesh Collector: Solid(1)
$*  Mesh: 3d_mesh(126)
CHEXA      47233       4  176532  176551  172937  173867  176541  176561+
+         172940  173869  176554  176553  172938  176533  176517  176547+
+         153371  172735  176563  176564  172941  176542
CHEXA      47234       4  176551  176571  173779  172937  176561  176577+
+         173780  172940  176555  176572  172939  176553  176547  176549+
+         172580  153371  176565  176578  172942  176564
CHEXA      47235       4  176552  176570  176571  176551  176562  176576+
+         176577  176561  176556  176573  176555  176557  176548  176550+
+         176549  176547  176566  176579  176565  176567
CHEXA      47236       4  176581  176587  176570  176552  176584  176588+
+         176576  176562  176582  176574  176556  176558  176560  176575+
+         176550  176548  176585  176580  176566  176568
CHEXA      47237       4  176545  176581  176552  176531  176546  176584+
+         176562  176540  176583  176558  176559  176535  176536  176560+
+         176548  176518  176586  176568  176569  176544
CHEXA      47238       4  176531  176552  176551  176532  176540  176562+
+         176561  176541  176559  176557  176554  176534  176518  176548+
+         176547  176517  176569  176567  176563  176543
$*  Mesh Collector: Solid(1)
$*  Mesh: 3d_mesh(103)
CHEXA      47089       4  175536  175516  172861  173816  175541  175526+
+         172864  173815  175519  175518  172863  175537  175514  175512+
+         153345  172634  175528  175529  172866  175543
CHEXA      47090       4  175516  175494  173828  172861  175526  175503+
+         173829  172864  175520  175495  172862  175518  175512  175481+
+         172655  153345  175530  175504  172865  175529
CHEXA      47091       4  175517  175493  175494  175516  175527  175502+
+         175503  175526  175521  175497  175520  175522  175513  175482+
+         175481  175512  175531  175505  175530  175532
CHEXA      47092       4  175546  175510  175493  175517  175549  175511+
+         175502  175527  175547  175496  175521  175523  175525  175501+
+         175482  175513  175551  175506  175531  175533
CHEXA      47093       4  175552  175546  175517  175535  175553  175549+
+         175527  175542  175548  175523  175524  175539  175540  175525+
+         175513  175515  175550  175533  175534  175545
CHEXA      47094       4  175535  175517  175516  175536  175542  175527+
+         175526  175541  175524  175522  175519  175538  175515  175513+
+         175512  175514  175534  175532  175528  175544
$*  Mesh Collector: Solid(1)
$*  Mesh: 3d_mesh(90)
CHEXA      47011       4  174685  174968  172843  173805  174701  174978+
+         172846  173807  174971  174970  172845  174687  174670  174966+
+         153341  172620  174980  174981  172848  174704
CHEXA      47012       4  174968  174947  173817  172843  174978  174953+
+         173818  172846  174972  174949  172844  174970  174966  174936+
+         172635  153341  174982  174955  172847  174981
CHEXA      47013       4  174969  174948  174947  174968  174979  174954+
+         174953  174978  174973  174951  174972  174974  174967  174937+
+         174936  174966  174983  174956  174982  174984
CHEXA      47014       4  174987  174964  174948  174969  174990  174965+
+         174954  174979  174988  174950  174973  174975  174977  174952+
+         174937  174967  174991  174957  174983  174985
CHEXA      47015       4  174711  174987  174969  174686  174712  174990+
+         174979  174700  174989  174975  174976  174689  174695  174977+
+         174967  174669  174992  174985  174986  174702
CHEXA      47016       4  174686  174969  174968  174685  174700  174979+
+         174978  174701  174976  174974  174971  174688  174669  174967+
+         174966  174670  174986  174984  174980  174703
$*  Mesh Collector: Solid(1)
$*  Mesh: 3d_mesh(125)
CHEXA      47227       4  176486  176507  172732  173868  176492  176519+
+         172737  173870  176510  176509  172733  176490  176466  176505+
+         153367  172736  176521  176522  172738  176496
CHEXA      47228       4  176507  176532  173867  172732  176519  176541+
+         173869  172737  176511  176533  172734  176509  176505  176517+
+         172735  153367  176523  176542  172739  176522
CHEXA      47229       4  176508  176531  176532  176507  176520  176540+
+         176541  176519  176512  176534  176511  176513  176506  176518+
+         176517  176505  176524  176543  176523  176525
CHEXA      47230       4  176528  176545  176531  176508  176537  176546+
+         176540  176520  176529  176535  176512  176514  176516  176536+
+         176518  176506  176539  176544  176524  176526
CHEXA      47231       4  176503  176528  176508  176487  176504  176537+
+         176520  176493  176530  176514  176515  176488  176491  176516+
+         176506  176465  176538  176526  176527  176494
CHEXA      47232       4  176487  176508  176507  176486  176493  176520+
+         176519  176492  176515  176513  176510  176489  176465  176506+
+         176505  176466  176527  176525  176521  176495
$*  Mesh Collector: Solid(1)
$*  Mesh: 3d_mesh(117)
CHEXA      47179       4  176136  176171  172584  173787  176142  176183+
+         172589  173790  176174  176173  172585  176138  176135  176169+
+         153328  172588  176185  176186  172590  176144
CHEXA      47180       4  176171  176193  173788  172584  176183  176201+
+         173789  172589  176175  176194  172586  176173  176169  176180+
+         172587  153328  176187  176203  172591  176186
CHEXA      47181       4  176172  176192  176193  176171  176184  176202+
+         176201  176183  176176  176195  176175  176177  176170  176181+
+         176180  176169  176188  176204  176187  176189
CHEXA      47182       4  176197  176209  176192  176172  176206  176210+
+         176202  176184  176198  176196  176176  176178  176182  176200+
+         176181  176170  176207  176205  176188  176190
CHEXA      47183       4  176167  176197  176172  176137  176168  176206+
+         176184  176143  176199  176178  176179  176140  176141  176182+
+         176170  176134  176208  176190  176191  176146
CHEXA      47184       4  176137  176172  176171  176136  176143  176184+
+         176183  176142  176179  176177  176174  176139  176134  176170+
+         176169  176135  176191  176189  176185  176145
$*  Mesh Collector: Solid(1)
$*  Mesh: 3d_mesh(98)
CHEXA      47059       4  175284  175304  172897  173840  175293  175314+
+         172900  173841  175307  175306  172898  175285  175272  175302+
+         153358  172679  175316  175317  172901  175296
CHEXA      47060       4  175304  175024  173856  172897  175314  175039+
+         173857  172900  175308  175025  172899  175306  175302  175007+
+         172711  153358  175318  175042  172902  175317
CHEXA      47061       4  175305  175023  175024  175304  175315  175038+
+         175039  175314  175309  175027  175308  175310  175303  175006+
+         175007  175302  175319  175041  175318  175320
CHEXA      47062       4  175323  175047  175023  175305  175326  175049+
+         175038  175315  175324  175026  175309  175311  175313  175032+
+         175006  175303  175327  175040  175319  175321
CHEXA      47063       4  175300  175323  175305  175283  175301  175326+
+         175315  175292  175325  175311  175312  175287  175291  175313+
+         175303  175271  175328  175321  175322  175294
CHEXA      47064       4  175283  175305  175304  175284  175292  175315+
+         175314  175293  175312  175310  175307  175286  175271  175303+
+         175302  175272  175322  175320  175316  175295
$*  Mesh Collector: Solid(1)
$*  Mesh: 3d_mesh(129)
CHEXA      47251       4  176695  176697  176696  176694  176717  176716+
+         176715  176714  176700  176699  176698  176701  176688  176689+
+         176690  176691  176718  176719  176720  176721
CHEXA      47252       4  176658  176694  176741  176684  176675  176714+
+         176751  176686  176703  176702  176743  176659  176633  176691+
+         176710  176667  176722  176723  176753  176678
CHEXA      47253       4  176694  176696  176742  176741  176714  176715+
+         176752  176751  176698  176704  176744  176702  176691  176690+
+         176711  176710  176720  176724  176754  176723
CHEXA      47254       4  176696  176730  173882  176742  176715  176736+
+         173883  176752  176705  176732  176745  176704  176690  176692+
+         172754  176711  176725  176738  176755  176724
CHEXA      47255       4  176697  176731  176730  176696  176716  176737+
+         176736  176715  176706  176733  176705  176699  176689  176693+
+         176692  176690  176726  176739  176725  176719
CHEXA      47256       4  176747  176761  176731  176697  176756  176762+
+         176737  176716  176748  176734  176706  176707  176712  176735+
+         176693  176689  176758  176740  176726  176727
CHEXA      47257       4  176746  176747  176697  176695  176757  176756+
+         176716  176717  176749  176707  176700  176708  176713  176712+
+         176689  176688  176759  176727  176718  176728
CHEXA      47258       4  176685  176746  176695  176657  176687  176757+
+         176717  176674  176750  176708  176709  176661  176668  176713+
+         176688  176632  176760  176728  176729  176676
CHEXA      47259       4  176657  176695  176694  176658  176674  176717+
+         176714  176675  176709  176701  176703  176660  176632  176688+
+         176691  176633  176729  176721  176722  176677
$*  Mesh Collector: Solid(1)
$*  Mesh: 3d_mesh(112)
CHEXA      47143       4  175871  175892  172700  173852  175878  175904+
+         172705  173854  175895  175894  172702  175873  175870  175890+
+         153360  172704  175906  175907  172707  175879
CHEXA      47144       4  175892  175914  173851  172700  175904  175922+
+         173853  172705  175896  175915  172701  175894  175890  175901+
+         172703  153360  175908  175924  172706  175907
CHEXA      47145       4  175893  175913  175914  175892  175905  175923+
+         175922  175904  175897  175916  175896  175898  175891  175902+
+         175901  175890  175909  175925  175908  175910
CHEXA      47146       4  175918  175930  175913  175893  175927  175931+
+         175923  175905  175919  175917  175897  175899  175903  175921+
+         175902  175891  175929  175926  175909  175911
CHEXA      47147       4  175888  175918  175893  175872  175889  175927+
+         175905  175877  175920  175899  175900  175875  175876  175903+
+         175891  175869  175928  175911  175912  175881
CHEXA      47148       4  175872  175893  175892  175871  175877  175905+
+         175904  175878  175900  175898  175895  175874  175869  175891+
+         175890  175870  175912  175910  175906  175880
$*  Mesh Collector: Solid(1)
$*  Mesh: 3d_mesh(94)
CHEXA      47035       4  175119  175136  172891  173847  175128  175146+
+         172894  173850  175139  175138  172893  175120  175104  175134+
+         153324  172696  175148  175149  172896  175129
CHEXA      47036       4  175136  175158  173831  172891  175146  175164+
+         173834  172894  175140  175159  172892  175138  175134  175155+
+         172664  153324  175150  175165  172895  175149
CHEXA      47037       4  175137  175157  175158  175136  175147  175163+
+         175164  175146  175141  175160  175140  175142  175135  175156+
+         175155  175134  175151  175166  175150  175152
CHEXA      47038       4  175168  175174  175157  175137  175171  175175+
+         175163  175147  175169  175161  175141  175143  175145  175162+
+         175156  175135  175172  175167  175151  175153
CHEXA      47039       4  175132  175168  175137  175118  175133  175171+
+         175147  175127  175170  175143  175144  175122  175123  175145+
+         175135  175105  175173  175153  175154  175131
CHEXA      47040       4  175118  175137  175136  175119  175127  175147+
+         175146  175128  175144  175142  175139  175121  175105  175135+
+         175134  175104  175154  175152  175148  175130
$*  Mesh Collector: Solid(1)
$*  Mesh: 3d_mesh(87)
CHEXA      46993       4  174864  174844  172807  173823  174869  174854+
+         172810  173826  174847  174846  172809  174865  174842  174840+
+         153348  172648  174856  174857  172812  174871
CHEXA      46994       4  174844  174822  173774  172807  174854  174830+
+         173775  172810  174848  174823  172808  174846  174840  174810+
+         172574  153348  174858  174834  172811  174857
CHEXA      46995       4  174845  174821  174822  174844  174855  174831+
+         174830  174854  174849  174825  174848  174850  174841  174809+
+         174810  174840  174859  174833  174858  174860
CHEXA      46996       4  174874  174838  174821  174845  174877  174839+
+         174831  174855  174875  174824  174849  174851  174853  174829+
+         174809  174841  174878  174832  174859  174861
CHEXA      46997       4  174880  174874  174845  174863  174881  174877+
+         174855  174870  174876  174851  174852  174867  174868  174853+
+         174841  174843  174879  174861  174862  174873
CHEXA      46998       4  174863  174845  174844  174864  174870  174855+
+         174854  174869  174852  174850  174847  174866  174843  174841+
+         174840  174842  174862  174860  174856  174872
$*  Mesh Collector: Solid(1)
$*  Mesh: 3d_mesh(73)
CHEXA      46906       4  174215  174194  172783  173784  174222  174206+
+         172786  173783  174197  174196  172784  174217  174204  174192+
+         153326  172582  174208  174209  172787  174223
CHEXA      46907       4  174194  174176  173792  172783  174206  174185+
+         173794  172786  174198  174178  172785  174196  174192  174162+
+         172596  153326  174210  174187  172788  174209
CHEXA      46908       4  174195  174177  174176  174194  174207  174186+
+         174185  174206  174199  174180  174198  174200  174193  174163+
+         174162  174192  174211  174188  174210  174212
CHEXA      46909       4  174226  174190  174177  174195  174229  174191+
+         174186  174207  174227  174179  174199  174201  174203  174181+
+         174163  174193  174230  174189  174211  174213
CHEXA      46910       4  174232  174226  174195  174216  174233  174229+
+         174207  174221  174228  174201  174202  174218  174220  174203+
+         174193  174205  174231  174213  174214  174225
CHEXA      46911       4  174216  174195  174194  174215  174221  174207+
+         174206  174222  174202  174200  174197  174219  174205  174193+
+         174192  174204  174214  174212  174208  174224
$*  Mesh Collector: Solid(1)
$*  Mesh: 3d_mesh(121)
CHEXA      47203       4  176319  176341  172801  173802  176328  176351+
+         172804  173804  176344  176343  172802  176320  176306  176337+
+         153332  172613  176353  176354  172805  176329
CHEXA      47204       4  176341  176360  173772  172801  176351  176367+
+         173771  172804  176345  176362  172803  176343  176337  176339+
+         172570  153332  176355  176368  172806  176354
CHEXA      47205       4  176342  176361  176360  176341  176352  176366+
+         176367  176351  176346  176363  176345  176347  176338  176340+
+         176339  176337  176356  176369  176355  176357
CHEXA      47206       4  176371  176377  176361  176342  176374  176378+
+         176366  176352  176372  176364  176346  176348  176350  176365+
+         176340  176338  176375  176370  176356  176358
CHEXA      47207       4  176335  176371  176342  176318  176336  176374+
+         176352  176327  176373  176348  176349  176322  176326  176350+
+         176338  176307  176376  176358  176359  176331
CHEXA      47208       4  176318  176342  176341  176319  176327  176352+
+         176351  176328  176349  176347  176344  176321  176307  176338+
+         176337  176306  176359  176357  176353  176330
$*  Mesh Collector: Solid(1)
$*  Mesh: 3d_mesh(120)
CHEXA      47197       4  176277  176297  172609  173801  176283  176309+
+         172614  173803  176300  176299  172611  176278  176274  176295+
+         153336  172612  176311  176312  172616  176284
CHEXA      47198       4  176297  176319  173802  172609  176309  176328+
+         173804  172614  176301  176320  172610  176299  176295  176306+
+         172613  153336  176313  176329  172615  176312
CHEXA      47199       4  176298  176318  176319  176297  176310  176327+
+         176328  176309  176302  176321  176301  176303  176296  176307+
+         176306  176295  176314  176330  176313  176315
CHEXA      47200       4  176323  176335  176318  176298  176332  176336+
+         176327  176310  176324  176322  176302  176304  176308  176326+
+         176307  176296  176333  176331  176314  176316
CHEXA      47201       4  176293  176323  176298  176276  176294  176332+
+         176310  176282  176325  176304  176305  176280  176281  176308+
+         176296  176275  176334  176316  176317  176286
CHEXA      47202       4  176276  176298  176297  176277  176282  176310+
+         176309  176283  176305  176303  176300  176279  176275  176296+
+         176295  176274  176317  176315  176311  176285
$*  Mesh Collector: Solid(1)
$*  Mesh: 3d_mesh(114)
CHEXA      47155       4  175956  175976  172716  173860  175962  175986+
+         172721  173861  175979  175978  172717  175957  175953  175974+
+         153364  172719  175988  175989  172722  175963
CHEXA      47156       4  175976  175702  173859  172716  175986  175707+
+         173862  172721  175980  175703  172718  175978  175974  175688+
+         172720  153364  175990  175709  172723  175989
CHEXA      47157       4  175977  175701  175702  175976  175987  175708+
+         175707  175986  175981  175705  175980  175982  175975  175689+
+         175688  175974  175991  175711  175990  175992
CHEXA      47158       4  175995  175720  175701  175977  175998  175721+
+         175708  175987  175996  175704  175981  175983  175985  175706+
+         175689  175975  175999  175710  175991  175993
CHEXA      47159       4  175972  175995  175977  175955  175973  175998+
+         175987  175961  175997  175983  175984  175959  175960  175985+
+         175975  175954  176000  175993  175994  175965
CHEXA      47160       4  175955  175977  175976  175956  175961  175987+
+         175986  175962  175984  175982  175979  175958  175954  175975+
+         175974  175953  175994  175992  175988  175964
$*  Mesh Collector: Solid(1)
$*  Mesh: 3d_mesh(111)
CHEXA      47137       4  175833  175850  172903  173835  175841  175860+
+         172906  173837  175853  175852  172905  175834  175819  175848+
+         153356  172671  175862  175863  172908  175845
CHEXA      47138       4  175850  175871  173852  172903  175860  175878+
+         173854  172906  175854  175873  172904  175852  175848  175870+
+         172704  153356  175864  175879  172907  175863
CHEXA      47139       4  175851  175872  175871  175850  175861  175877+
+         175878  175860  175855  175874  175854  175856  175849  175869+
+         175870  175848  175865  175880  175864  175866
CHEXA      47140       4  175882  175888  175872  175851  175885  175889+
+         175877  175861  175883  175875  175855  175857  175859  175876+
+         175869  175849  175886  175881  175865  175867
CHEXA      47141       4  175846  175882  175851  175832  175847  175885+
+         175861  175842  175884  175857  175858  175836  175837  175859+
+         175849  175818  175887  175867  175868  175843
CHEXA      47142       4  175832  175851  175850  175833  175842  175861+
+         175860  175841  175858  175856  175853  175835  175818  175849+
+         175848  175819  175868  175866  175862  175844
$*  Mesh Collector: Solid(1)
$*  Mesh: 3d_mesh(93)
CHEXA      47029       4  175073  175094  172692  173848  175079  175106+
+         172697  173849  175097  175096  172693  175077  175053  175092+
+         153359  172695  175108  175109  172698  175083
CHEXA      47030       4  175094  175119  173847  172692  175106  175128+
+         173850  172697  175098  175120  172694  175096  175092  175104+
+         172696  153359  175110  175129  172699  175109
CHEXA      47031       4  175095  175118  175119  175094  175107  175127+
+         175128  175106  175099  175121  175098  175100  175093  175105+
+         175104  175092  175111  175130  175110  175112
CHEXA      47032       4  175115  175132  175118  175095  175124  175133+
+         175127  175107  175116  175122  175099  175101  175103  175123+
+         175105  175093  175126  175131  175111  175113
CHEXA      47033       4  175090  175115  175095  175074  175091  175124+
+         175107  175080  175117  175101  175102  175075  175078  175103+
+         175093  175052  175125  175113  175114  175081
CHEXA      47034       4  175074  175095  175094  175073  175080  175107+
+         175106  175079  175102  175100  175097  175076  175052  175093+
+         175092  175053  175114  175112  175108  175082
$*  Mesh Collector: Solid(1)
$*  Mesh: 3d_mesh(76)
CHEXA      46924       4  174335  174337  174336  174334  174359  174358+
+         174357  174356  174340  174339  174338  174341  174330  174331+
+         174332  174333  174360  174361  174362  174363
CHEXA      46925       4  174314  174334  174372  173885  174319  174356+
+         174389  173886  174343  174342  174374  174315  174300  174333+
+         174350  172757  174364  174365  174391  174321
CHEXA      46926       4  174334  174336  174373  174372  174356  174357+
+         174390  174389  174338  174344  174375  174342  174333  174332+
+         174351  174350  174362  174366  174392  174365
CHEXA      46927       4  174336  174378  174404  174373  174357  174395+
+         174406  174390  174345  174379  174376  174344  174332  174353+
+         174387  174351  174367  174398  174393  174366
CHEXA      46928       4  174337  174377  174378  174336  174358  174394+
+         174395  174357  174346  174380  174345  174339  174331  174352+
+         174353  174332  174368  174397  174367  174361
CHEXA      46929       4  174383  174405  174377  174337  174399  174407+
+         174394  174358  174384  174381  174346  174347  174355  174388+
+         174352  174331  174403  174396  174368  174369
CHEXA      46930       4  174382  174383  174337  174335  174400  174399+
+         174358  174359  174385  174347  174340  174348  174354  174355+
+         174331  174330  174402  174369  174360  174370
CHEXA      46931       4  174328  174382  174335  174313  174329  174400+
+         174359  174320  174386  174348  174349  174317  174318  174354+
+         174330  174301  174401  174370  174371  174323
CHEXA      46932       4  174313  174335  174334  174314  174320  174359+
+         174356  174319  174349  174341  174343  174316  174301  174330+
+         174333  174300  174371  174363  174364  174322
$*  Mesh Collector: Solid(1)
$*  Mesh: 3d_mesh(127)
CHEXA      47239       4  173779  176571  176595  173888  173780  176577+
+         176602  173887  176572  176589  176597  172927  172580  176549+
+         176593  172758  176578  176591  176603  172928
CHEXA      47240       4  176571  176570  176596  176595  176577  176576+
+         176601  176602  176573  176590  176598  176589  176549  176550+
+         176594  176593  176579  176592  176604  176591
CHEXA      47241       4  176570  176587  176608  176596  176576  176588+
+         176609  176601  176574  176606  176599  176590  176550  176575+
+         176600  176594  176580  176607  176605  176592
$*  Mesh Collector: Solid(1)
$*  Mesh: 3d_mesh(115)
CHEXA      47161       4  176006  176008  176007  176005  176032  176031+
+         176030  176029  176011  176010  176009  176012  176001  176002+
+         176003  176004  176033  176034  176035  176036
CHEXA      47162       4  176051  176005  176060  173781  176073  176029+
+         176083  173782  176014  176013  176062  176052  176024  176004+
+         176028  172581  176037  176038  176087  176077
CHEXA      47163       4  176005  176007  176061  176060  176029  176030+
+         176084  176083  176009  176015  176063  176013  176004  176003+
+         176027  176028  176035  176039  176086  176038
CHEXA      47164       4  176007  176055  176090  176061  176030  176078+
+         176093  176084  176016  176057  176064  176015  176003  176026+
+         176067  176027  176040  176082  176085  176039
CHEXA      47165       4  176008  176056  176055  176007  176031  176079+
+         176078  176030  176017  176058  176016  176010  176002  176025+
+         176026  176003  176041  176081  176040  176034
CHEXA      47166       4  176046  176089  176056  176008  176068  176092+
+         176079  176031  176047  176059  176017  176018  176022  176066+
+         176025  176002  176072  176080  176041  176042
CHEXA      47167       4  176045  176046  176008  176006  176069  176068+
+         176031  176032  176048  176018  176011  176019  176021  176022+
+         176002  176001  176071  176042  176033  176043
CHEXA      47168       4  176088  176045  176006  176050  176091  176069+
+         176032  176074  176049  176019  176020  176053  176065  176021+
+         176001  176023  176070  176043  176044  176075
CHEXA      47169       4  176050  176006  176005  176051  176074  176032+
+         176029  176073  176020  176012  176014  176054  176023  176001+
+         176004  176024  176044  176036  176037  176076
$*  Mesh Collector: Solid(1)
$*  Mesh: 3d_mesh(109)
CHEXA      47125       4  175749  175768  172879  173843  175757  175778+
+         172882  173846  175771  175770  172880  175750  175735  175764+
+         153354  172688  175780  175781  172883  175761
CHEXA      47126       4  175768  175788  173836  172879  175778  175794+
+         173838  172882  175772  175789  172881  175770  175764  175766+
+         172672  153354  175782  175795  172884  175781
CHEXA      47127       4  175769  175787  175788  175768  175779  175793+
+         175794  175778  175773  175790  175772  175774  175765  175767+
+         175766  175764  175783  175796  175782  175784
CHEXA      47128       4  175798  175804  175787  175769  175801  175805+
+         175793  175779  175799  175791  175773  175775  175777  175792+
+         175767  175765  175802  175797  175783  175785
CHEXA      47129       4  175762  175798  175769  175748  175763  175801+
+         175779  175758  175800  175775  175776  175752  175753  175777+
+         175765  175734  175803  175785  175786  175759
CHEXA      47130       4  175748  175769  175768  175749  175758  175779+
+         175778  175757  175776  175774  175771  175751  175734  175765+
+         175764  175735  175786  175784  175780  175760
$*  Mesh Collector: Solid(1)
$*  Mesh: 3d_mesh(71)
CHEXA      46894       4  174132  174112  172765  173791  174137  174122+
+         172768  173793  174115  174114  172766  174133  174110  174108+
+         153333  172595  174124  174125  172769  174139
CHEXA      46895       4  174112  174089  173798  172765  174122  174099+
+         173799  172768  174116  174091  172767  174114  174108  174078+
+         172604  153333  174126  174102  172770  174125
CHEXA      46896       4  174113  174090  174089  174112  174123  174098+
+         174099  174122  174117  174093  174116  174118  174109  174077+
+         174078  174108  174127  174101  174126  174128
CHEXA      46897       4  174142  174106  174090  174113  174145  174107+
+         174098  174123  174143  174092  174117  174119  174121  174097+
+         174077  174109  174146  174100  174127  174129
CHEXA      46898       4  174148  174142  174113  174131  174149  174145+
+         174123  174138  174144  174119  174120  174135  174136  174121+
+         174109  174111  174147  174129  174130  174141
CHEXA      46899       4  174131  174113  174112  174132  174138  174123+
+         174122  174137  174120  174118  174115  174134  174111  174109+
+         174108  174110  174130  174128  174124  174140
$*  Mesh Collector: Solid(1)
$*  Mesh: 3d_mesh(68)
CHEXA      46876       4  174005  173984  172759  173785  174011  173996+
+         172762  173786  173987  173986  172760  174007  173993  173982+
+         153327  172583  173998  173999  172763  174013
CHEXA      46877       4  173984  173938  173770  172759  173996  173962+
+         173769  172762  173988  173940  172761  173986  173982  173911+
+         172569  153327  174000  173963  172764  173999
CHEXA      46878       4  173985  173939  173938  173984  173997  173961+
+         173962  173996  173989  173942  173988  173990  173983  173912+
+         173911  173982  174001  173964  174000  174002
CHEXA      46879       4  174016  173976  173939  173985  174019  173979+
+         173961  173997  174017  173941  173989  173991  173995  173953+
+         173912  173983  174021  173965  174001  174003
CHEXA      46880       4  174022  174016  173985  174006  174023  174019+
+         173997  174012  174018  173991  173992  174008  174010  173995+
+         173983  173994  174020  174003  174004  174015
CHEXA      46881       4  174006  173985  173984  174005  174012  173997+
+         173996  174011  173992  173990  173987  174009  173994  173983+
+         173982  173993  174004  174002  173998  174014
$*  Mesh Collector: Solid(1)
$*  Mesh: 3d_mesh(123)
CHEXA      47215       4  176442  176408  172943  173881  176448  176420+
+         172946  173884  176411  176410  172945  176444  176430  176406+
+         153372  172755  176422  176423  172948  176450
CHEXA      47216       4  176408  176432  173875  172943  176420  176437+
+         173876  172946  176412  176433  172944  176410  176406  176418+
+         172748  153372  176424  176439  172947  176423
CHEXA      47217       4  176409  176431  176432  176408  176421  176438+
+         176437  176420  176413  176434  176412  176414  176407  176419+
+         176418  176406  176425  176440  176424  176426
CHEXA      47218       4  176453  176459  176431  176409  176456  176460+
+         176438  176421  176454  176435  176413  176415  176417  176436+
+         176419  176407  176458  176441  176425  176427
CHEXA      47219       4  176461  176453  176409  176443  176462  176456+
+         176421  176449  176455  176415  176416  176445  176447  176417+
+         176407  176429  176457  176427  176428  176451
CHEXA      47220       4  176443  176409  176408  176442  176449  176421+
+         176420  176448  176416  176414  176411  176446  176429  176407+
+         176406  176430  176428  176426  176422  176452
$*  Mesh Collector: Solid(1)
$*  Mesh: 3d_mesh(100)
CHEXA      47071       4  175409  175388  172636  173819  175419  175400+
+         172641  173821  175391  175390  172638  175411  175398  175386+
+         153346  172639  175402  175403  172643  175422
CHEXA      47072       4  175388  175366  173820  172636  175400  175371+
+         173822  172641  175392  175367  172637  175390  175386  175353+
+         172640  153346  175404  175373  172642  175403
CHEXA      47073       4  175389  175365  175366  175388  175401  175372+
+         175371  175400  175393  175369  175392  175394  175387  175352+
+         175353  175386  175405  175375  175404  175406
CHEXA      47074       4  175414  175384  175365  175389  175423  175385+
+         175372  175401  175415  175368  175393  175395  175399  175370+
+         175352  175387  175424  175374  175405  175407
CHEXA      47075       4  175426  175414  175389  175410  175427  175423+
+         175401  175418  175416  175395  175396  175412  175417  175399+
+         175387  175397  175425  175407  175408  175420
CHEXA      47076       4  175410  175389  175388  175409  175418  175401+
+         175400  175419  175396  175394  175391  175413  175397  175387+
+         175386  175398  175408  175406  175402  175421
$*  Mesh Collector: Solid(1)
$*  Mesh: 3d_mesh(92)
CHEXA      47023       4  175019  175054  172873  173855  175034  175064+
+         172876  173858  175057  175056  172874  175020  175005  175050+
+         153362  172712  175066  175067  172877  175037
CHEXA      47024       4  175054  175073  173848  172873  175064  175079+
+         173849  172876  175058  175077  172875  175056  175050  175053+
+         172695  153362  175068  175083  172878  175067
CHEXA      47025       4  175055  175074  175073  175054  175065  175080+
+         175079  175064  175059  175076  175058  175060  175051  175052+
+         175053  175050  175069  175082  175068  175070
CHEXA      47026       4  175084  175090  175074  175055  175087  175091+
+         175080  175065  175085  175075  175059  175061  175063  175078+
+         175052  175051  175089  175081  175069  175071
CHEXA      47027       4  175046  175084  175055  175018  175048  175087+
+         175065  175033  175086  175061  175062  175022  175031  175063+
+         175051  175004  175088  175071  175072  175035
CHEXA      47028       4  175018  175055  175054  175019  175033  175065+
+         175064  175034  175062  175060  175057  175021  175004  175051+
+         175050  175005  175072  175070  175066  175036
$*  Mesh Collector: Solid(1)
$*  Mesh: 3d_mesh(86)
CHEXA      46987       4  174822  174800  172571  173774  174830  174812+
+         172576  173775  174803  174802  172573  174823  174810  174798+
+         153322  172574  174814  174815  172578  174834
CHEXA      46988       4  174800  174780  173773  172571  174812  174786+
+         173776  172576  174804  174783  172572  174802  174798  174759+
+         172575  153322  174816  174789  172577  174815
CHEXA      46989       4  174801  174779  174780  174800  174813  174785+
+         174786  174812  174805  174782  174804  174806  174799  174758+
+         174759  174798  174817  174788  174816  174818
CHEXA      46990       4  174826  174796  174779  174801  174835  174797+
+         174785  174813  174827  174781  174805  174807  174811  174784+
+         174758  174799  174837  174787  174817  174819
CHEXA      46991       4  174838  174826  174801  174821  174839  174835+
+         174813  174831  174828  174807  174808  174824  174829  174811+
+         174799  174809  174836  174819  174820  174832
CHEXA      46992       4  174821  174801  174800  174822  174831  174813+
+         174812  174830  174808  174806  174803  174825  174809  174799+
+         174798  174810  174820  174818  174814  174833
$*  Mesh Collector: Solid(1)
$*  Mesh: 3d_mesh(85)
CHEXA      46981       4  174780  174760  172849  173773  174786  174770+
+         172852  173776  174763  174762  172851  174783  174759  174756+
+         153342  172575  174772  174773  172854  174789
CHEXA      46982       4  174760  174737  173813  172849  174770  174743+
+         173814  172852  174764  174739  172850  174762  174756  174736+
+         172633  153342  174774  174745  172853  174773
CHEXA      46983       4  174761  174738  174737  174760  174771  174744+
+         174743  174770  174765  174741  174764  174766  174757  174735+
+         174736  174756  174775  174747  174774  174776
CHEXA      46984       4  174790  174754  174738  174761  174793  174755+
+         174744  174771  174791  174740  174765  174767  174769  174742+
+         174735  174757  174794  174746  174775  174777
CHEXA      46985       4  174796  174790  174761  174779  174797  174793+
+         174771  174785  174792  174767  174768  174781  174784  174769+
+         174757  174758  174795  174777  174778  174787
CHEXA      46986       4  174779  174761  174760  174780  174785  174771+
+         174770  174786  174768  174766  174763  174782  174758  174757+
+         174756  174759  174778  174776  174772  174788
$*  Mesh Collector: Solid(1)
$*  Mesh: 3d_mesh(78)
CHEXA      46942       4  173877  174451  174491  173878  173879  174457+
+         174497  173880  174452  174483  174492  172749  172750  174448+
+         174485  172751  174458  174487  174499  172752
CHEXA      46943       4  174451  174450  174490  174491  174457  174456+
+         174498  174497  174453  174484  174493  174483  174448  174449+
+         174486  174485  174459  174488  174500  174487
CHEXA      46944       4  174450  174481  174502  174490  174456  174482+
+         174503  174498  174454  174489  174494  174484  174449  174455+
+         174495  174486  174460  174496  174501  174488
$*  Mesh Collector: Solid(1)
$*  Mesh: 3d_mesh(70)
CHEXA      46888       4  174089  174068  172601  173798  174099  174080+
+         172606  173799  174071  174070  172603  174091  174078  174066+
+         153334  172604  174082  174083  172608  174102
CHEXA      46889       4  174068  174048  173797  172601  174080  174053+
+         173800  172606  174072  174049  172602  174070  174066  174046+
+         172605  153334  174084  174055  172607  174083
CHEXA      46890       4  174069  174047  174048  174068  174081  174054+
+         174053  174080  174073  174051  174072  174074  174067  174045+
+         174046  174066  174085  174057  174084  174086
CHEXA      46891       4  174094  174064  174047  174069  174103  174065+
+         174054  174081  174095  174050  174073  174075  174079  174052+
+         174045  174067  174105  174056  174085  174087
CHEXA      46892       4  174106  174094  174069  174090  174107  174103+
+         174081  174098  174096  174075  174076  174092  174097  174079+
+         174067  174077  174104  174087  174088  174100
CHEXA      46893       4  174090  174069  174068  174089  174098  174081+
+         174080  174099  174076  174074  174071  174093  174077  174067+
+         174066  174078  174088  174086  174082  174101
$*  Mesh Collector: Solid(1)
$*  Mesh: 3d_mesh(106)
CHEXA      47107       4  175354  175640  172837  173777  175360  175650+
+         172840  173778  175643  175642  172839  175356  175341  175638+
+         153340  172579  175652  175653  172842  175362
CHEXA      47108       4  175640  175622  173810  172837  175650  175632+
+         173812  172840  175644  175624  172838  175642  175638  175608+
+         172629  153340  175654  175633  172841  175653
CHEXA      47109       4  175641  175623  175622  175640  175651  175631+
+         175632  175650  175645  175626  175644  175646  175639  175609+
+         175608  175638  175655  175634  175654  175656
CHEXA      47110       4  175659  175636  175623  175641  175662  175637+
+         175631  175651  175660  175625  175645  175647  175649  175627+
+         175609  175639  175664  175635  175655  175657
CHEXA      47111       4  175382  175659  175641  175355  175383  175662+
+         175651  175361  175661  175647  175648  175358  175359  175649+
+         175639  175342  175663  175657  175658  175364
CHEXA      47112       4  175355  175641  175640  175354  175361  175651+
+         175650  175360  175648  175646  175643  175357  175342  175639+
+         175638  175341  175658  175656  175652  175363
$*  Mesh Collector: Solid(1)
$*  Mesh: 3d_mesh(80)
CHEXA      46951       4  174528  174548  172724  173864  174533  174560+
+         172729  173866  174551  174550  172725  174529  174506  174546+
+         153366  172728  174562  174563  172730  174535
CHEXA      46952       4  174548  174573  173863  172724  174560  174582+
+         173865  172729  174552  174574  172726  174550  174546  174558+
+         172727  153366  174564  174583  172731  174563
CHEXA      46953       4  174549  174572  174573  174548  174561  174581+
+         174582  174560  174553  174575  174552  174554  174547  174559+
+         174558  174546  174565  174584  174564  174566
CHEXA      46954       4  174569  174586  174572  174549  174578  174587+
+         174581  174561  174570  174576  174553  174555  174557  174577+
+         174559  174547  174579  174585  174565  174567
CHEXA      46955       4  174544  174569  174549  174527  174545  174578+
+         174561  174534  174571  174555  174556  174531  174532  174557+
+         174547  174507  174580  174567  174568  174537
CHEXA      46956       4  174527  174549  174548  174528  174534  174561+
+         174560  174533  174556  174554  174551  174530  174507  174547+
+         174546  174506  174568  174566  174562  174536
$*  Mesh Collector: Solid(1)
$*  Mesh: 3d_mesh(79)
CHEXA      46945       4  174491  174508  172931  173878  174497  174518+
+         172934  173880  174511  174510  172932  174492  174485  174504+
+         153370  172751  174520  174521  172935  174499
CHEXA      46946       4  174508  174528  173864  172931  174518  174533+
+         173866  172934  174512  174529  172933  174510  174504  174506+
+         172728  153370  174522  174535  172936  174521
CHEXA      46947       4  174509  174527  174528  174508  174519  174534+
+         174533  174518  174513  174530  174512  174514  174505  174507+
+         174506  174504  174523  174536  174522  174524
CHEXA      46948       4  174538  174544  174527  174509  174541  174545+
+         174534  174519  174539  174531  174513  174515  174517  174532+
+         174507  174505  174542  174537  174523  174525
CHEXA      46949       4  174502  174538  174509  174490  174503  174541+
+         174519  174498  174540  174515  174516  174494  174495  174517+
+         174505  174486  174543  174525  174526  174501
CHEXA      46950       4  174490  174509  174508  174491  174498  174519+
+         174518  174497  174516  174514  174511  174493  174486  174505+
+         174504  174485  174526  174524  174520  174500
$*  Mesh Collector: Solid(1)
$*  Mesh: 3d_mesh(75)
CHEXA      46921       4  173872  174303  174314  173885  173873  174308+
+         174319  173886  174306  174296  174315  172929  172743  174295+
+         174300  172757  174312  174298  174321  172930
CHEXA      46922       4  174303  174302  174313  174314  174308  174309+
+         174320  174319  174305  174297  174316  174296  174295  174294+
+         174301  174300  174311  174299  174322  174298
CHEXA      46923       4  174302  174326  174328  174313  174309  174327+
+         174329  174320  174304  174324  174317  174297  174294  174307+
+         174318  174301  174310  174325  174323  174299
$*  Mesh Collector: Solid(1)
$*  Mesh: 3d_mesh(122)
CHEXA      47209       4  176360  176381  172771  173772  176367  176391+
+         172774  173771  176384  176383  172773  176362  176339  176379+
+         153321  172570  176393  176394  172776  176368
CHEXA      47210       4  176381  176051  173781  172771  176391  176073+
+         173782  172774  176385  176052  172772  176383  176379  176024+
+         172581  153321  176395  176077  172775  176394
CHEXA      47211       4  176382  176050  176051  176381  176392  176074+
+         176073  176391  176386  176054  176385  176387  176380  176023+
+         176024  176379  176396  176076  176395  176397
CHEXA      47212       4  176400  176088  176050  176382  176403  176091+
+         176074  176392  176401  176053  176386  176388  176390  176065+
+         176023  176380  176405  176075  176396  176398
CHEXA      47213       4  176377  176400  176382  176361  176378  176403+
+         176392  176366  176402  176388  176389  176364  176365  176390+
+         176380  176340  176404  176398  176399  176370
CHEXA      47214       4  176361  176382  176381  176360  176366  176392+
+         176391  176367  176389  176387  176384  176363  176340  176380+
+         176379  176339  176399  176397  176393  176369
$*  Mesh Collector: Solid(1)
$*  Mesh: 3d_mesh(101)
CHEXA      47077       4  175452  175432  172831  173827  175457  175442+
+         172834  173830  175435  175434  172833  175453  175430  175428+
+         153350  172656  175444  175445  172836  175459
CHEXA      47078       4  175432  175409  173819  172831  175442  175419+
+         173821  172834  175436  175411  172832  175434  175428  175398+
+         172639  153350  175446  175422  172835  175445
CHEXA      47079       4  175433  175410  175409  175432  175443  175418+
+         175419  175442  175437  175413  175436  175438  175429  175397+
+         175398  175428  175447  175421  175446  175448
CHEXA      47080       4  175462  175426  175410  175433  175465  175427+
+         175418  175443  175463  175412  175437  175439  175441  175417+
+         175397  175429  175467  175420  175447  175449
CHEXA      47081       4  175468  175462  175433  175451  175469  175465+
+         175443  175458  175464  175439  175440  175455  175456  175441+
+         175429  175431  175466  175449  175450  175461
CHEXA      47082       4  175451  175433  175432  175452  175458  175443+
+         175442  175457  175440  175438  175435  175454  175431  175429+
+         175428  175430  175450  175448  175444  175460
$*  Mesh Collector: Solid(1)
$*  Mesh: 3d_mesh(84)
CHEXA      46975       4  174737  174716  172813  173813  174743  174726+
+         172816  173814  174719  174718  172814  174739  174736  174714+
+         153338  172633  174728  174729  172817  174745
CHEXA      46976       4  174716  174690  173806  172813  174726  174706+
+         173808  172816  174720  174692  172815  174718  174714  174672+
+         172621  153338  174730  174709  172818  174729
CHEXA      46977       4  174717  174691  174690  174716  174727  174705+
+         174706  174726  174721  174694  174720  174722  174715  174671+
+         174672  174714  174731  174708  174730  174732
CHEXA      46978       4  174748  174710  174691  174717  174751  174713+
+         174705  174727  174749  174693  174721  174723  174725  174696+
+         174671  174715  174753  174707  174731  174733
CHEXA      46979       4  174754  174748  174717  174738  174755  174751+
+         174727  174744  174750  174723  174724  174740  174742  174725+
+         174715  174735  174752  174733  174734  174746
CHEXA      46980       4  174738  174717  174716  174737  174744  174727+
+         174726  174743  174724  174722  174719  174741  174735  174715+
+         174714  174736  174734  174732  174728  174747
$*  Mesh Collector: Solid(1)
$*  Mesh: 3d_mesh(72)
CHEXA      46900       4  174176  174152  172592  173792  174185  174164+
+         172597  173794  174155  174154  172593  174178  174162  174150+
+         153329  172596  174166  174167  172598  174187
CHEXA      46901       4  174152  174132  173791  172592  174164  174137+
+         173793  172597  174156  174133  172594  174154  174150  174110+
+         172595  153329  174168  174139  172599  174167
CHEXA      46902       4  174153  174131  174132  174152  174165  174138+
+         174137  174164  174157  174134  174156  174158  174151  174111+
+         174110  174150  174169  174140  174168  174170
CHEXA      46903       4  174173  174148  174131  174153  174182  174149+
+         174138  174165  174174  174135  174157  174159  174161  174136+
+         174111  174151  174183  174141  174169  174171
CHEXA      46904       4  174190  174173  174153  174177  174191  174182+
+         174165  174186  174175  174159  174160  174179  174181  174161+
+         174151  174163  174184  174171  174172  174189
CHEXA      46905       4  174177  174153  174152  174176  174186  174165+
+         174164  174185  174160  174158  174155  174180  174163  174151+
+         174150  174162  174172  174170  174166  174188
$*  Mesh Collector: Solid(1)
$*  Mesh: 3d_mesh(88)
CHEXA      46999       4  174906  174884  172644  173824  174915  174896+
+         172649  173825  174887  174886  172645  174907  174893  174882+
+         153347  172647  174898  174899  172650  174916
CHEXA      47000       4  174884  174864  173823  172644  174896  174869+
+         173826  172649  174888  174865  172646  174886  174882  174842+
+         172648  153347  174900  174871  172651  174899
CHEXA      47001       4  174885  174863  174864  174884  174897  174870+
+         174869  174896  174889  174866  174888  174890  174883  174843+
+         174842  174882  174901  174872  174900  174902
CHEXA      47002       4  174910  174880  174863  174885  174919  174881+
+         174870  174897  174911  174867  174889  174891  174895  174868+
+         174843  174883  174921  174873  174901  174903
CHEXA      47003       4  174922  174910  174885  174905  174923  174919+
+         174897  174914  174912  174891  174892  174908  174913  174895+
+         174883  174894  174920  174903  174904  174918
CHEXA      47004       4  174905  174885  174884  174906  174914  174897+
+         174896  174915  174892  174890  174887  174909  174894  174883+
+         174882  174893  174904  174902  174898  174917
$*  Mesh Collector: Solid(1)
$*  Mesh: 3d_mesh(69)
CHEXA      46882       4  174048  174026  172789  173797  174053  174036+
+         172792  173800  174029  174028  172791  174049  174046  174024+
+         153330  172605  174038  174039  172794  174055
CHEXA      46883       4  174026  174005  173785  172789  174036  174011+
+         173786  172792  174030  174007  172790  174028  174024  173993+
+         172583  153330  174040  174013  172793  174039
CHEXA      46884       4  174027  174006  174005  174026  174037  174012+
+         174011  174036  174031  174009  174030  174032  174025  173994+
+         173993  174024  174041  174014  174040  174042
CHEXA      46885       4  174058  174022  174006  174027  174061  174023+
+         174012  174037  174059  174008  174031  174033  174035  174010+
+         173994  174025  174063  174015  174041  174043
CHEXA      46886       4  174064  174058  174027  174047  174065  174061+
+         174037  174054  174060  174033  174034  174050  174052  174035+
+         174025  174045  174062  174043  174044  174056
CHEXA      46887       4  174047  174027  174026  174048  174054  174037+
+         174036  174053  174034  174032  174029  174051  174045  174025+
+         174024  174046  174044  174042  174038  174057
$*
$* PROPERTY CARDS
$*
$*  Property: PSOLID4
PSOLID         4       3       0                           SMECH
$*
$* MATERIAL CARDS
$*
$*  Material: Isotropic
MAT1           368900.00        0.3300002.7000-6
$*
$* LOAD AND CONSTRAINT CARDS
$*
$*  Constraint: Fixed(2)
SPC            1  153069  123456  0.0000
SPC            1  153070  123456  0.0000
SPC            1  153071  123456  0.0000
SPC            1  153072  123456  0.0000
SPC            1  153073  123456  0.0000
SPC            1  153074  123456  0.0000
SPC            1  153075  123456  0.0000
SPC            1  153076  123456  0.0000
SPC            1  153077  123456  0.0000
SPC            1  153078  123456  0.0000
SPC            1  153079  123456  0.0000
SPC            1  153080  123456  0.0000
SPC            1  153081  123456  0.0000
SPC            1  153082  123456  0.0000
SPC            1  153083  123456  0.0000
SPC            1  153084  123456  0.0000
SPC            1  153085  123456  0.0000
SPC            1  153086  123456  0.0000
SPC            1  153087  123456  0.0000
SPC            1  153088  123456  0.0000
SPC            1  153089  123456  0.0000
SPC            1  153090  123456  0.0000
SPC            1  153091  123456  0.0000
SPC            1  153092  123456  0.0000
SPC            1  153093  123456  0.0000
SPC            1  153094  123456  0.0000
SPC            1  153095  123456  0.0000
SPC            1  153096  123456  0.0000
SPC            1  153097  123456  0.0000
SPC            1  153098  123456  0.0000
SPC            1  153099  123456  0.0000
SPC            1  153100  123456  0.0000
SPC            1  153101  123456  0.0000
SPC            1  153102  123456  0.0000
SPC            1  153103  123456  0.0000
SPC            1  153104  123456  0.0000
SPC            1  153105  123456  0.0000
SPC            1  153106  123456  0.0000
SPC            1  153107  123456  0.0000
SPC            1  153108  123456  0.0000
SPC            1  153109  123456  0.0000
SPC            1  153110  123456  0.0000
SPC            1  153111  123456  0.0000
SPC            1  153112  123456  0.0000
SPC            1  153113  123456  0.0000
SPC            1  153114  123456  0.0000
SPC            1  153115  123456  0.0000
SPC            1  153116  123456  0.0000
SPC            1  153117  123456  0.0000
SPC            1  153118  123456  0.0000
SPC            1  153119  123456  0.0000
SPC            1  153120  123456  0.0000
SPC            1  172353  123456  0.0000
SPC            1  172354  123456  0.0000
SPC            1  172355  123456  0.0000
SPC            1  172356  123456  0.0000
SPC            1  172357  123456  0.0000
SPC            1  172358  123456  0.0000
SPC            1  172359  123456  0.0000
SPC            1  172360  123456  0.0000
SPC            1  172361  123456  0.0000
SPC            1  172362  123456  0.0000
SPC            1  172363  123456  0.0000
SPC            1  172364  123456  0.0000
SPC            1  172365  123456  0.0000
SPC            1  172366  123456  0.0000
SPC            1  172367  123456  0.0000
SPC            1  172368  123456  0.0000
SPC            1  172369  123456  0.0000
SPC            1  172370  123456  0.0000
SPC            1  172371  123456  0.0000
SPC            1  172372  123456  0.0000
SPC            1  172373  123456  0.0000
SPC            1  172374  123456  0.0000
SPC            1  172375  123456  0.0000
SPC            1  172376  123456  0.0000
SPC            1  172377  123456  0.0000
SPC            1  172378  123456  0.0000
SPC            1  172379  123456  0.0000
SPC            1  172380  123456  0.0000
SPC            1  172381  123456  0.0000
SPC            1  172382  123456  0.0000
SPC            1  172383  123456  0.0000
SPC            1  172384  123456  0.0000
SPC            1  172385  123456  0.0000
SPC            1  172386  123456  0.0000
SPC            1  172387  123456  0.0000
SPC            1  172388  123456  0.0000
SPC            1  172389  123456  0.0000
SPC            1  172390  123456  0.0000
SPC            1  172391  123456  0.0000
SPC            1  172392  123456  0.0000
SPC            1  172393  123456  0.0000
SPC            1  172394  123456  0.0000
SPC            1  172395  123456  0.0000
SPC            1  172396  123456  0.0000
SPC            1  172397  123456  0.0000
SPC            1  172398  123456  0.0000
SPC            1  172399  123456  0.0000
SPC            1  172400  123456  0.0000
SPC            1  172401  123456  0.0000
SPC            1  172402  123456  0.0000
SPC            1  172403  123456  0.0000
SPC            1  172404  123456  0.0000
SPC            1  172405  123456  0.0000
SPC            1  172406  123456  0.0000
SPC            1  172407  123456  0.0000
SPC            1  172408  123456  0.0000
SPC            1  172409  123456  0.0000
SPC            1  172410  123456  0.0000
SPC            1  172411  123456  0.0000
SPC            1  172412  123456  0.0000
SPC            1  172413  123456  0.0000
SPC            1  172414  123456  0.0000
SPC            1  172415  123456  0.0000
SPC            1  172416  123456  0.0000
SPC            1  172417  123456  0.0000
SPC            1  172418  123456  0.0000
SPC            1  172419  123456  0.0000
SPC            1  172420  123456  0.0000
SPC            1  172421  123456  0.0000
SPC            1  172422  123456  0.0000
SPC            1  172423  123456  0.0000
SPC            1  172424  123456  0.0000
SPC            1  172425  123456  0.0000
SPC            1  172426  123456  0.0000
SPC            1  172427  123456  0.0000
SPC            1  172428  123456  0.0000
SPC            1  172429  123456  0.0000
SPC            1  172430  123456  0.0000
SPC            1  172431  123456  0.0000
SPC            1  172432  123456  0.0000
SPC            1  172433  123456  0.0000
SPC            1  172434  123456  0.0000
SPC            1  172435  123456  0.0000
SPC            1  172436  123456  0.0000
SPC            1  172437  123456  0.0000
SPC            1  172438  123456  0.0000
SPC            1  172439  123456  0.0000
SPC            1  172440  123456  0.0000
SPC            1  172441  123456  0.0000
SPC            1  172442  123456  0.0000
SPC            1  172443  123456  0.0000
SPC            1  172444  123456  0.0000
SPC            1  172445  123456  0.0000
SPC            1  172446  123456  0.0000
SPC            1  172447  123456  0.0000
SPC            1  172448  123456  0.0000
SPC            1  172449  123456  0.0000
SPC            1  172450  123456  0.0000
SPC            1  172451  123456  0.0000
SPC            1  172452  123456  0.0000
SPC            1  172453  123456  0.0000
SPC            1  172454  123456  0.0000
SPC            1  172455  123456  0.0000
SPC            1  172456  123456  0.0000
SPC            1  172457  123456  0.0000
SPC            1  172458  123456  0.0000
SPC            1  172459  123456  0.0000
SPC            1  172460  123456  0.0000
SPC            1  172461  123456  0.0000
SPC            1  172462  123456  0.0000
SPC            1  172463  123456  0.0000
SPC            1  172464  123456  0.0000
SPC            1  172465  123456  0.0000
SPC            1  172466  123456  0.0000
SPC            1  172467  123456  0.0000
SPC            1  172468  123456  0.0000
SPC            1  172469  123456  0.0000
SPC            1  172470  123456  0.0000
SPC            1  172471  123456  0.0000
SPC            1  172472  123456  0.0000
SPC            1  172473  123456  0.0000
SPC            1  172474  123456  0.0000
SPC            1  172475  123456  0.0000
SPC            1  172476  123456  0.0000
SPC            1  172477  123456  0.0000
SPC            1  172478  123456  0.0000
SPC            1  172479  123456  0.0000
SPC            1  172480  123456  0.0000
SPC            1  172481  123456  0.0000
SPC            1  172482  123456  0.0000
SPC            1  172483  123456  0.0000
SPC            1  172484  123456  0.0000
SPC            1  172485  123456  0.0000
SPC            1  172486  123456  0.0000
SPC            1  172487  123456  0.0000
SPC            1  172488  123456  0.0000
SPC            1  172489  123456  0.0000
SPC            1  172490  123456  0.0000
SPC            1  172491  123456  0.0000
SPC            1  172492  123456  0.0000
SPC            1  172493  123456  0.0000
SPC            1  172494  123456  0.0000
SPC            1  172495  123456  0.0000
SPC            1  172496  123456  0.0000
SPC            1  172497  123456  0.0000
SPC            1  172498  123456  0.0000
SPC            1  172499  123456  0.0000
SPC            1  172500  123456  0.0000
SPC            1  172501  123456  0.0000
SPC            1  172502  123456  0.0000
SPC            1  172503  123456  0.0000
SPC            1  172504  123456  0.0000
SPC            1  172505  123456  0.0000
SPC            1  172506  123456  0.0000
SPC            1  172507  123456  0.0000
SPC            1  172508  123456  0.0000
SPC            1  172509  123456  0.0000
SPC            1  172510  123456  0.0000
SPC            1  172511  123456  0.0000
SPC            1  172512  123456  0.0000
SPC            1  172513  123456  0.0000
SPC            1  172514  123456  0.0000
SPC            1  172515  123456  0.0000
SPC            1  172516  123456  0.0000
SPC            1  172517  123456  0.0000
SPC            1  172518  123456  0.0000
SPC            1  172519  123456  0.0000
SPC            1  172520  123456  0.0000
SPC            1  172521  123456  0.0000
SPC            1  172522  123456  0.0000
SPC            1  172523  123456  0.0000
SPC            1  172524  123456  0.0000
SPC            1  172525  123456  0.0000
SPC            1  172526  123456  0.0000
SPC            1  172527  123456  0.0000
SPC            1  172528  123456  0.0000
SPC            1  172529  123456  0.0000
SPC            1  172530  123456  0.0000
SPC            1  172531  123456  0.0000
SPC            1  172532  123456  0.0000
SPC            1  172533  123456  0.0000
SPC            1  172534  123456  0.0000
SPC            1  172535  123456  0.0000
SPC            1  172536  123456  0.0000
SPC            1  172537  123456  0.0000
SPC            1  172538  123456  0.0000
SPC            1  172539  123456  0.0000
SPC            1  172540  123456  0.0000
SPC            1  172541  123456  0.0000
SPC            1  172542  123456  0.0000
SPC            1  172543  123456  0.0000
SPC            1  172544  123456  0.0000
SPC            1  172545  123456  0.0000
SPC            1  172546  123456  0.0000
SPC            1  172547  123456  0.0000
SPC            1  172548  123456  0.0000
SPC            1  172549  123456  0.0000
SPC            1  172550  123456  0.0000
SPC            1  172551  123456  0.0000
SPC            1  172552  123456  0.0000
SPC            1  172553  123456  0.0000
SPC            1  172554  123456  0.0000
SPC            1  172555  123456  0.0000
SPC            1  172556  123456  0.0000
SPC            1  172557  123456  0.0000
SPC            1  172558  123456  0.0000
SPC            1  172559  123456  0.0000
SPC            1  172560  123456  0.0000
SPC            1  172561  123456  0.0000
SPC            1  172562  123456  0.0000
SPC            1  172563  123456  0.0000
SPC            1  172564  123456  0.0000
SPC            1  172565  123456  0.0000
SPC            1  172566  123456  0.0000
SPC            1  172567  123456  0.0000
SPC            1  172568  123456  0.0000
SPC            1  173761  123456  0.0000
SPC            1  173762  123456  0.0000
SPC            1  173763  123456  0.0000
SPC            1  173764  123456  0.0000
SPC            1  173765  123456  0.0000
SPC            1  173766  123456  0.0000
SPC            1  173767  123456  0.0000
SPC            1  173768  123456  0.0000
$*  Load: Pressure(1)
PLOAD4         2   43580 -10.000                          153374  173844
PLOAD4         2   43581 -10.000                          153375  172909
PLOAD4         2   43582 -10.000                          153376  173859
PLOAD4         2   43583 -10.000                          153378  173859
PLOAD4         2   43584 -10.000                          153379  172716
PLOAD4         2   43585 -10.000                          153380  173860
PLOAD4         2   43586 -10.000                          153381  172885
PLOAD4         2   43587 -10.000                          153382  173851
PLOAD4         2   43588 -10.000                          153384  173851
PLOAD4         2   43589 -10.000                          153385  172700
PLOAD4         2   43590 -10.000                          153386  173852
PLOAD4         2   43591 -10.000                          153387  172903
PLOAD4         2   43592 -10.000                          153388  173835
PLOAD4         2   43593 -10.000                          153390  173835
PLOAD4         2   43594 -10.000                          153391  172668
PLOAD4         2   43595 -10.000                          153392  173836
PLOAD4         2   43596 -10.000                          153393  172879
PLOAD4         2   43597 -10.000                          153394  173843
PLOAD4         2   43598 -10.000                          153396  173843
PLOAD4         2   43599 -10.000                          153373  172684
PLOAD4         2   43600 -10.000                          153397  172708
PLOAD4         2   43601 -10.000                          153398  173856
PLOAD4         2   43602 -10.000                          153400  173856
PLOAD4         2   43603 -10.000                          153401  172897
PLOAD4         2   43604 -10.000                          153402  173840
PLOAD4         2   43605 -10.000                          153403  172676
PLOAD4         2   43606 -10.000                          153404  173839
PLOAD4         2   43607 -10.000                          153406  173839
PLOAD4         2   43608 -10.000                          153407  172867
PLOAD4         2   43609 -10.000                          153408  173832
PLOAD4         2   43610 -10.000                          153409  172660
PLOAD4         2   43611 -10.000                          153410  173831
PLOAD4         2   43612 -10.000                          153412  173831
PLOAD4         2   43613 -10.000                          153413  172891
PLOAD4         2   43614 -10.000                          153414  173847
PLOAD4         2   43615 -10.000                          153415  172692
PLOAD4         2   43616 -10.000                          153416  173848
PLOAD4         2   43617 -10.000                          153418  173848
PLOAD4         2   43618 -10.000                          153419  172873
PLOAD4         2   43619 -10.000                          153420  173855
PLOAD4         2   43620 -10.000                          153422  173806
PLOAD4         2   43621 -10.000                          153423  172813
PLOAD4         2   43622 -10.000                          153424  173813
PLOAD4         2   43623 -10.000                          153426  173813
PLOAD4         2   43624 -10.000                          153427  172849
PLOAD4         2   43625 -10.000                          153428  173773
PLOAD4         2   43626 -10.000                          153429  172571
PLOAD4         2   43627 -10.000                          153430  173774
PLOAD4         2   43628 -10.000                          153432  173774
PLOAD4         2   43629 -10.000                          153433  172807
PLOAD4         2   43630 -10.000                          153434  173823
PLOAD4         2   43631 -10.000                          153435  172644
PLOAD4         2   43632 -10.000                          153436  173824
PLOAD4         2   43633 -10.000                          153438  173824
PLOAD4         2   43634 -10.000                          153439  172819
PLOAD4         2   43635 -10.000                          153440  173817
PLOAD4         2   43636 -10.000                          153441  172843
PLOAD4         2   43637 -10.000                          153442  173805
PLOAD4         2   43638 -10.000                          153444  173805
PLOAD4         2   43639 -10.000                          153421  172617
PLOAD4         2   43640 -10.000                          153445  172837
PLOAD4         2   43641 -10.000                          153446  173777
PLOAD4         2   43642 -10.000                          153448  173777
PLOAD4         2   43643 -10.000                          153449  172855
PLOAD4         2   43644 -10.000                          153450  173820
PLOAD4         2   43645 -10.000                          153451  172636
PLOAD4         2   43646 -10.000                          153452  173819
PLOAD4         2   43647 -10.000                          153454  173819
PLOAD4         2   43648 -10.000                          153455  172831
PLOAD4         2   43649 -10.000                          153456  173827
PLOAD4         2   43650 -10.000                          153457  172652
PLOAD4         2   43651 -10.000                          153458  173828
PLOAD4         2   43652 -10.000                          153460  173828
PLOAD4         2   43653 -10.000                          153461  172861
PLOAD4         2   43654 -10.000                          153462  173816
PLOAD4         2   43655 -10.000                          153463  172825
PLOAD4         2   43656 -10.000                          153464  173809
PLOAD4         2   43657 -10.000                          153466  173809
PLOAD4         2   43658 -10.000                          153467  172625
PLOAD4         2   43659 -10.000                          153468  173810
PLOAD4         2   43660 -10.000                          173091  172431
PLOAD4         2   43661 -10.000                          153470  173091
PLOAD4         2   43662 -10.000                          153471  173092
PLOAD4         2   43663 -10.000                          153472  173093
PLOAD4         2   43664 -10.000                          153473  173094
PLOAD4         2   43665 -10.000                          153474  173095
PLOAD4         2   43666 -10.000                          153475  173096
PLOAD4         2   43667 -10.000                          153476  173097
PLOAD4         2   43668 -10.000                          153477  173098
PLOAD4         2   43669 -10.000                          153478  173099
PLOAD4         2   43670 -10.000                          153479  173100
PLOAD4         2   43671 -10.000                          153480  173101
PLOAD4         2   43672 -10.000                          153481  173102
PLOAD4         2   43673 -10.000                          153482  173103
PLOAD4         2   43674 -10.000                          153483  173104
PLOAD4         2   43675 -10.000                          153484  173105
PLOAD4         2   43676 -10.000                          153485  173106
PLOAD4         2   43677 -10.000                          153486  173107
PLOAD4         2   43678 -10.000                          153487  173108
PLOAD4         2   43679 -10.000                          153488  173109
PLOAD4         2   43680 -10.000                          153489  173110
PLOAD4         2   43681 -10.000                          153490  173111
PLOAD4         2   43682 -10.000                          153491  173112
PLOAD4         2   43683 -10.000                          153492  173113
PLOAD4         2   43684 -10.000                          153493  173114
PLOAD4         2   43685 -10.000                          153494  173115
PLOAD4         2   43686 -10.000                          153495  173116
PLOAD4         2   43687 -10.000                          153496  173117
PLOAD4         2   43688 -10.000                          153497  173118
PLOAD4         2   43689 -10.000                          153498  173119
PLOAD4         2   43690 -10.000                          153499  173120
PLOAD4         2   43691 -10.000                          153500  173121
PLOAD4         2   43692 -10.000                          153501  173122
PLOAD4         2   43693 -10.000                          153502  173123
PLOAD4         2   43694 -10.000                          153503  173124
PLOAD4         2   43695 -10.000                          172771  173125
PLOAD4         2   43696 -10.000                          153504  172771
PLOAD4         2   43697 -10.000                          153505  173772
PLOAD4         2   43698 -10.000                          153506  172801
PLOAD4         2   43699 -10.000                          153507  173802
PLOAD4         2   43700 -10.000                          153509  173802
PLOAD4         2   43701 -10.000                          153510  172609
PLOAD4         2   43702 -10.000                          153511  173801
PLOAD4         2   43703 -10.000                          153512  172777
PLOAD4         2   43704 -10.000                          153513  173795
PLOAD4         2   43705 -10.000                          153515  173795
PLOAD4         2   43706 -10.000                          153516  172795
PLOAD4         2   43707 -10.000                          153517  173788
PLOAD4         2   43708 -10.000                          173233  172584
PLOAD4         2   43709 -10.000                          153518  173233
PLOAD4         2   43710 -10.000                          153519  173234
PLOAD4         2   43711 -10.000                          153520  173235
PLOAD4         2   43712 -10.000                          153521  173236
PLOAD4         2   43713 -10.000                          153522  173237
PLOAD4         2   43714 -10.000                          153523  173238
PLOAD4         2   43715 -10.000                          153524  173239
PLOAD4         2   43716 -10.000                          153525  173240
PLOAD4         2   43717 -10.000                          153526  173241
PLOAD4         2   43718 -10.000                          153527  173242
PLOAD4         2   43719 -10.000                          153528  173243
PLOAD4         2   43720 -10.000                          153529  173244
PLOAD4         2   43721 -10.000                          153530  173245
PLOAD4         2   43722 -10.000                          153531  173246
PLOAD4         2   43723 -10.000                          153532  173247
PLOAD4         2   43724 -10.000                          153533  173248
PLOAD4         2   43725 -10.000                          153534  173249
PLOAD4         2   43726 -10.000                          153535  173250
PLOAD4         2   43727 -10.000                          153536  173251
PLOAD4         2   43728 -10.000                          153537  173252
PLOAD4         2   43729 -10.000                          153538  173253
PLOAD4         2   43730 -10.000                          153539  173254
PLOAD4         2   43731 -10.000                          153540  173255
PLOAD4         2   43732 -10.000                          153541  173256
PLOAD4         2   43733 -10.000                          153542  173257
PLOAD4         2   43734 -10.000                          153543  173258
PLOAD4         2   43735 -10.000                          153544  173259
PLOAD4         2   43736 -10.000                          153545  173260
PLOAD4         2   43737 -10.000                          153546  173261
PLOAD4         2   43738 -10.000                          172759  173262
PLOAD4         2   43739 -10.000                          153547  172759
PLOAD4         2   43740 -10.000                          153548  173785
PLOAD4         2   43741 -10.000                          153549  172789
PLOAD4         2   43742 -10.000                          153550  173797
PLOAD4         2   43743 -10.000                          153552  173797
PLOAD4         2   43744 -10.000                          153553  172601
PLOAD4         2   43745 -10.000                          153554  173798
PLOAD4         2   43746 -10.000                          153555  172765
PLOAD4         2   43747 -10.000                          153556  173791
PLOAD4         2   43748 -10.000                          153558  173791
PLOAD4         2   43749 -10.000                          153559  172592
PLOAD4         2   43750 -10.000                          153560  173792
PLOAD4         2   43751 -10.000                          173355  172783
PLOAD4         2   43752 -10.000                          153561  173355
PLOAD4         2   43753 -10.000                          153562  173356
PLOAD4         2   43754 -10.000                          153563  173357
PLOAD4         2   43755 -10.000                          153564  173358
PLOAD4         2   43756 -10.000                          153565  173359
PLOAD4         2   43757 -10.000                          153566  173360
PLOAD4         2   43758 -10.000                          153567  173361
PLOAD4         2   43759 -10.000                          153568  173362
PLOAD4         2   43760 -10.000                          153569  173363
PLOAD4         2   43761 -10.000                          153570  173364
PLOAD4         2   43762 -10.000                          153571  173365
PLOAD4         2   43763 -10.000                          153572  173366
PLOAD4         2   43764 -10.000                          153573  173367
PLOAD4         2   43765 -10.000                          153574  173368
PLOAD4         2   43766 -10.000                          153575  173369
PLOAD4         2   43767 -10.000                          153576  173370
PLOAD4         2   43768 -10.000                          153577  173371
PLOAD4         2   43769 -10.000                          153578  173372
PLOAD4         2   43770 -10.000                          153579  173373
PLOAD4         2   43771 -10.000                          153580  173374
PLOAD4         2   43772 -10.000                          153581  173375
PLOAD4         2   43773 -10.000                          153582  173376
PLOAD4         2   43774 -10.000                          153583  173377
PLOAD4         2   43775 -10.000                          153584  173378
PLOAD4         2   43776 -10.000                          153585  173379
PLOAD4         2   43777 -10.000                          153586  173380
PLOAD4         2   43778 -10.000                          153587  173381
PLOAD4         2   43779 -10.000                          153588  173382
PLOAD4         2   43780 -10.000                          153589  173383
PLOAD4         2   43781 -10.000                          153590  173384
PLOAD4         2   43782 -10.000                          153591  173385
PLOAD4         2   43783 -10.000                          153592  173386
PLOAD4         2   43784 -10.000                          153593  173387
PLOAD4         2   43785 -10.000                          153594  173388
PLOAD4         2   43786 -10.000                          172353  173389
PLOAD4         2   43787 -10.000                          153595  172353
PLOAD4         2   43788 -10.000                          153596  172354
PLOAD4         2   43789 -10.000                          153597  172355
PLOAD4         2   43790 -10.000                          153598  172356
PLOAD4         2   43791 -10.000                          153599  172357
PLOAD4         2   43792 -10.000                          153600  172358
PLOAD4         2   43793 -10.000                          153601  172359
PLOAD4         2   43794 -10.000                          153602  172360
PLOAD4         2   43795 -10.000                          153603  172361
PLOAD4         2   43796 -10.000                          153604  172362
PLOAD4         2   43797 -10.000                          153605  172363
PLOAD4         2   43798 -10.000                          153606  172364
PLOAD4         2   43799 -10.000                          153607  172365
PLOAD4         2   43800 -10.000                          153608  172366
PLOAD4         2   43801 -10.000                          153609  172367
PLOAD4         2   43802 -10.000                          153610  172368
PLOAD4         2   43803 -10.000                          153611  172369
PLOAD4         2   43804 -10.000                          153612  172370
PLOAD4         2   43805 -10.000                          153613  172371
PLOAD4         2   43806 -10.000                          153614  172372
PLOAD4         2   43807 -10.000                          153615  172373
PLOAD4         2   43808 -10.000                          153616  172374
PLOAD4         2   43809 -10.000                          153617  172375
PLOAD4         2   43810 -10.000                          153618  172376
PLOAD4         2   43811 -10.000                          153619  172377
PLOAD4         2   43812 -10.000                          173497  172378
PLOAD4         2   43813 -10.000                          153620  173497
PLOAD4         2   43814 -10.000                          153621  173498
PLOAD4         2   43815 -10.000                          153622  173499
PLOAD4         2   43816 -10.000                          153623  173500
PLOAD4         2   43817 -10.000                          153624  173501
PLOAD4         2   43818 -10.000                          153625  173502
PLOAD4         2   43819 -10.000                          153626  173503
PLOAD4         2   43820 -10.000                          153627  173504
PLOAD4         2   43821 -10.000                          153628  173505
PLOAD4         2   43822 -10.000                          153629  173506
PLOAD4         2   43823 -10.000                          153630  173507
PLOAD4         2   43824 -10.000                          153631  173508
PLOAD4         2   43825 -10.000                          153632  173509
PLOAD4         2   43826 -10.000                          153633  173510
PLOAD4         2   43827 -10.000                          153634  173511
PLOAD4         2   43828 -10.000                          153635  173512
PLOAD4         2   43829 -10.000                          153636  173513
PLOAD4         2   43830 -10.000                          153637  173514
PLOAD4         2   43831 -10.000                          153638  173515
PLOAD4         2   43832 -10.000                          153639  173516
PLOAD4         2   43833 -10.000                          153640  173517
PLOAD4         2   43834 -10.000                          153641  173518
PLOAD4         2   43835 -10.000                          153642  173519
PLOAD4         2   43836 -10.000                          153643  173520
PLOAD4         2   43837 -10.000                          153644  173521
PLOAD4         2   43838 -10.000                          153645  173522
PLOAD4         2   43839 -10.000                          153646  173523
PLOAD4         2   43840 -10.000                          153647  173524
PLOAD4         2   43841 -10.000                          153648  173525
PLOAD4         2   43842 -10.000                          153649  173526
PLOAD4         2   43843 -10.000                          153650  173527
PLOAD4         2   43844 -10.000                          153651  173528
PLOAD4         2   43845 -10.000                          153652  173529
PLOAD4         2   43846 -10.000                          153653  173530
PLOAD4         2   43847 -10.000                          173872  173531
PLOAD4         2   43848 -10.000                          153654  173872
PLOAD4         2   43849 -10.000                          153655  172740
PLOAD4         2   43850 -10.000                          153656  173871
PLOAD4         2   43851 -10.000                          153658  173871
PLOAD4         2   43852 -10.000                          153659  172915
PLOAD4         2   43853 -10.000                          153660  173863
PLOAD4         2   43854 -10.000                          153661  172724
PLOAD4         2   43855 -10.000                          153662  173864
PLOAD4         2   43856 -10.000                          153664  173864
PLOAD4         2   43857 -10.000                          153665  172931
PLOAD4         2   43858 -10.000                          173639  173878
PLOAD4         2   43859 -10.000                          153666  173639
PLOAD4         2   43860 -10.000                          153667  173640
PLOAD4         2   43861 -10.000                          153668  173641
PLOAD4         2   43862 -10.000                          153669  173642
PLOAD4         2   43863 -10.000                          153670  173643
PLOAD4         2   43864 -10.000                          153671  173644
PLOAD4         2   43865 -10.000                          153672  173645
PLOAD4         2   43866 -10.000                          153673  173646
PLOAD4         2   43867 -10.000                          153674  173647
PLOAD4         2   43868 -10.000                          153675  173648
PLOAD4         2   43869 -10.000                          153676  173649
PLOAD4         2   43870 -10.000                          153677  173650
PLOAD4         2   43871 -10.000                          153678  173651
PLOAD4         2   43872 -10.000                          153679  173652
PLOAD4         2   43873 -10.000                          153680  173653
PLOAD4         2   43874 -10.000                          153681  173654
PLOAD4         2   43875 -10.000                          153682  173655
PLOAD4         2   43876 -10.000                          153683  173656
PLOAD4         2   43877 -10.000                          153684  173657
PLOAD4         2   43878 -10.000                          153685  173658
PLOAD4         2   43879 -10.000                          153686  173659
PLOAD4         2   43880 -10.000                          153687  173660
PLOAD4         2   43881 -10.000                          153688  173661
PLOAD4         2   43882 -10.000                          153689  173662
PLOAD4         2   43883 -10.000                          153690  173663
PLOAD4         2   43884 -10.000                          153691  173664
PLOAD4         2   43885 -10.000                          153692  173665
PLOAD4         2   43886 -10.000                          153693  173666
PLOAD4         2   43887 -10.000                          153694  173667
PLOAD4         2   43888 -10.000                          173779  173668
PLOAD4         2   43889 -10.000                          153695  173779
PLOAD4         2   43890 -10.000                          153696  172937
PLOAD4         2   43891 -10.000                          153697  173867
PLOAD4         2   43892 -10.000                          153699  173867
PLOAD4         2   43893 -10.000                          153700  172732
PLOAD4         2   43894 -10.000                          153701  173868
PLOAD4         2   43895 -10.000                          153702  172921
PLOAD4         2   43896 -10.000                          153703  173875
PLOAD4         2   43897 -10.000                          153705  173875
PLOAD4         2   43898 -10.000                          153706  172943
PLOAD4         2   43899 -10.000                          172949  173881
PLOAD4         2   43900 -10.000                          153707  172949
PLOAD4         2   43901 -10.000                          153708  172950
PLOAD4         2   43902 -10.000                          153709  172951
PLOAD4         2   43903 -10.000                          153710  172952
PLOAD4         2   43904 -10.000                          153711  172953
PLOAD4         2   43905 -10.000                          153712  172954
PLOAD4         2   43906 -10.000                          153713  172955
PLOAD4         2   43907 -10.000                          153714  172956
PLOAD4         2   43908 -10.000                          153715  172957
PLOAD4         2   43909 -10.000                          153716  172958
PLOAD4         2   43910 -10.000                          153717  172959
PLOAD4         2   43911 -10.000                          153718  172960
PLOAD4         2   43912 -10.000                          153719  172961
PLOAD4         2   43913 -10.000                          153720  172962
PLOAD4         2   43914 -10.000                          153721  172963
PLOAD4         2   43915 -10.000                          153722  172964
PLOAD4         2   43916 -10.000                          153723  172965
PLOAD4         2   43917 -10.000                          153724  172966
PLOAD4         2   43918 -10.000                          153725  172967
PLOAD4         2   43919 -10.000                          153726  172968
PLOAD4         2   43920 -10.000                          153727  172969
PLOAD4         2   43921 -10.000                          153728  172970
PLOAD4         2   43922 -10.000                          153729  172971
PLOAD4         2   43923 -10.000                          153730  172972
PLOAD4         2   43924 -10.000                          153731  172973
PLOAD4         2   43925 -10.000                          153732  172974
PLOAD4         2   43926 -10.000                          153733  172975
PLOAD4         2   43927 -10.000                          153734  172976
PLOAD4         2   43928 -10.000                          153735  172977
PLOAD4         2   43929 -10.000                          153736  172978
PLOAD4         2   43930 -10.000                          153737  172979
PLOAD4         2   43931 -10.000                          153738  172980
PLOAD4         2   43932 -10.000                          153739  172981
PLOAD4         2   43933 -10.000                          153740  172982
PLOAD4         2   43934 -10.000                          172406  172983
PLOAD4         2   43935 -10.000                          153741  172406
PLOAD4         2   43936 -10.000                          153742  172407
PLOAD4         2   43937 -10.000                          153743  172408
PLOAD4         2   43938 -10.000                          153744  172409
PLOAD4         2   43939 -10.000                          153745  172410
PLOAD4         2   43940 -10.000                          153746  172411
PLOAD4         2   43941 -10.000                          153747  172412
PLOAD4         2   43942 -10.000                          153748  172413
PLOAD4         2   43943 -10.000                          153749  172414
PLOAD4         2   43944 -10.000                          153750  172415
PLOAD4         2   43945 -10.000                          153751  172416
PLOAD4         2   43946 -10.000                          153752  172417
PLOAD4         2   43947 -10.000                          153753  172418
PLOAD4         2   43948 -10.000                          153754  172419
PLOAD4         2   43949 -10.000                          153755  172420
PLOAD4         2   43950 -10.000                          153756  172421
PLOAD4         2   43951 -10.000                          153757  172422
PLOAD4         2   43952 -10.000                          153758  172423
PLOAD4         2   43953 -10.000                          153759  172424
PLOAD4         2   43954 -10.000                          153760  172425
PLOAD4         2   43955 -10.000                          153761  172426
PLOAD4         2   43956 -10.000                          153762  172427
PLOAD4         2   43957 -10.000                          153763  172428
PLOAD4         2   43958 -10.000                          153764  172429
PLOAD4         2   43959 -10.000                          153469  172430
PLOAD4         2   43960 -10.000                          153594  153855
PLOAD4         2   43961 -10.000                          153441  153594
PLOAD4         2   43962 -10.000                          153857  153437
PLOAD4         2   43963 -10.000                          153857  153439
PLOAD4         2   43964 -10.000                          153596  153857
PLOAD4         2   43965 -10.000                          153858  153441
PLOAD4         2   43966 -10.000                          153858  153596
PLOAD4         2   43967 -10.000                          153439  153858
PLOAD4         2   43968 -10.000                          153894  153403
PLOAD4         2   43969 -10.000                          153616  153894
PLOAD4         2   43970 -10.000                          153895  153403
PLOAD4         2   43971 -10.000                          153895  153876
PLOAD4         2   43972 -10.000                          153616  153895
PLOAD4         2   43973 -10.000                          153615  153877
PLOAD4         2   43974 -10.000                          153614  153878
PLOAD4         2   43975 -10.000                          153613  153879
PLOAD4         2   43976 -10.000                          153612  153880
PLOAD4         2   43977 -10.000                          153611  153881
PLOAD4         2   43978 -10.000                          153610  153882
PLOAD4         2   43979 -10.000                          153609  153883
PLOAD4         2   43980 -10.000                          153608  153884
PLOAD4         2   43981 -10.000                          153607  153885
PLOAD4         2   43982 -10.000                          153606  153886
PLOAD4         2   43983 -10.000                          153605  153887
PLOAD4         2   43984 -10.000                          153604  153888
PLOAD4         2   43985 -10.000                          153603  153889
PLOAD4         2   43986 -10.000                          153602  153890
PLOAD4         2   43987 -10.000                          153601  153891
PLOAD4         2   43988 -10.000                          153600  153892
PLOAD4         2   43989 -10.000                          153599  153436
PLOAD4         2   43990 -10.000                          153598  153437
PLOAD4         2   43991 -10.000                          153897  153913
PLOAD4         2   43992 -10.000                          153898  153914
PLOAD4         2   43993 -10.000                          153899  153915
PLOAD4         2   43994 -10.000                          153900  153916
PLOAD4         2   43995 -10.000                          153901  153917
PLOAD4         2   43996 -10.000                          153902  153918
PLOAD4         2   43997 -10.000                          153903  153919
PLOAD4         2   43998 -10.000                          153904  153920
PLOAD4         2   43999 -10.000                          153905  153921
PLOAD4         2   44000 -10.000                          153906  153922
PLOAD4         2   44001 -10.000                          153907  153923
PLOAD4         2   44002 -10.000                          153908  153924
PLOAD4         2   44003 -10.000                          153909  153925
PLOAD4         2   44004 -10.000                          153910  153926
PLOAD4         2   44005 -10.000                          153911  153927
PLOAD4         2   44006 -10.000                          153912  153928
PLOAD4         2   44007 -10.000                          153914  153930
PLOAD4         2   44008 -10.000                          153915  153931
PLOAD4         2   44009 -10.000                          153916  153932
PLOAD4         2   44010 -10.000                          153917  153933
PLOAD4         2   44011 -10.000                          153918  153934
PLOAD4         2   44012 -10.000                          153919  153935
PLOAD4         2   44013 -10.000                          153920  153936
PLOAD4         2   44014 -10.000                          153921  153937
PLOAD4         2   44015 -10.000                          153922  153938
PLOAD4         2   44016 -10.000                          153923  153939
PLOAD4         2   44017 -10.000                          153924  153940
PLOAD4         2   44018 -10.000                          153925  153941
PLOAD4         2   44019 -10.000                          153926  153942
PLOAD4         2   44020 -10.000                          153927  153943
PLOAD4         2   44021 -10.000                          153928  153944
PLOAD4         2   44022 -10.000                          153929  153945
PLOAD4         2   44023 -10.000                          153931  153947
PLOAD4         2   44024 -10.000                          153932  153948
PLOAD4         2   44025 -10.000                          153933  153949
PLOAD4         2   44026 -10.000                          153934  153950
PLOAD4         2   44027 -10.000                          153935  153951
PLOAD4         2   44028 -10.000                          153936  153952
PLOAD4         2   44029 -10.000                          153937  153953
PLOAD4         2   44030 -10.000                          153938  153954
PLOAD4         2   44031 -10.000                          153939  153955
PLOAD4         2   44032 -10.000                          153940  153956
PLOAD4         2   44033 -10.000                          153941  153957
PLOAD4         2   44034 -10.000                          153942  153958
PLOAD4         2   44035 -10.000                          153943  153959
PLOAD4         2   44036 -10.000                          153944  153960
PLOAD4         2   44037 -10.000                          153945  153961
PLOAD4         2   44038 -10.000                          153946  153962
PLOAD4         2   44039 -10.000                          153948  153964
PLOAD4         2   44040 -10.000                          153949  153965
PLOAD4         2   44041 -10.000                          153950  153966
PLOAD4         2   44042 -10.000                          153951  153967
PLOAD4         2   44043 -10.000                          153952  153968
PLOAD4         2   44044 -10.000                          153953  153969
PLOAD4         2   44045 -10.000                          153954  153970
PLOAD4         2   44046 -10.000                          153955  153971
PLOAD4         2   44047 -10.000                          153956  153972
PLOAD4         2   44048 -10.000                          153957  153973
PLOAD4         2   44049 -10.000                          153958  153974
PLOAD4         2   44050 -10.000                          153959  153975
PLOAD4         2   44051 -10.000                          153960  153976
PLOAD4         2   44052 -10.000                          153961  153977
PLOAD4         2   44053 -10.000                          153962  153978
PLOAD4         2   44054 -10.000                          153963  153979
PLOAD4         2   44055 -10.000                          153876  153405
PLOAD4         2   44056 -10.000                          153896  153406
PLOAD4         2   44057 -10.000                          153913  153407
PLOAD4         2   44058 -10.000                          153930  153408
PLOAD4         2   44059 -10.000                          153947  153409
PLOAD4         2   44060 -10.000                          153964  153410
PLOAD4         2   44061 -10.000                          153965  153859
PLOAD4         2   44062 -10.000                          153966  153860
PLOAD4         2   44063 -10.000                          153967  153861
PLOAD4         2   44064 -10.000                          153968  153862
PLOAD4         2   44065 -10.000                          153969  153863
PLOAD4         2   44066 -10.000                          153970  153864
PLOAD4         2   44067 -10.000                          153971  153865
PLOAD4         2   44068 -10.000                          153972  153866
PLOAD4         2   44069 -10.000                          153973  153867
PLOAD4         2   44070 -10.000                          153974  153868
PLOAD4         2   44071 -10.000                          153975  153869
PLOAD4         2   44072 -10.000                          153976  153870
PLOAD4         2   44073 -10.000                          153977  153871
PLOAD4         2   44074 -10.000                          153978  153872
PLOAD4         2   44075 -10.000                          153979  153873
PLOAD4         2   44076 -10.000                          153980  153874
PLOAD4         2   44077 -10.000                          153431  153875
PLOAD4         2   44078 -10.000                          153432  153980
PLOAD4         2   44079 -10.000                          153433  153963
PLOAD4         2   44080 -10.000                          153434  153946
PLOAD4         2   44081 -10.000                          153435  153929
PLOAD4         2   44082 -10.000                          153436  153912
PLOAD4         2   44083 -10.000                          153892  153911
PLOAD4         2   44084 -10.000                          153891  153910
PLOAD4         2   44085 -10.000                          153890  153909
PLOAD4         2   44086 -10.000                          153889  153908
PLOAD4         2   44087 -10.000                          153888  153907
PLOAD4         2   44088 -10.000                          153887  153906
PLOAD4         2   44089 -10.000                          153886  153905
PLOAD4         2   44090 -10.000                          153885  153904
PLOAD4         2   44091 -10.000                          153884  153903
PLOAD4         2   44092 -10.000                          153883  153902
PLOAD4         2   44093 -10.000                          153882  153901
PLOAD4         2   44094 -10.000                          153881  153900
PLOAD4         2   44095 -10.000                          153880  153899
PLOAD4         2   44096 -10.000                          153879  153898
PLOAD4         2   44097 -10.000                          153878  153897
PLOAD4         2   44098 -10.000                          153877  153896
PLOAD4         2   44099 -10.000                          153983  153618
PLOAD4         2   44100 -10.000                          153399  153983
PLOAD4         2   44101 -10.000                          153984  153620
PLOAD4         2   44102 -10.000                          153984  153399
PLOAD4         2   44103 -10.000                          153618  153984
PLOAD4         2   44104 -10.000                          153985  153416
PLOAD4         2   44105 -10.000                          153623  153985
PLOAD4         2   44106 -10.000                          153987  153398
PLOAD4         2   44107 -10.000                          153987  153621
PLOAD4         2   44108 -10.000                          153420  153987
PLOAD4         2   44109 -10.000                          153988  153420
PLOAD4         2   44110 -10.000                          153621  153988
PLOAD4         2   44111 -10.000                          153851  153995
PLOAD4         2   44112 -10.000                          153850  153996
PLOAD4         2   44113 -10.000                          153849  153997
PLOAD4         2   44114 -10.000                          153848  153998
PLOAD4         2   44115 -10.000                          153847  153999
PLOAD4         2   44116 -10.000                          153846  154000
PLOAD4         2   44117 -10.000                          153854  153992
PLOAD4         2   44118 -10.000                          153853  153993
PLOAD4         2   44119 -10.000                          153852  153994
PLOAD4         2   44120 -10.000                          154014  153560
PLOAD4         2   44121 -10.000                          154014  153989
PLOAD4         2   44122 -10.000                          153558  154014
PLOAD4         2   44123 -10.000                          153556  153991
PLOAD4         2   44124 -10.000                          154015  153558
PLOAD4         2   44125 -10.000                          154015  153989
PLOAD4         2   44126 -10.000                          153556  154015
PLOAD4         2   44127 -10.000                          153845  154001
PLOAD4         2   44128 -10.000                          153844  154002
PLOAD4         2   44129 -10.000                          153843  154003
PLOAD4         2   44130 -10.000                          153842  154004
PLOAD4         2   44131 -10.000                          153841  154005
PLOAD4         2   44132 -10.000                          153840  154006
PLOAD4         2   44133 -10.000                          153839  154007
PLOAD4         2   44134 -10.000                          153838  154008
PLOAD4         2   44135 -10.000                          153837  154009
PLOAD4         2   44136 -10.000                          153836  154010
PLOAD4         2   44137 -10.000                          153835  154011
PLOAD4         2   44138 -10.000                          153834  154012
PLOAD4         2   44139 -10.000                          153833  153656
PLOAD4         2   44140 -10.000                          154064  154041
PLOAD4         2   44141 -10.000                          154065  154070
PLOAD4         2   44142 -10.000                          153412  154066
PLOAD4         2   44143 -10.000                          154067  153412
PLOAD4         2   44144 -10.000                          154072  154069
PLOAD4         2   44145 -10.000                          154072  154066
PLOAD4         2   44146 -10.000                          154067  154072
PLOAD4         2   44147 -10.000                          154040  153626
PLOAD4         2   44148 -10.000                          154070  154040
PLOAD4         2   44149 -10.000                          154074  153623
PLOAD4         2   44150 -10.000                          153414  154067
PLOAD4         2   44151 -10.000                          153415  154075
PLOAD4         2   44152 -10.000                          154073  153625
PLOAD4         2   44153 -10.000                          154069  154073
PLOAD4         2   44154 -10.000                          154078  154067
PLOAD4         2   44155 -10.000                          154069  154078
PLOAD4         2   44156 -10.000                          154043  154064
PLOAD4         2   44157 -10.000                          154081  154043
PLOAD4         2   44158 -10.000                          154082  154044
PLOAD4         2   44159 -10.000                          154083  154045
PLOAD4         2   44160 -10.000                          154084  154046
PLOAD4         2   44161 -10.000                          154085  154047
PLOAD4         2   44162 -10.000                          154086  154048
PLOAD4         2   44163 -10.000                          154087  154049
PLOAD4         2   44164 -10.000                          154088  154050
PLOAD4         2   44165 -10.000                          154089  154051
PLOAD4         2   44166 -10.000                          154090  154052
PLOAD4         2   44167 -10.000                          154091  154053
PLOAD4         2   44168 -10.000                          154092  154054
PLOAD4         2   44169 -10.000                          154093  154055
PLOAD4         2   44170 -10.000                          154094  154056
PLOAD4         2   44171 -10.000                          154095  154057
PLOAD4         2   44172 -10.000                          154096  154058
PLOAD4         2   44173 -10.000                          154097  154059
PLOAD4         2   44174 -10.000                          154098  154060
PLOAD4         2   44175 -10.000                          154099  154061
PLOAD4         2   44176 -10.000                          154100  154062
PLOAD4         2   44177 -10.000                          153587  154063
PLOAD4         2   44178 -10.000                          154101  153587
PLOAD4         2   44179 -10.000                          154102  153588
PLOAD4         2   44180 -10.000                          153424  153589
PLOAD4         2   44181 -10.000                          154103  153424
PLOAD4         2   44182 -10.000                          154104  153425
PLOAD4         2   44183 -10.000                          154105  153426
PLOAD4         2   44184 -10.000                          154106  153427
PLOAD4         2   44185 -10.000                          154107  153428
PLOAD4         2   44186 -10.000                          154108  153429
PLOAD4         2   44187 -10.000                          154109  153430
PLOAD4         2   44188 -10.000                          154110  153875
PLOAD4         2   44189 -10.000                          154111  153874
PLOAD4         2   44190 -10.000                          154112  153873
PLOAD4         2   44191 -10.000                          154113  153872
PLOAD4         2   44192 -10.000                          154114  153871
PLOAD4         2   44193 -10.000                          154115  153870
PLOAD4         2   44194 -10.000                          154116  153869
PLOAD4         2   44195 -10.000                          154117  153868
PLOAD4         2   44196 -10.000                          154118  153867
PLOAD4         2   44197 -10.000                          154119  153866
PLOAD4         2   44198 -10.000                          154120  153865
PLOAD4         2   44199 -10.000                          154121  153864
PLOAD4         2   44200 -10.000                          154122  153863
PLOAD4         2   44201 -10.000                          154123  153862
PLOAD4         2   44202 -10.000                          154124  153861
PLOAD4         2   44203 -10.000                          154125  153860
PLOAD4         2   44204 -10.000                          154126  153859
PLOAD4         2   44205 -10.000                          154066  153410
PLOAD4         2   44206 -10.000                          154127  154066
PLOAD4         2   44207 -10.000                          154080  154065
PLOAD4         2   44208 -10.000                          154101  154099
PLOAD4         2   44209 -10.000                          154132  154104
PLOAD4         2   44210 -10.000                          154132  154131
PLOAD4         2   44211 -10.000                          154102  154132
PLOAD4         2   44212 -10.000                          154131  154098
PLOAD4         2   44213 -10.000                          154128  154131
PLOAD4         2   44214 -10.000                          154128  154106
PLOAD4         2   44215 -10.000                          154104  154128
PLOAD4         2   44216 -10.000                          154125  154136
PLOAD4         2   44217 -10.000                          154127  154125
PLOAD4         2   44218 -10.000                          154138  154081
PLOAD4         2   44219 -10.000                          154138  154136
PLOAD4         2   44220 -10.000                          154127  154138
PLOAD4         2   44221 -10.000                          154081  154133
PLOAD4         2   44222 -10.000                          154135  154134
PLOAD4         2   44223 -10.000                          154136  154123
PLOAD4         2   44224 -10.000                          154140  154141
PLOAD4         2   44225 -10.000                          154142  154143
PLOAD4         2   44226 -10.000                          154144  154145
PLOAD4         2   44227 -10.000                          154146  154147
PLOAD4         2   44228 -10.000                          154148  154149
PLOAD4         2   44229 -10.000                          154150  154151
PLOAD4         2   44230 -10.000                          154152  154153
PLOAD4         2   44231 -10.000                          154154  154155
PLOAD4         2   44232 -10.000                          154156  154157
PLOAD4         2   44233 -10.000                          154158  154159
PLOAD4         2   44234 -10.000                          154160  154161
PLOAD4         2   44235 -10.000                          154162  154163
PLOAD4         2   44236 -10.000                          154164  154165
PLOAD4         2   44237 -10.000                          154166  154167
PLOAD4         2   44238 -10.000                          154133  154083
PLOAD4         2   44239 -10.000                          154139  154084
PLOAD4         2   44240 -10.000                          154141  154085
PLOAD4         2   44241 -10.000                          154143  154086
PLOAD4         2   44242 -10.000                          154145  154087
PLOAD4         2   44243 -10.000                          154147  154088
PLOAD4         2   44244 -10.000                          154149  154089
PLOAD4         2   44245 -10.000                          154151  154090
PLOAD4         2   44246 -10.000                          154153  154091
PLOAD4         2   44247 -10.000                          154155  154092
PLOAD4         2   44248 -10.000                          154157  154093
PLOAD4         2   44249 -10.000                          154159  154094
PLOAD4         2   44250 -10.000                          154161  154095
PLOAD4         2   44251 -10.000                          154163  154096
PLOAD4         2   44252 -10.000                          154165  154097
PLOAD4         2   44253 -10.000                          154167  154098
PLOAD4         2   44254 -10.000                          154168  154129
PLOAD4         2   44255 -10.000                          154108  154128
PLOAD4         2   44256 -10.000                          154109  154168
PLOAD4         2   44257 -10.000                          154110  154166
PLOAD4         2   44258 -10.000                          154111  154164
PLOAD4         2   44259 -10.000                          154112  154162
PLOAD4         2   44260 -10.000                          154113  154160
PLOAD4         2   44261 -10.000                          154114  154158
PLOAD4         2   44262 -10.000                          154115  154156
PLOAD4         2   44263 -10.000                          154116  154154
PLOAD4         2   44264 -10.000                          154117  154152
PLOAD4         2   44265 -10.000                          154118  154150
PLOAD4         2   44266 -10.000                          154119  154148
PLOAD4         2   44267 -10.000                          154120  154146
PLOAD4         2   44268 -10.000                          154121  154144
PLOAD4         2   44269 -10.000                          154122  154142
PLOAD4         2   44270 -10.000                          154123  154140
PLOAD4         2   44271 -10.000                          154134  154139
PLOAD4         2   44272 -10.000                          153628  154040
PLOAD4         2   44273 -10.000                          154170  153628
PLOAD4         2   44274 -10.000                          154171  153629
PLOAD4         2   44275 -10.000                          154172  153630
PLOAD4         2   44276 -10.000                          154173  153631
PLOAD4         2   44277 -10.000                          154174  153632
PLOAD4         2   44278 -10.000                          154175  153633
PLOAD4         2   44279 -10.000                          154176  153634
PLOAD4         2   44280 -10.000                          154016  153635
PLOAD4         2   44281 -10.000                          154177  154016
PLOAD4         2   44282 -10.000                          154178  154017
PLOAD4         2   44283 -10.000                          154179  154018
PLOAD4         2   44284 -10.000                          154180  154019
PLOAD4         2   44285 -10.000                          154181  154020
PLOAD4         2   44286 -10.000                          154182  154021
PLOAD4         2   44287 -10.000                          154183  154022
PLOAD4         2   44288 -10.000                          154184  154023
PLOAD4         2   44289 -10.000                          154185  154024
PLOAD4         2   44290 -10.000                          154186  154025
PLOAD4         2   44291 -10.000                          154187  154026
PLOAD4         2   44292 -10.000                          154188  154027
PLOAD4         2   44293 -10.000                          154189  154028
PLOAD4         2   44294 -10.000                          154190  154029
PLOAD4         2   44295 -10.000                          154191  154030
PLOAD4         2   44296 -10.000                          154192  154031
PLOAD4         2   44297 -10.000                          154193  154032
PLOAD4         2   44298 -10.000                          154194  154033
PLOAD4         2   44299 -10.000                          154195  154034
PLOAD4         2   44300 -10.000                          154196  154035
PLOAD4         2   44301 -10.000                          154197  154036
PLOAD4         2   44302 -10.000                          154198  154037
PLOAD4         2   44303 -10.000                          154199  154038
PLOAD4         2   44304 -10.000                          153578  154039
PLOAD4         2   44305 -10.000                          154200  153578
PLOAD4         2   44306 -10.000                          154201  153579
PLOAD4         2   44307 -10.000                          154202  153580
PLOAD4         2   44308 -10.000                          154203  153581
PLOAD4         2   44309 -10.000                          154204  153582
PLOAD4         2   44310 -10.000                          154205  153583
PLOAD4         2   44311 -10.000                          154206  153584
PLOAD4         2   44312 -10.000                          154063  153585
PLOAD4         2   44313 -10.000                          154207  154063
PLOAD4         2   44314 -10.000                          154208  154062
PLOAD4         2   44315 -10.000                          154209  154061
PLOAD4         2   44316 -10.000                          154210  154060
PLOAD4         2   44317 -10.000                          154211  154059
PLOAD4         2   44318 -10.000                          154212  154058
PLOAD4         2   44319 -10.000                          154213  154057
PLOAD4         2   44320 -10.000                          154214  154056
PLOAD4         2   44321 -10.000                          154215  154055
PLOAD4         2   44322 -10.000                          154216  154054
PLOAD4         2   44323 -10.000                          154217  154053
PLOAD4         2   44324 -10.000                          154218  154052
PLOAD4         2   44325 -10.000                          154219  154051
PLOAD4         2   44326 -10.000                          154220  154050
PLOAD4         2   44327 -10.000                          154221  154049
PLOAD4         2   44328 -10.000                          154222  154048
PLOAD4         2   44329 -10.000                          154223  154047
PLOAD4         2   44330 -10.000                          154224  154046
PLOAD4         2   44331 -10.000                          154225  154045
PLOAD4         2   44332 -10.000                          154226  154044
PLOAD4         2   44333 -10.000                          154227  154043
PLOAD4         2   44334 -10.000                          154228  154042
PLOAD4         2   44335 -10.000                          154169  154041
PLOAD4         2   44336 -10.000                          154170  154228
PLOAD4         2   44337 -10.000                          154230  154170
PLOAD4         2   44338 -10.000                          154231  154171
PLOAD4         2   44339 -10.000                          154232  154172
PLOAD4         2   44340 -10.000                          154233  154173
PLOAD4         2   44341 -10.000                          154234  154174
PLOAD4         2   44342 -10.000                          154177  154175
PLOAD4         2   44343 -10.000                          154235  154177
PLOAD4         2   44344 -10.000                          154236  154178
PLOAD4         2   44345 -10.000                          154237  154179
PLOAD4         2   44346 -10.000                          154238  154180
PLOAD4         2   44347 -10.000                          154239  154181
PLOAD4         2   44348 -10.000                          154240  154182
PLOAD4         2   44349 -10.000                          154241  154183
PLOAD4         2   44350 -10.000                          154242  154184
PLOAD4         2   44351 -10.000                          154243  154185
PLOAD4         2   44352 -10.000                          154244  154186
PLOAD4         2   44353 -10.000                          154245  154187
PLOAD4         2   44354 -10.000                          154246  154188
PLOAD4         2   44355 -10.000                          154247  154189
PLOAD4         2   44356 -10.000                          154248  154190
PLOAD4         2   44357 -10.000                          154249  154191
PLOAD4         2   44358 -10.000                          154250  154192
PLOAD4         2   44359 -10.000                          154251  154193
PLOAD4         2   44360 -10.000                          154252  154194
PLOAD4         2   44361 -10.000                          154253  154195
PLOAD4         2   44362 -10.000                          154254  154196
PLOAD4         2   44363 -10.000                          154255  154197
PLOAD4         2   44364 -10.000                          154200  154198
PLOAD4         2   44365 -10.000                          154256  154200
PLOAD4         2   44366 -10.000                          154257  154201
PLOAD4         2   44367 -10.000                          154258  154202
PLOAD4         2   44368 -10.000                          154259  154203
PLOAD4         2   44369 -10.000                          154260  154204
PLOAD4         2   44370 -10.000                          154207  154205
PLOAD4         2   44371 -10.000                          154261  154207
PLOAD4         2   44372 -10.000                          154262  154208
PLOAD4         2   44373 -10.000                          154263  154209
PLOAD4         2   44374 -10.000                          154264  154210
PLOAD4         2   44375 -10.000                          154265  154211
PLOAD4         2   44376 -10.000                          154266  154212
PLOAD4         2   44377 -10.000                          154267  154213
PLOAD4         2   44378 -10.000                          154268  154214
PLOAD4         2   44379 -10.000                          154269  154215
PLOAD4         2   44380 -10.000                          154270  154216
PLOAD4         2   44381 -10.000                          154271  154217
PLOAD4         2   44382 -10.000                          154272  154218
PLOAD4         2   44383 -10.000                          154273  154219
PLOAD4         2   44384 -10.000                          154274  154220
PLOAD4         2   44385 -10.000                          154275  154221
PLOAD4         2   44386 -10.000                          154276  154222
PLOAD4         2   44387 -10.000                          154277  154223
PLOAD4         2   44388 -10.000                          154278  154224
PLOAD4         2   44389 -10.000                          154279  154225
PLOAD4         2   44390 -10.000                          154280  154226
PLOAD4         2   44391 -10.000                          154229  154227
PLOAD4         2   44392 -10.000                          154230  154280
PLOAD4         2   44393 -10.000                          154282  154230
PLOAD4         2   44394 -10.000                          154283  154231
PLOAD4         2   44395 -10.000                          154284  154232
PLOAD4         2   44396 -10.000                          154235  154233
PLOAD4         2   44397 -10.000                          154285  154235
PLOAD4         2   44398 -10.000                          154286  154236
PLOAD4         2   44399 -10.000                          154287  154237
PLOAD4         2   44400 -10.000                          154288  154238
PLOAD4         2   44401 -10.000                          154289  154239
PLOAD4         2   44402 -10.000                          154290  154240
PLOAD4         2   44403 -10.000                          154291  154241
PLOAD4         2   44404 -10.000                          154292  154242
PLOAD4         2   44405 -10.000                          154293  154243
PLOAD4         2   44406 -10.000                          154294  154244
PLOAD4         2   44407 -10.000                          154295  154245
PLOAD4         2   44408 -10.000                          154296  154246
PLOAD4         2   44409 -10.000                          154297  154247
PLOAD4         2   44410 -10.000                          154298  154248
PLOAD4         2   44411 -10.000                          154299  154249
PLOAD4         2   44412 -10.000                          154300  154250
PLOAD4         2   44413 -10.000                          154301  154251
PLOAD4         2   44414 -10.000                          154302  154252
PLOAD4         2   44415 -10.000                          154303  154253
PLOAD4         2   44416 -10.000                          154256  154254
PLOAD4         2   44417 -10.000                          154304  154256
PLOAD4         2   44418 -10.000                          154305  154257
PLOAD4         2   44419 -10.000                          154306  154258
PLOAD4         2   44420 -10.000                          154261  154259
PLOAD4         2   44421 -10.000                          154307  154261
PLOAD4         2   44422 -10.000                          154308  154262
PLOAD4         2   44423 -10.000                          154309  154263
PLOAD4         2   44424 -10.000                          154310  154264
PLOAD4         2   44425 -10.000                          154311  154265
PLOAD4         2   44426 -10.000                          154312  154266
PLOAD4         2   44427 -10.000                          154313  154267
PLOAD4         2   44428 -10.000                          154314  154268
PLOAD4         2   44429 -10.000                          154315  154269
PLOAD4         2   44430 -10.000                          154316  154270
PLOAD4         2   44431 -10.000                          154317  154271
PLOAD4         2   44432 -10.000                          154318  154272
PLOAD4         2   44433 -10.000                          154319  154273
PLOAD4         2   44434 -10.000                          154320  154274
PLOAD4         2   44435 -10.000                          154321  154275
PLOAD4         2   44436 -10.000                          154322  154276
PLOAD4         2   44437 -10.000                          154323  154277
PLOAD4         2   44438 -10.000                          154324  154278
PLOAD4         2   44439 -10.000                          154281  154279
PLOAD4         2   44440 -10.000                          154282  154324
PLOAD4         2   44441 -10.000                          154326  154282
PLOAD4         2   44442 -10.000                          154285  154283
PLOAD4         2   44443 -10.000                          154327  154285
PLOAD4         2   44444 -10.000                          154328  154286
PLOAD4         2   44445 -10.000                          154329  154287
PLOAD4         2   44446 -10.000                          154330  154288
PLOAD4         2   44447 -10.000                          154331  154289
PLOAD4         2   44448 -10.000                          154332  154290
PLOAD4         2   44449 -10.000                          154333  154291
PLOAD4         2   44450 -10.000                          154334  154292
PLOAD4         2   44451 -10.000                          154335  154293
PLOAD4         2   44452 -10.000                          154336  154294
PLOAD4         2   44453 -10.000                          154337  154295
PLOAD4         2   44454 -10.000                          154338  154296
PLOAD4         2   44455 -10.000                          154339  154297
PLOAD4         2   44456 -10.000                          154340  154298
PLOAD4         2   44457 -10.000                          154341  154299
PLOAD4         2   44458 -10.000                          154342  154300
PLOAD4         2   44459 -10.000                          154343  154301
PLOAD4         2   44460 -10.000                          154304  154302
PLOAD4         2   44461 -10.000                          154344  154304
PLOAD4         2   44462 -10.000                          154307  154305
PLOAD4         2   44463 -10.000                          154345  154307
PLOAD4         2   44464 -10.000                          154346  154308
PLOAD4         2   44465 -10.000                          154347  154309
PLOAD4         2   44466 -10.000                          154348  154310
PLOAD4         2   44467 -10.000                          154349  154311
PLOAD4         2   44468 -10.000                          154350  154312
PLOAD4         2   44469 -10.000                          154351  154313
PLOAD4         2   44470 -10.000                          154352  154314
PLOAD4         2   44471 -10.000                          154353  154315
PLOAD4         2   44472 -10.000                          154354  154316
PLOAD4         2   44473 -10.000                          154355  154317
PLOAD4         2   44474 -10.000                          154356  154318
PLOAD4         2   44475 -10.000                          154357  154319
PLOAD4         2   44476 -10.000                          154358  154320
PLOAD4         2   44477 -10.000                          154359  154321
PLOAD4         2   44478 -10.000                          154360  154322
PLOAD4         2   44479 -10.000                          154325  154323
PLOAD4         2   44480 -10.000                          154325  154327
PLOAD4         2   44481 -10.000                          154360  154328
PLOAD4         2   44482 -10.000                          154359  154329
PLOAD4         2   44483 -10.000                          154358  154330
PLOAD4         2   44484 -10.000                          154357  154331
PLOAD4         2   44485 -10.000                          154356  154332
PLOAD4         2   44486 -10.000                          154355  154333
PLOAD4         2   44487 -10.000                          154354  154334
PLOAD4         2   44488 -10.000                          154353  154335
PLOAD4         2   44489 -10.000                          154352  154336
PLOAD4         2   44490 -10.000                          154351  154337
PLOAD4         2   44491 -10.000                          154350  154338
PLOAD4         2   44492 -10.000                          154349  154339
PLOAD4         2   44493 -10.000                          154348  154340
PLOAD4         2   44494 -10.000                          154347  154341
PLOAD4         2   44495 -10.000                          154346  154342
PLOAD4         2   44496 -10.000                          154345  154343
PLOAD4         2   44497 -10.000                          153637  154016
PLOAD4         2   44498 -10.000                          154362  153637
PLOAD4         2   44499 -10.000                          154363  153638
PLOAD4         2   44500 -10.000                          154364  153639
PLOAD4         2   44501 -10.000                          154365  153640
PLOAD4         2   44502 -10.000                          154366  153641
PLOAD4         2   44503 -10.000                          154367  153642
PLOAD4         2   44504 -10.000                          154368  153643
PLOAD4         2   44505 -10.000                          154369  153644
PLOAD4         2   44506 -10.000                          154370  153645
PLOAD4         2   44507 -10.000                          154371  153646
PLOAD4         2   44508 -10.000                          154372  153647
PLOAD4         2   44509 -10.000                          154373  153648
PLOAD4         2   44510 -10.000                          154374  153649
PLOAD4         2   44511 -10.000                          154375  153650
PLOAD4         2   44512 -10.000                          154376  153651
PLOAD4         2   44513 -10.000                          153654  153652
PLOAD4         2   44514 -10.000                          154377  153654
PLOAD4         2   44515 -10.000                          154378  153655
PLOAD4         2   44516 -10.000                          154379  153656
PLOAD4         2   44517 -10.000                          154380  154012
PLOAD4         2   44518 -10.000                          154381  154011
PLOAD4         2   44519 -10.000                          154382  154010
PLOAD4         2   44520 -10.000                          154383  154009
PLOAD4         2   44521 -10.000                          154384  154008
PLOAD4         2   44522 -10.000                          154385  154007
PLOAD4         2   44523 -10.000                          154386  154006
PLOAD4         2   44524 -10.000                          154387  154005
PLOAD4         2   44525 -10.000                          154388  154004
PLOAD4         2   44526 -10.000                          154389  154003
PLOAD4         2   44527 -10.000                          154390  154002
PLOAD4         2   44528 -10.000                          154391  154001
PLOAD4         2   44529 -10.000                          154392  154000
PLOAD4         2   44530 -10.000                          154393  153999
PLOAD4         2   44531 -10.000                          154394  153998
PLOAD4         2   44532 -10.000                          154395  153997
PLOAD4         2   44533 -10.000                          154396  153996
PLOAD4         2   44534 -10.000                          154397  153995
PLOAD4         2   44535 -10.000                          154398  153994
PLOAD4         2   44536 -10.000                          154399  153993
PLOAD4         2   44537 -10.000                          154400  153992
PLOAD4         2   44538 -10.000                          154401  153991
PLOAD4         2   44539 -10.000                          154402  153990
PLOAD4         2   44540 -10.000                          153562  153989
PLOAD4         2   44541 -10.000                          154403  153562
PLOAD4         2   44542 -10.000                          154404  153563
PLOAD4         2   44543 -10.000                          154405  153564
PLOAD4         2   44544 -10.000                          154406  153565
PLOAD4         2   44545 -10.000                          154407  153566
PLOAD4         2   44546 -10.000                          154408  153567
PLOAD4         2   44547 -10.000                          154409  153568
PLOAD4         2   44548 -10.000                          154410  153569
PLOAD4         2   44549 -10.000                          154411  153570
PLOAD4         2   44550 -10.000                          154412  153571
PLOAD4         2   44551 -10.000                          154413  153572
PLOAD4         2   44552 -10.000                          154414  153573
PLOAD4         2   44553 -10.000                          154415  153574
PLOAD4         2   44554 -10.000                          154416  153575
PLOAD4         2   44555 -10.000                          154039  153576
PLOAD4         2   44556 -10.000                          154417  154039
PLOAD4         2   44557 -10.000                          154418  154038
PLOAD4         2   44558 -10.000                          154419  154037
PLOAD4         2   44559 -10.000                          154420  154036
PLOAD4         2   44560 -10.000                          154421  154035
PLOAD4         2   44561 -10.000                          154422  154034
PLOAD4         2   44562 -10.000                          154423  154033
PLOAD4         2   44563 -10.000                          154424  154032
PLOAD4         2   44564 -10.000                          154425  154031
PLOAD4         2   44565 -10.000                          154426  154030
PLOAD4         2   44566 -10.000                          154427  154029
PLOAD4         2   44567 -10.000                          154428  154028
PLOAD4         2   44568 -10.000                          154429  154027
PLOAD4         2   44569 -10.000                          154430  154026
PLOAD4         2   44570 -10.000                          154431  154025
PLOAD4         2   44571 -10.000                          154432  154024
PLOAD4         2   44572 -10.000                          154433  154023
PLOAD4         2   44573 -10.000                          154434  154022
PLOAD4         2   44574 -10.000                          154435  154021
PLOAD4         2   44575 -10.000                          154436  154020
PLOAD4         2   44576 -10.000                          154437  154019
PLOAD4         2   44577 -10.000                          154438  154018
PLOAD4         2   44578 -10.000                          154361  154017
PLOAD4         2   44579 -10.000                          154362  154438
PLOAD4         2   44580 -10.000                          154440  154362
PLOAD4         2   44581 -10.000                          154441  154363
PLOAD4         2   44582 -10.000                          154442  154364
PLOAD4         2   44583 -10.000                          154443  154365
PLOAD4         2   44584 -10.000                          154444  154366
PLOAD4         2   44585 -10.000                          154445  154367
PLOAD4         2   44586 -10.000                          154446  154368
PLOAD4         2   44587 -10.000                          154447  154369
PLOAD4         2   44588 -10.000                          154448  154370
PLOAD4         2   44589 -10.000                          154449  154371
PLOAD4         2   44590 -10.000                          154450  154372
PLOAD4         2   44591 -10.000                          154451  154373
PLOAD4         2   44592 -10.000                          154452  154374
PLOAD4         2   44593 -10.000                          154377  154375
PLOAD4         2   44594 -10.000                          154379  154377
PLOAD4         2   44595 -10.000                          154453  154379
PLOAD4         2   44596 -10.000                          154454  154380
PLOAD4         2   44597 -10.000                          154455  154381
PLOAD4         2   44598 -10.000                          154456  154382
PLOAD4         2   44599 -10.000                          154457  154383
PLOAD4         2   44600 -10.000                          154458  154384
PLOAD4         2   44601 -10.000                          154459  154385
PLOAD4         2   44602 -10.000                          154460  154386
PLOAD4         2   44603 -10.000                          154461  154387
PLOAD4         2   44604 -10.000                          154462  154388
PLOAD4         2   44605 -10.000                          154463  154389
PLOAD4         2   44606 -10.000                          154464  154390
PLOAD4         2   44607 -10.000                          154465  154391
PLOAD4         2   44608 -10.000                          154466  154392
PLOAD4         2   44609 -10.000                          154467  154393
PLOAD4         2   44610 -10.000                          154468  154394
PLOAD4         2   44611 -10.000                          154469  154395
PLOAD4         2   44612 -10.000                          154470  154396
PLOAD4         2   44613 -10.000                          154471  154397
PLOAD4         2   44614 -10.000                          154472  154398
PLOAD4         2   44615 -10.000                          154473  154399
PLOAD4         2   44616 -10.000                          154474  154400
PLOAD4         2   44617 -10.000                          154403  154401
PLOAD4         2   44618 -10.000                          154475  154403
PLOAD4         2   44619 -10.000                          154476  154404
PLOAD4         2   44620 -10.000                          154477  154405
PLOAD4         2   44621 -10.000                          154478  154406
PLOAD4         2   44622 -10.000                          154479  154407
PLOAD4         2   44623 -10.000                          154480  154408
PLOAD4         2   44624 -10.000                          154481  154409
PLOAD4         2   44625 -10.000                          154482  154410
PLOAD4         2   44626 -10.000                          154483  154411
PLOAD4         2   44627 -10.000                          154484  154412
PLOAD4         2   44628 -10.000                          154485  154413
PLOAD4         2   44629 -10.000                          154486  154414
PLOAD4         2   44630 -10.000                          154417  154415
PLOAD4         2   44631 -10.000                          154487  154417
PLOAD4         2   44632 -10.000                          154488  154418
PLOAD4         2   44633 -10.000                          154489  154419
PLOAD4         2   44634 -10.000                          154490  154420
PLOAD4         2   44635 -10.000                          154491  154421
PLOAD4         2   44636 -10.000                          154492  154422
PLOAD4         2   44637 -10.000                          154493  154423
PLOAD4         2   44638 -10.000                          154494  154424
PLOAD4         2   44639 -10.000                          154495  154425
PLOAD4         2   44640 -10.000                          154496  154426
PLOAD4         2   44641 -10.000                          154497  154427
PLOAD4         2   44642 -10.000                          154498  154428
PLOAD4         2   44643 -10.000                          154499  154429
PLOAD4         2   44644 -10.000                          154500  154430
PLOAD4         2   44645 -10.000                          154501  154431
PLOAD4         2   44646 -10.000                          154502  154432
PLOAD4         2   44647 -10.000                          154503  154433
PLOAD4         2   44648 -10.000                          154504  154434
PLOAD4         2   44649 -10.000                          154505  154435
PLOAD4         2   44650 -10.000                          154506  154436
PLOAD4         2   44651 -10.000                          154439  154437
PLOAD4         2   44652 -10.000                          154440  154506
PLOAD4         2   44653 -10.000                          154508  154440
PLOAD4         2   44654 -10.000                          154509  154441
PLOAD4         2   44655 -10.000                          154510  154442
PLOAD4         2   44656 -10.000                          154511  154443
PLOAD4         2   44657 -10.000                          154512  154444
PLOAD4         2   44658 -10.000                          154513  154445
PLOAD4         2   44659 -10.000                          154514  154446
PLOAD4         2   44660 -10.000                          154515  154447
PLOAD4         2   44661 -10.000                          154516  154448
PLOAD4         2   44662 -10.000                          154517  154449
PLOAD4         2   44663 -10.000                          154518  154450
PLOAD4         2   44664 -10.000                          154453  154451
PLOAD4         2   44665 -10.000                          154519  154453
PLOAD4         2   44666 -10.000                          154520  154454
PLOAD4         2   44667 -10.000                          154521  154455
PLOAD4         2   44668 -10.000                          154522  154456
PLOAD4         2   44669 -10.000                          154523  154457
PLOAD4         2   44670 -10.000                          154524  154458
PLOAD4         2   44671 -10.000                          154525  154459
PLOAD4         2   44672 -10.000                          154526  154460
PLOAD4         2   44673 -10.000                          154527  154461
PLOAD4         2   44674 -10.000                          154528  154462
PLOAD4         2   44675 -10.000                          154529  154463
PLOAD4         2   44676 -10.000                          154530  154464
PLOAD4         2   44677 -10.000                          154531  154465
PLOAD4         2   44678 -10.000                          154532  154466
PLOAD4         2   44679 -10.000                          154533  154467
PLOAD4         2   44680 -10.000                          154534  154468
PLOAD4         2   44681 -10.000                          154535  154469
PLOAD4         2   44682 -10.000                          154536  154470
PLOAD4         2   44683 -10.000                          154537  154471
PLOAD4         2   44684 -10.000                          154538  154472
PLOAD4         2   44685 -10.000                          154475  154473
PLOAD4         2   44686 -10.000                          154539  154475
PLOAD4         2   44687 -10.000                          154540  154476
PLOAD4         2   44688 -10.000                          154541  154477
PLOAD4         2   44689 -10.000                          154542  154478
PLOAD4         2   44690 -10.000                          154543  154479
PLOAD4         2   44691 -10.000                          154544  154480
PLOAD4         2   44692 -10.000                          154545  154481
PLOAD4         2   44693 -10.000                          154546  154482
PLOAD4         2   44694 -10.000                          154547  154483
PLOAD4         2   44695 -10.000                          154548  154484
PLOAD4         2   44696 -10.000                          154487  154485
PLOAD4         2   44697 -10.000                          154549  154487
PLOAD4         2   44698 -10.000                          154550  154488
PLOAD4         2   44699 -10.000                          154551  154489
PLOAD4         2   44700 -10.000                          154552  154490
PLOAD4         2   44701 -10.000                          154553  154491
PLOAD4         2   44702 -10.000                          154554  154492
PLOAD4         2   44703 -10.000                          154555  154493
PLOAD4         2   44704 -10.000                          154556  154494
PLOAD4         2   44705 -10.000                          154557  154495
PLOAD4         2   44706 -10.000                          154558  154496
PLOAD4         2   44707 -10.000                          154559  154497
PLOAD4         2   44708 -10.000                          154560  154498
PLOAD4         2   44709 -10.000                          154561  154499
PLOAD4         2   44710 -10.000                          154562  154500
PLOAD4         2   44711 -10.000                          154563  154501
PLOAD4         2   44712 -10.000                          154564  154502
PLOAD4         2   44713 -10.000                          154565  154503
PLOAD4         2   44714 -10.000                          154566  154504
PLOAD4         2   44715 -10.000                          154507  154505
PLOAD4         2   44716 -10.000                          154508  154566
PLOAD4         2   44717 -10.000                          154568  154508
PLOAD4         2   44718 -10.000                          154569  154509
PLOAD4         2   44719 -10.000                          154570  154510
PLOAD4         2   44720 -10.000                          154571  154511
PLOAD4         2   44721 -10.000                          154572  154512
PLOAD4         2   44722 -10.000                          154573  154513
PLOAD4         2   44723 -10.000                          154574  154514
PLOAD4         2   44724 -10.000                          154575  154515
PLOAD4         2   44725 -10.000                          154576  154516
PLOAD4         2   44726 -10.000                          154519  154517
PLOAD4         2   44727 -10.000                          154577  154519
PLOAD4         2   44728 -10.000                          154578  154520
PLOAD4         2   44729 -10.000                          154579  154521
PLOAD4         2   44730 -10.000                          154580  154522
PLOAD4         2   44731 -10.000                          154581  154523
PLOAD4         2   44732 -10.000                          154582  154524
PLOAD4         2   44733 -10.000                          154583  154525
PLOAD4         2   44734 -10.000                          154584  154526
PLOAD4         2   44735 -10.000                          154585  154527
PLOAD4         2   44736 -10.000                          154586  154528
PLOAD4         2   44737 -10.000                          154587  154529
PLOAD4         2   44738 -10.000                          154588  154530
PLOAD4         2   44739 -10.000                          154589  154531
PLOAD4         2   44740 -10.000                          154590  154532
PLOAD4         2   44741 -10.000                          154591  154533
PLOAD4         2   44742 -10.000                          154592  154534
PLOAD4         2   44743 -10.000                          154593  154535
PLOAD4         2   44744 -10.000                          154594  154536
PLOAD4         2   44745 -10.000                          154539  154537
PLOAD4         2   44746 -10.000                          154595  154539
PLOAD4         2   44747 -10.000                          154596  154540
PLOAD4         2   44748 -10.000                          154597  154541
PLOAD4         2   44749 -10.000                          154598  154542
PLOAD4         2   44750 -10.000                          154599  154543
PLOAD4         2   44751 -10.000                          154600  154544
PLOAD4         2   44752 -10.000                          154601  154545
PLOAD4         2   44753 -10.000                          154602  154546
PLOAD4         2   44754 -10.000                          154549  154547
PLOAD4         2   44755 -10.000                          154603  154549
PLOAD4         2   44756 -10.000                          154604  154550
PLOAD4         2   44757 -10.000                          154605  154551
PLOAD4         2   44758 -10.000                          154606  154552
PLOAD4         2   44759 -10.000                          154607  154553
PLOAD4         2   44760 -10.000                          154608  154554
PLOAD4         2   44761 -10.000                          154609  154555
PLOAD4         2   44762 -10.000                          154610  154556
PLOAD4         2   44763 -10.000                          154611  154557
PLOAD4         2   44764 -10.000                          154612  154558
PLOAD4         2   44765 -10.000                          154613  154559
PLOAD4         2   44766 -10.000                          154614  154560
PLOAD4         2   44767 -10.000                          154615  154561
PLOAD4         2   44768 -10.000                          154616  154562
PLOAD4         2   44769 -10.000                          154617  154563
PLOAD4         2   44770 -10.000                          154618  154564
PLOAD4         2   44771 -10.000                          154567  154565
PLOAD4         2   44772 -10.000                          154568  154618
PLOAD4         2   44773 -10.000                          154620  154568
PLOAD4         2   44774 -10.000                          154621  154569
PLOAD4         2   44775 -10.000                          154622  154570
PLOAD4         2   44776 -10.000                          154623  154571
PLOAD4         2   44777 -10.000                          154624  154572
PLOAD4         2   44778 -10.000                          154625  154573
PLOAD4         2   44779 -10.000                          154626  154574
PLOAD4         2   44780 -10.000                          154577  154575
PLOAD4         2   44781 -10.000                          154627  154577
PLOAD4         2   44782 -10.000                          154628  154578
PLOAD4         2   44783 -10.000                          154629  154579
PLOAD4         2   44784 -10.000                          154630  154580
PLOAD4         2   44785 -10.000                          154631  154581
PLOAD4         2   44786 -10.000                          154632  154582
PLOAD4         2   44787 -10.000                          154633  154583
PLOAD4         2   44788 -10.000                          154634  154584
PLOAD4         2   44789 -10.000                          154635  154585
PLOAD4         2   44790 -10.000                          154636  154586
PLOAD4         2   44791 -10.000                          154637  154587
PLOAD4         2   44792 -10.000                          154638  154588
PLOAD4         2   44793 -10.000                          154639  154589
PLOAD4         2   44794 -10.000                          154640  154590
PLOAD4         2   44795 -10.000                          154641  154591
PLOAD4         2   44796 -10.000                          154642  154592
PLOAD4         2   44797 -10.000                          154595  154593
PLOAD4         2   44798 -10.000                          154643  154595
PLOAD4         2   44799 -10.000                          154644  154596
PLOAD4         2   44800 -10.000                          154645  154597
PLOAD4         2   44801 -10.000                          154646  154598
PLOAD4         2   44802 -10.000                          154647  154599
PLOAD4         2   44803 -10.000                          154648  154600
PLOAD4         2   44804 -10.000                          154603  154601
PLOAD4         2   44805 -10.000                          154649  154603
PLOAD4         2   44806 -10.000                          154650  154604
PLOAD4         2   44807 -10.000                          154651  154605
PLOAD4         2   44808 -10.000                          154652  154606
PLOAD4         2   44809 -10.000                          154653  154607
PLOAD4         2   44810 -10.000                          154654  154608
PLOAD4         2   44811 -10.000                          154655  154609
PLOAD4         2   44812 -10.000                          154656  154610
PLOAD4         2   44813 -10.000                          154657  154611
PLOAD4         2   44814 -10.000                          154658  154612
PLOAD4         2   44815 -10.000                          154659  154613
PLOAD4         2   44816 -10.000                          154660  154614
PLOAD4         2   44817 -10.000                          154661  154615
PLOAD4         2   44818 -10.000                          154662  154616
PLOAD4         2   44819 -10.000                          154619  154617
PLOAD4         2   44820 -10.000                          154620  154662
PLOAD4         2   44821 -10.000                          154664  154620
PLOAD4         2   44822 -10.000                          154665  154621
PLOAD4         2   44823 -10.000                          154666  154622
PLOAD4         2   44824 -10.000                          154667  154623
PLOAD4         2   44825 -10.000                          154668  154624
PLOAD4         2   44826 -10.000                          154627  154625
PLOAD4         2   44827 -10.000                          154669  154627
PLOAD4         2   44828 -10.000                          154670  154628
PLOAD4         2   44829 -10.000                          154671  154629
PLOAD4         2   44830 -10.000                          154672  154630
PLOAD4         2   44831 -10.000                          154673  154631
PLOAD4         2   44832 -10.000                          154674  154632
PLOAD4         2   44833 -10.000                          154675  154633
PLOAD4         2   44834 -10.000                          154676  154634
PLOAD4         2   44835 -10.000                          154677  154635
PLOAD4         2   44836 -10.000                          154678  154636
PLOAD4         2   44837 -10.000                          154679  154637
PLOAD4         2   44838 -10.000                          154680  154638
PLOAD4         2   44839 -10.000                          154681  154639
PLOAD4         2   44840 -10.000                          154682  154640
PLOAD4         2   44841 -10.000                          154643  154641
PLOAD4         2   44842 -10.000                          154683  154643
PLOAD4         2   44843 -10.000                          154684  154644
PLOAD4         2   44844 -10.000                          154685  154645
PLOAD4         2   44845 -10.000                          154686  154646
PLOAD4         2   44846 -10.000                          154649  154647
PLOAD4         2   44847 -10.000                          154687  154649
PLOAD4         2   44848 -10.000                          154688  154650
PLOAD4         2   44849 -10.000                          154689  154651
PLOAD4         2   44850 -10.000                          154690  154652
PLOAD4         2   44851 -10.000                          154691  154653
PLOAD4         2   44852 -10.000                          154692  154654
PLOAD4         2   44853 -10.000                          154693  154655
PLOAD4         2   44854 -10.000                          154694  154656
PLOAD4         2   44855 -10.000                          154695  154657
PLOAD4         2   44856 -10.000                          154696  154658
PLOAD4         2   44857 -10.000                          154697  154659
PLOAD4         2   44858 -10.000                          154698  154660
PLOAD4         2   44859 -10.000                          154663  154661
PLOAD4         2   44860 -10.000                          154664  154698
PLOAD4         2   44861 -10.000                          154700  154664
PLOAD4         2   44862 -10.000                          154701  154665
PLOAD4         2   44863 -10.000                          154702  154666
PLOAD4         2   44864 -10.000                          154669  154667
PLOAD4         2   44865 -10.000                          154703  154669
PLOAD4         2   44866 -10.000                          154704  154670
PLOAD4         2   44867 -10.000                          154705  154671
PLOAD4         2   44868 -10.000                          154706  154672
PLOAD4         2   44869 -10.000                          154707  154673
PLOAD4         2   44870 -10.000                          154708  154674
PLOAD4         2   44871 -10.000                          154709  154675
PLOAD4         2   44872 -10.000                          154710  154676
PLOAD4         2   44873 -10.000                          154711  154677
PLOAD4         2   44874 -10.000                          154712  154678
PLOAD4         2   44875 -10.000                          154713  154679
PLOAD4         2   44876 -10.000                          154714  154680
PLOAD4         2   44877 -10.000                          154683  154681
PLOAD4         2   44878 -10.000                          154715  154683
PLOAD4         2   44879 -10.000                          154716  154684
PLOAD4         2   44880 -10.000                          154687  154685
PLOAD4         2   44881 -10.000                          154717  154687
PLOAD4         2   44882 -10.000                          154718  154688
PLOAD4         2   44883 -10.000                          154719  154689
PLOAD4         2   44884 -10.000                          154720  154690
PLOAD4         2   44885 -10.000                          154721  154691
PLOAD4         2   44886 -10.000                          154722  154692
PLOAD4         2   44887 -10.000                          154723  154693
PLOAD4         2   44888 -10.000                          154724  154694
PLOAD4         2   44889 -10.000                          154725  154695
PLOAD4         2   44890 -10.000                          154726  154696
PLOAD4         2   44891 -10.000                          154699  154697
PLOAD4         2   44892 -10.000                          154700  154726
PLOAD4         2   44893 -10.000                          154728  154700
PLOAD4         2   44894 -10.000                          154703  154701
PLOAD4         2   44895 -10.000                          154729  154703
PLOAD4         2   44896 -10.000                          154730  154704
PLOAD4         2   44897 -10.000                          154731  154705
PLOAD4         2   44898 -10.000                          154732  154706
PLOAD4         2   44899 -10.000                          154733  154707
PLOAD4         2   44900 -10.000                          154734  154708
PLOAD4         2   44901 -10.000                          154735  154709
PLOAD4         2   44902 -10.000                          154736  154710
PLOAD4         2   44903 -10.000                          154737  154711
PLOAD4         2   44904 -10.000                          154738  154712
PLOAD4         2   44905 -10.000                          154715  154713
PLOAD4         2   44906 -10.000                          154717  154715
PLOAD4         2   44907 -10.000                          154737  154717
PLOAD4         2   44908 -10.000                          154736  154718
PLOAD4         2   44909 -10.000                          154735  154719
PLOAD4         2   44910 -10.000                          154734  154720
PLOAD4         2   44911 -10.000                          154739  154721
PLOAD4         2   44912 -10.000                          154740  154722
PLOAD4         2   44913 -10.000                          154741  154723
PLOAD4         2   44914 -10.000                          154742  154724
PLOAD4         2   44915 -10.000                          154727  154725
PLOAD4         2   44916 -10.000                          154729  154727
PLOAD4         2   44917 -10.000                          154730  154742
PLOAD4         2   44918 -10.000                          154731  154741
PLOAD4         2   44919 -10.000                          154739  154733
PLOAD4         2   44920 -10.000                          154731  154739
PLOAD4         2   44921 -10.000                          154743  153442
PLOAD4         2   44922 -10.000                          153593  154743
PLOAD4         2   44923 -10.000                          154745  153424
PLOAD4         2   44924 -10.000                          154745  153591
PLOAD4         2   44925 -10.000                          153422  154745
PLOAD4         2   44926 -10.000                          154746  153422
PLOAD4         2   44927 -10.000                          153591  154746
PLOAD4         2   44928 -10.000                          153823  154747
PLOAD4         2   44929 -10.000                          154749  153823
PLOAD4         2   44930 -10.000                          154750  153824
PLOAD4         2   44931 -10.000                          154751  153825
PLOAD4         2   44932 -10.000                          154752  153826
PLOAD4         2   44933 -10.000                          154753  153827
PLOAD4         2   44934 -10.000                          154754  153828
PLOAD4         2   44935 -10.000                          154755  153829
PLOAD4         2   44936 -10.000                          154756  153830
PLOAD4         2   44937 -10.000                          154757  153831
PLOAD4         2   44938 -10.000                          153551  153832
PLOAD4         2   44939 -10.000                          154758  153551
PLOAD4         2   44940 -10.000                          154759  153552
PLOAD4         2   44941 -10.000                          154760  153553
PLOAD4         2   44942 -10.000                          154761  153554
PLOAD4         2   44943 -10.000                          153854  153555
PLOAD4         2   44944 -10.000                          154762  153854
PLOAD4         2   44945 -10.000                          154763  153853
PLOAD4         2   44946 -10.000                          154764  153852
PLOAD4         2   44947 -10.000                          154765  153851
PLOAD4         2   44948 -10.000                          154766  153850
PLOAD4         2   44949 -10.000                          154767  153849
PLOAD4         2   44950 -10.000                          154750  153848
PLOAD4         2   44951 -10.000                          154749  153847
PLOAD4         2   44952 -10.000                          154748  153846
PLOAD4         2   44953 -10.000                          154747  153845
PLOAD4         2   44954 -10.000                          154758  154756
PLOAD4         2   44955 -10.000                          154762  154760
PLOAD4         2   44956 -10.000                          154758  154762
PLOAD4         2   44957 -10.000                          154771  154750
PLOAD4         2   44958 -10.000                          154771  154752
PLOAD4         2   44959 -10.000                          154766  154771
PLOAD4         2   44960 -10.000                          154770  154765
PLOAD4         2   44961 -10.000                          154753  154770
PLOAD4         2   44962 -10.000                          154769  154754
PLOAD4         2   44963 -10.000                          154772  154755
PLOAD4         2   44964 -10.000                          154773  154756
PLOAD4         2   44965 -10.000                          154763  154768
PLOAD4         2   44966 -10.000                          154764  154773
PLOAD4         2   44967 -10.000                          154765  154772
PLOAD4         2   44968 -10.000                          153836  154774
PLOAD4         2   44969 -10.000                          153835  154778
PLOAD4         2   44970 -10.000                          153834  154777
PLOAD4         2   44971 -10.000                          153658  153833
PLOAD4         2   44972 -10.000                          154775  153658
PLOAD4         2   44973 -10.000                          154778  153815
PLOAD4         2   44974 -10.000                          154777  153814
PLOAD4         2   44975 -10.000                          154776  153813
PLOAD4         2   44976 -10.000                          153660  154775
PLOAD4         2   44977 -10.000                          153811  153660
PLOAD4         2   44978 -10.000                          154774  153816
PLOAD4         2   44979 -10.000                          154781  153817
PLOAD4         2   44980 -10.000                          154782  153818
PLOAD4         2   44981 -10.000                          154783  153819
PLOAD4         2   44982 -10.000                          154784  153820
PLOAD4         2   44983 -10.000                          154785  153821
PLOAD4         2   44984 -10.000                          154786  153822
PLOAD4         2   44985 -10.000                          153843  154747
PLOAD4         2   44986 -10.000                          153842  154786
PLOAD4         2   44987 -10.000                          153841  154785
PLOAD4         2   44988 -10.000                          153840  154784
PLOAD4         2   44989 -10.000                          153839  154783
PLOAD4         2   44990 -10.000                          153838  154782
PLOAD4         2   44991 -10.000                          153837  154781
PLOAD4         2   44992 -10.000                          153807  154817
PLOAD4         2   44993 -10.000                          153806  154818
PLOAD4         2   44994 -10.000                          153805  154819
PLOAD4         2   44995 -10.000                          153804  154820
PLOAD4         2   44996 -10.000                          153803  154821
PLOAD4         2   44997 -10.000                          153802  154822
PLOAD4         2   44998 -10.000                          153810  154814
PLOAD4         2   44999 -10.000                          153809  154815
PLOAD4         2   45000 -10.000                          153808  154816
PLOAD4         2   45001 -10.000                          154836  153517
PLOAD4         2   45002 -10.000                          154836  154811
PLOAD4         2   45003 -10.000                          153515  154836
PLOAD4         2   45004 -10.000                          153513  154813
PLOAD4         2   45005 -10.000                          154837  153515
PLOAD4         2   45006 -10.000                          154837  154811
PLOAD4         2   45007 -10.000                          153513  154837
PLOAD4         2   45008 -10.000                          153801  154823
PLOAD4         2   45009 -10.000                          153800  154824
PLOAD4         2   45010 -10.000                          153799  154825
PLOAD4         2   45011 -10.000                          153798  154826
PLOAD4         2   45012 -10.000                          153797  154827
PLOAD4         2   45013 -10.000                          153796  154828
PLOAD4         2   45014 -10.000                          153795  154829
PLOAD4         2   45015 -10.000                          153794  154830
PLOAD4         2   45016 -10.000                          153793  154831
PLOAD4         2   45017 -10.000                          153792  154832
PLOAD4         2   45018 -10.000                          153791  154833
PLOAD4         2   45019 -10.000                          153790  154834
PLOAD4         2   45020 -10.000                          153789  153697
PLOAD4         2   45021 -10.000                          153519  154811
PLOAD4         2   45022 -10.000                          154839  153519
PLOAD4         2   45023 -10.000                          154840  153520
PLOAD4         2   45024 -10.000                          154841  153521
PLOAD4         2   45025 -10.000                          154842  153522
PLOAD4         2   45026 -10.000                          154843  153523
PLOAD4         2   45027 -10.000                          154844  153524
PLOAD4         2   45028 -10.000                          154845  153525
PLOAD4         2   45029 -10.000                          154846  153526
PLOAD4         2   45030 -10.000                          154847  153527
PLOAD4         2   45031 -10.000                          154848  153528
PLOAD4         2   45032 -10.000                          154849  153529
PLOAD4         2   45033 -10.000                          154850  153530
PLOAD4         2   45034 -10.000                          154851  153531
PLOAD4         2   45035 -10.000                          154852  153532
PLOAD4         2   45036 -10.000                          154853  153533
PLOAD4         2   45037 -10.000                          154854  153534
PLOAD4         2   45038 -10.000                          154855  153535
PLOAD4         2   45039 -10.000                          154856  153536
PLOAD4         2   45040 -10.000                          154857  153537
PLOAD4         2   45041 -10.000                          154858  153538
PLOAD4         2   45042 -10.000                          154859  153539
PLOAD4         2   45043 -10.000                          154860  153540
PLOAD4         2   45044 -10.000                          154861  153541
PLOAD4         2   45045 -10.000                          154862  153542
PLOAD4         2   45046 -10.000                          154863  153543
PLOAD4         2   45047 -10.000                          154787  153544
PLOAD4         2   45048 -10.000                          154864  154787
PLOAD4         2   45049 -10.000                          154865  154788
PLOAD4         2   45050 -10.000                          154866  154789
PLOAD4         2   45051 -10.000                          154867  154790
PLOAD4         2   45052 -10.000                          154868  154791
PLOAD4         2   45053 -10.000                          154869  154792
PLOAD4         2   45054 -10.000                          154870  154793
PLOAD4         2   45055 -10.000                          154871  154794
PLOAD4         2   45056 -10.000                          154872  154795
PLOAD4         2   45057 -10.000                          154873  154796
PLOAD4         2   45058 -10.000                          154874  154797
PLOAD4         2   45059 -10.000                          154875  154798
PLOAD4         2   45060 -10.000                          154876  154799
PLOAD4         2   45061 -10.000                          154877  154800
PLOAD4         2   45062 -10.000                          154878  154801
PLOAD4         2   45063 -10.000                          154879  154802
PLOAD4         2   45064 -10.000                          154880  154803
PLOAD4         2   45065 -10.000                          154881  154804
PLOAD4         2   45066 -10.000                          154882  154805
PLOAD4         2   45067 -10.000                          154883  154806
PLOAD4         2   45068 -10.000                          154884  154807
PLOAD4         2   45069 -10.000                          154885  154808
PLOAD4         2   45070 -10.000                          154886  154809
PLOAD4         2   45071 -10.000                          154887  154810
PLOAD4         2   45072 -10.000                          154888  153662
PLOAD4         2   45073 -10.000                          154889  153663
PLOAD4         2   45074 -10.000                          153666  153664
PLOAD4         2   45075 -10.000                          154890  153666
PLOAD4         2   45076 -10.000                          154891  153667
PLOAD4         2   45077 -10.000                          154892  153668
PLOAD4         2   45078 -10.000                          154893  153669
PLOAD4         2   45079 -10.000                          154894  153670
PLOAD4         2   45080 -10.000                          154895  153671
PLOAD4         2   45081 -10.000                          154896  153672
PLOAD4         2   45082 -10.000                          154897  153673
PLOAD4         2   45083 -10.000                          154898  153674
PLOAD4         2   45084 -10.000                          154899  153675
PLOAD4         2   45085 -10.000                          154900  153676
PLOAD4         2   45086 -10.000                          154901  153677
PLOAD4         2   45087 -10.000                          154902  153678
PLOAD4         2   45088 -10.000                          154903  153679
PLOAD4         2   45089 -10.000                          154904  153680
PLOAD4         2   45090 -10.000                          154905  153681
PLOAD4         2   45091 -10.000                          154906  153682
PLOAD4         2   45092 -10.000                          154907  153683
PLOAD4         2   45093 -10.000                          154908  153684
PLOAD4         2   45094 -10.000                          154909  153685
PLOAD4         2   45095 -10.000                          154910  153686
PLOAD4         2   45096 -10.000                          154911  153687
PLOAD4         2   45097 -10.000                          154912  153688
PLOAD4         2   45098 -10.000                          154913  153689
PLOAD4         2   45099 -10.000                          154914  153690
PLOAD4         2   45100 -10.000                          154915  153691
PLOAD4         2   45101 -10.000                          154916  153692
PLOAD4         2   45102 -10.000                          153695  153693
PLOAD4         2   45103 -10.000                          154917  153695
PLOAD4         2   45104 -10.000                          154918  153696
PLOAD4         2   45105 -10.000                          154919  153697
PLOAD4         2   45106 -10.000                          154920  154834
PLOAD4         2   45107 -10.000                          154921  154833
PLOAD4         2   45108 -10.000                          154922  154832
PLOAD4         2   45109 -10.000                          154923  154831
PLOAD4         2   45110 -10.000                          154924  154830
PLOAD4         2   45111 -10.000                          154925  154829
PLOAD4         2   45112 -10.000                          154926  154828
PLOAD4         2   45113 -10.000                          154927  154827
PLOAD4         2   45114 -10.000                          154928  154826
PLOAD4         2   45115 -10.000                          154929  154825
PLOAD4         2   45116 -10.000                          154930  154824
PLOAD4         2   45117 -10.000                          154931  154823
PLOAD4         2   45118 -10.000                          154932  154822
PLOAD4         2   45119 -10.000                          154933  154821
PLOAD4         2   45120 -10.000                          154934  154820
PLOAD4         2   45121 -10.000                          154935  154819
PLOAD4         2   45122 -10.000                          154936  154818
PLOAD4         2   45123 -10.000                          154937  154817
PLOAD4         2   45124 -10.000                          154938  154816
PLOAD4         2   45125 -10.000                          154939  154815
PLOAD4         2   45126 -10.000                          154940  154814
PLOAD4         2   45127 -10.000                          154941  154813
PLOAD4         2   45128 -10.000                          154838  154812
PLOAD4         2   45129 -10.000                          154839  154941
PLOAD4         2   45130 -10.000                          154943  154839
PLOAD4         2   45131 -10.000                          154944  154840
PLOAD4         2   45132 -10.000                          154945  154841
PLOAD4         2   45133 -10.000                          154946  154842
PLOAD4         2   45134 -10.000                          154947  154843
PLOAD4         2   45135 -10.000                          154948  154844
PLOAD4         2   45136 -10.000                          154949  154845
PLOAD4         2   45137 -10.000                          154950  154846
PLOAD4         2   45138 -10.000                          154951  154847
PLOAD4         2   45139 -10.000                          154952  154848
PLOAD4         2   45140 -10.000                          154953  154849
PLOAD4         2   45141 -10.000                          154954  154850
PLOAD4         2   45142 -10.000                          154955  154851
PLOAD4         2   45143 -10.000                          154956  154852
PLOAD4         2   45144 -10.000                          154957  154853
PLOAD4         2   45145 -10.000                          154958  154854
PLOAD4         2   45146 -10.000                          154959  154855
PLOAD4         2   45147 -10.000                          154960  154856
PLOAD4         2   45148 -10.000                          154961  154857
PLOAD4         2   45149 -10.000                          154962  154858
PLOAD4         2   45150 -10.000                          154963  154859
PLOAD4         2   45151 -10.000                          154964  154860
PLOAD4         2   45152 -10.000                          154965  154861
PLOAD4         2   45153 -10.000                          154864  154862
PLOAD4         2   45154 -10.000                          154966  154864
PLOAD4         2   45155 -10.000                          154967  154865
PLOAD4         2   45156 -10.000                          154968  154866
PLOAD4         2   45157 -10.000                          154969  154867
PLOAD4         2   45158 -10.000                          154970  154868
PLOAD4         2   45159 -10.000                          154971  154869
PLOAD4         2   45160 -10.000                          154972  154870
PLOAD4         2   45161 -10.000                          154973  154871
PLOAD4         2   45162 -10.000                          154974  154872
PLOAD4         2   45163 -10.000                          154975  154873
PLOAD4         2   45164 -10.000                          154976  154874
PLOAD4         2   45165 -10.000                          154977  154875
PLOAD4         2   45166 -10.000                          154978  154876
PLOAD4         2   45167 -10.000                          154979  154877
PLOAD4         2   45168 -10.000                          154980  154878
PLOAD4         2   45169 -10.000                          154981  154879
PLOAD4         2   45170 -10.000                          154982  154880
PLOAD4         2   45171 -10.000                          154983  154881
PLOAD4         2   45172 -10.000                          154984  154882
PLOAD4         2   45173 -10.000                          154985  154883
PLOAD4         2   45174 -10.000                          154986  154884
PLOAD4         2   45175 -10.000                          154987  154885
PLOAD4         2   45176 -10.000                          154988  154886
PLOAD4         2   45177 -10.000                          154989  154887
PLOAD4         2   45178 -10.000                          154890  154888
PLOAD4         2   45179 -10.000                          154990  154890
PLOAD4         2   45180 -10.000                          154991  154891
PLOAD4         2   45181 -10.000                          154992  154892
PLOAD4         2   45182 -10.000                          154993  154893
PLOAD4         2   45183 -10.000                          154994  154894
PLOAD4         2   45184 -10.000                          154995  154895
PLOAD4         2   45185 -10.000                          154996  154896
PLOAD4         2   45186 -10.000                          154997  154897
PLOAD4         2   45187 -10.000                          154998  154898
PLOAD4         2   45188 -10.000                          154999  154899
PLOAD4         2   45189 -10.000                          155000  154900
PLOAD4         2   45190 -10.000                          155001  154901
PLOAD4         2   45191 -10.000                          155002  154902
PLOAD4         2   45192 -10.000                          155003  154903
PLOAD4         2   45193 -10.000                          155004  154904
PLOAD4         2   45194 -10.000                          155005  154905
PLOAD4         2   45195 -10.000                          155006  154906
PLOAD4         2   45196 -10.000                          155007  154907
PLOAD4         2   45197 -10.000                          155008  154908
PLOAD4         2   45198 -10.000                          155009  154909
PLOAD4         2   45199 -10.000                          155010  154910
PLOAD4         2   45200 -10.000                          155011  154911
PLOAD4         2   45201 -10.000                          155012  154912
PLOAD4         2   45202 -10.000                          155013  154913
PLOAD4         2   45203 -10.000                          155014  154914
PLOAD4         2   45204 -10.000                          154917  154915
PLOAD4         2   45205 -10.000                          154919  154917
PLOAD4         2   45206 -10.000                          155015  154919
PLOAD4         2   45207 -10.000                          155016  154920
PLOAD4         2   45208 -10.000                          155017  154921
PLOAD4         2   45209 -10.000                          155018  154922
PLOAD4         2   45210 -10.000                          155019  154923
PLOAD4         2   45211 -10.000                          155020  154924
PLOAD4         2   45212 -10.000                          155021  154925
PLOAD4         2   45213 -10.000                          155022  154926
PLOAD4         2   45214 -10.000                          155023  154927
PLOAD4         2   45215 -10.000                          155024  154928
PLOAD4         2   45216 -10.000                          155025  154929
PLOAD4         2   45217 -10.000                          155026  154930
PLOAD4         2   45218 -10.000                          155027  154931
PLOAD4         2   45219 -10.000                          155028  154932
PLOAD4         2   45220 -10.000                          155029  154933
PLOAD4         2   45221 -10.000                          155030  154934
PLOAD4         2   45222 -10.000                          155031  154935
PLOAD4         2   45223 -10.000                          155032  154936
PLOAD4         2   45224 -10.000                          155033  154937
PLOAD4         2   45225 -10.000                          155034  154938
PLOAD4         2   45226 -10.000                          155035  154939
PLOAD4         2   45227 -10.000                          154942  154940
PLOAD4         2   45228 -10.000                          154943  155035
PLOAD4         2   45229 -10.000                          155037  154943
PLOAD4         2   45230 -10.000                          155038  154944
PLOAD4         2   45231 -10.000                          155039  154945
PLOAD4         2   45232 -10.000                          155040  154946
PLOAD4         2   45233 -10.000                          155041  154947
PLOAD4         2   45234 -10.000                          155042  154948
PLOAD4         2   45235 -10.000                          155043  154949
PLOAD4         2   45236 -10.000                          155044  154950
PLOAD4         2   45237 -10.000                          155045  154951
PLOAD4         2   45238 -10.000                          155046  154952
PLOAD4         2   45239 -10.000                          155047  154953
PLOAD4         2   45240 -10.000                          155048  154954
PLOAD4         2   45241 -10.000                          155049  154955
PLOAD4         2   45242 -10.000                          155050  154956
PLOAD4         2   45243 -10.000                          155051  154957
PLOAD4         2   45244 -10.000                          155052  154958
PLOAD4         2   45245 -10.000                          155053  154959
PLOAD4         2   45246 -10.000                          155054  154960
PLOAD4         2   45247 -10.000                          155055  154961
PLOAD4         2   45248 -10.000                          155056  154962
PLOAD4         2   45249 -10.000                          155057  154963
PLOAD4         2   45250 -10.000                          154966  154964
PLOAD4         2   45251 -10.000                          155058  154966
PLOAD4         2   45252 -10.000                          155059  154967
PLOAD4         2   45253 -10.000                          155060  154968
PLOAD4         2   45254 -10.000                          155061  154969
PLOAD4         2   45255 -10.000                          155062  154970
PLOAD4         2   45256 -10.000                          155063  154971
PLOAD4         2   45257 -10.000                          155064  154972
PLOAD4         2   45258 -10.000                          155065  154973
PLOAD4         2   45259 -10.000                          155066  154974
PLOAD4         2   45260 -10.000                          155067  154975
PLOAD4         2   45261 -10.000                          155068  154976
PLOAD4         2   45262 -10.000                          155069  154977
PLOAD4         2   45263 -10.000                          155070  154978
PLOAD4         2   45264 -10.000                          155071  154979
PLOAD4         2   45265 -10.000                          155072  154980
PLOAD4         2   45266 -10.000                          155073  154981
PLOAD4         2   45267 -10.000                          155074  154982
PLOAD4         2   45268 -10.000                          155075  154983
PLOAD4         2   45269 -10.000                          155076  154984
PLOAD4         2   45270 -10.000                          155077  154985
PLOAD4         2   45271 -10.000                          155078  154986
PLOAD4         2   45272 -10.000                          155079  154987
PLOAD4         2   45273 -10.000                          154990  154988
PLOAD4         2   45274 -10.000                          155080  154990
PLOAD4         2   45275 -10.000                          155081  154991
PLOAD4         2   45276 -10.000                          155082  154992
PLOAD4         2   45277 -10.000                          155083  154993
PLOAD4         2   45278 -10.000                          155084  154994
PLOAD4         2   45279 -10.000                          155085  154995
PLOAD4         2   45280 -10.000                          155086  154996
PLOAD4         2   45281 -10.000                          155087  154997
PLOAD4         2   45282 -10.000                          155088  154998
PLOAD4         2   45283 -10.000                          155089  154999
PLOAD4         2   45284 -10.000                          155090  155000
PLOAD4         2   45285 -10.000                          155091  155001
PLOAD4         2   45286 -10.000                          155092  155002
PLOAD4         2   45287 -10.000                          155093  155003
PLOAD4         2   45288 -10.000                          155094  155004
PLOAD4         2   45289 -10.000                          155095  155005
PLOAD4         2   45290 -10.000                          155096  155006
PLOAD4         2   45291 -10.000                          155097  155007
PLOAD4         2   45292 -10.000                          155098  155008
PLOAD4         2   45293 -10.000                          155099  155009
PLOAD4         2   45294 -10.000                          155100  155010
PLOAD4         2   45295 -10.000                          155101  155011
PLOAD4         2   45296 -10.000                          155102  155012
PLOAD4         2   45297 -10.000                          155015  155013
PLOAD4         2   45298 -10.000                          155103  155015
PLOAD4         2   45299 -10.000                          155104  155016
PLOAD4         2   45300 -10.000                          155105  155017
PLOAD4         2   45301 -10.000                          155106  155018
PLOAD4         2   45302 -10.000                          155107  155019
PLOAD4         2   45303 -10.000                          155108  155020
PLOAD4         2   45304 -10.000                          155109  155021
PLOAD4         2   45305 -10.000                          155110  155022
PLOAD4         2   45306 -10.000                          155111  155023
PLOAD4         2   45307 -10.000                          155112  155024
PLOAD4         2   45308 -10.000                          155113  155025
PLOAD4         2   45309 -10.000                          155114  155026
PLOAD4         2   45310 -10.000                          155115  155027
PLOAD4         2   45311 -10.000                          155116  155028
PLOAD4         2   45312 -10.000                          155117  155029
PLOAD4         2   45313 -10.000                          155118  155030
PLOAD4         2   45314 -10.000                          155119  155031
PLOAD4         2   45315 -10.000                          155120  155032
PLOAD4         2   45316 -10.000                          155121  155033
PLOAD4         2   45317 -10.000                          155036  155034
PLOAD4         2   45318 -10.000                          155037  155121
PLOAD4         2   45319 -10.000                          155123  155037
PLOAD4         2   45320 -10.000                          155124  155038
PLOAD4         2   45321 -10.000                          155125  155039
PLOAD4         2   45322 -10.000                          155126  155040
PLOAD4         2   45323 -10.000                          155127  155041
PLOAD4         2   45324 -10.000                          155128  155042
PLOAD4         2   45325 -10.000                          155129  155043
PLOAD4         2   45326 -10.000                          155130  155044
PLOAD4         2   45327 -10.000                          155131  155045
PLOAD4         2   45328 -10.000                          155132  155046
PLOAD4         2   45329 -10.000                          155133  155047
PLOAD4         2   45330 -10.000                          155134  155048
PLOAD4         2   45331 -10.000                          155135  155049
PLOAD4         2   45332 -10.000                          155136  155050
PLOAD4         2   45333 -10.000                          155137  155051
PLOAD4         2   45334 -10.000                          155138  155052
PLOAD4         2   45335 -10.000                          155139  155053
PLOAD4         2   45336 -10.000                          155140  155054
PLOAD4         2   45337 -10.000                          155141  155055
PLOAD4         2   45338 -10.000                          155058  155056
PLOAD4         2   45339 -10.000                          155142  155058
PLOAD4         2   45340 -10.000                          155143  155059
PLOAD4         2   45341 -10.000                          155144  155060
PLOAD4         2   45342 -10.000                          155145  155061
PLOAD4         2   45343 -10.000                          155146  155062
PLOAD4         2   45344 -10.000                          155147  155063
PLOAD4         2   45345 -10.000                          155148  155064
PLOAD4         2   45346 -10.000                          155149  155065
PLOAD4         2   45347 -10.000                          155150  155066
PLOAD4         2   45348 -10.000                          155151  155067
PLOAD4         2   45349 -10.000                          155152  155068
PLOAD4         2   45350 -10.000                          155153  155069
PLOAD4         2   45351 -10.000                          155154  155070
PLOAD4         2   45352 -10.000                          155155  155071
PLOAD4         2   45353 -10.000                          155156  155072
PLOAD4         2   45354 -10.000                          155157  155073
PLOAD4         2   45355 -10.000                          155158  155074
PLOAD4         2   45356 -10.000                          155159  155075
PLOAD4         2   45357 -10.000                          155160  155076
PLOAD4         2   45358 -10.000                          155161  155077
PLOAD4         2   45359 -10.000                          155080  155078
PLOAD4         2   45360 -10.000                          155162  155080
PLOAD4         2   45361 -10.000                          155163  155081
PLOAD4         2   45362 -10.000                          155164  155082
PLOAD4         2   45363 -10.000                          155165  155083
PLOAD4         2   45364 -10.000                          155166  155084
PLOAD4         2   45365 -10.000                          155167  155085
PLOAD4         2   45366 -10.000                          155168  155086
PLOAD4         2   45367 -10.000                          155169  155087
PLOAD4         2   45368 -10.000                          155170  155088
PLOAD4         2   45369 -10.000                          155171  155089
PLOAD4         2   45370 -10.000                          155172  155090
PLOAD4         2   45371 -10.000                          155173  155091
PLOAD4         2   45372 -10.000                          155174  155092
PLOAD4         2   45373 -10.000                          155175  155093
PLOAD4         2   45374 -10.000                          155176  155094
PLOAD4         2   45375 -10.000                          155177  155095
PLOAD4         2   45376 -10.000                          155178  155096
PLOAD4         2   45377 -10.000                          155179  155097
PLOAD4         2   45378 -10.000                          155180  155098
PLOAD4         2   45379 -10.000                          155181  155099
PLOAD4         2   45380 -10.000                          155182  155100
PLOAD4         2   45381 -10.000                          155103  155101
PLOAD4         2   45382 -10.000                          155183  155103
PLOAD4         2   45383 -10.000                          155184  155104
PLOAD4         2   45384 -10.000                          155185  155105
PLOAD4         2   45385 -10.000                          155186  155106
PLOAD4         2   45386 -10.000                          155187  155107
PLOAD4         2   45387 -10.000                          155188  155108
PLOAD4         2   45388 -10.000                          155189  155109
PLOAD4         2   45389 -10.000                          155190  155110
PLOAD4         2   45390 -10.000                          155191  155111
PLOAD4         2   45391 -10.000                          155192  155112
PLOAD4         2   45392 -10.000                          155193  155113
PLOAD4         2   45393 -10.000                          155194  155114
PLOAD4         2   45394 -10.000                          155195  155115
PLOAD4         2   45395 -10.000                          155196  155116
PLOAD4         2   45396 -10.000                          155197  155117
PLOAD4         2   45397 -10.000                          155198  155118
PLOAD4         2   45398 -10.000                          155199  155119
PLOAD4         2   45399 -10.000                          155122  155120
PLOAD4         2   45400 -10.000                          155123  155199
PLOAD4         2   45401 -10.000                          155201  155123
PLOAD4         2   45402 -10.000                          155202  155124
PLOAD4         2   45403 -10.000                          155203  155125
PLOAD4         2   45404 -10.000                          155204  155126
PLOAD4         2   45405 -10.000                          155205  155127
PLOAD4         2   45406 -10.000                          155206  155128
PLOAD4         2   45407 -10.000                          155207  155129
PLOAD4         2   45408 -10.000                          155208  155130
PLOAD4         2   45409 -10.000                          155209  155131
PLOAD4         2   45410 -10.000                          155210  155132
PLOAD4         2   45411 -10.000                          155211  155133
PLOAD4         2   45412 -10.000                          155212  155134
PLOAD4         2   45413 -10.000                          155213  155135
PLOAD4         2   45414 -10.000                          155214  155136
PLOAD4         2   45415 -10.000                          155215  155137
PLOAD4         2   45416 -10.000                          155216  155138
PLOAD4         2   45417 -10.000                          155217  155139
PLOAD4         2   45418 -10.000                          155142  155140
PLOAD4         2   45419 -10.000                          155218  155142
PLOAD4         2   45420 -10.000                          155219  155143
PLOAD4         2   45421 -10.000                          155220  155144
PLOAD4         2   45422 -10.000                          155221  155145
PLOAD4         2   45423 -10.000                          155222  155146
PLOAD4         2   45424 -10.000                          155223  155147
PLOAD4         2   45425 -10.000                          155224  155148
PLOAD4         2   45426 -10.000                          155225  155149
PLOAD4         2   45427 -10.000                          155226  155150
PLOAD4         2   45428 -10.000                          155227  155151
PLOAD4         2   45429 -10.000                          155228  155152
PLOAD4         2   45430 -10.000                          155229  155153
PLOAD4         2   45431 -10.000                          155230  155154
PLOAD4         2   45432 -10.000                          155231  155155
PLOAD4         2   45433 -10.000                          155232  155156
PLOAD4         2   45434 -10.000                          155233  155157
PLOAD4         2   45435 -10.000                          155234  155158
PLOAD4         2   45436 -10.000                          155235  155159
PLOAD4         2   45437 -10.000                          155162  155160
PLOAD4         2   45438 -10.000                          155236  155162
PLOAD4         2   45439 -10.000                          155237  155163
PLOAD4         2   45440 -10.000                          155238  155164
PLOAD4         2   45441 -10.000                          155239  155165
PLOAD4         2   45442 -10.000                          155240  155166
PLOAD4         2   45443 -10.000                          155241  155167
PLOAD4         2   45444 -10.000                          155242  155168
PLOAD4         2   45445 -10.000                          155243  155169
PLOAD4         2   45446 -10.000                          155244  155170
PLOAD4         2   45447 -10.000                          155245  155171
PLOAD4         2   45448 -10.000                          155246  155172
PLOAD4         2   45449 -10.000                          155247  155173
PLOAD4         2   45450 -10.000                          155248  155174
PLOAD4         2   45451 -10.000                          155249  155175
PLOAD4         2   45452 -10.000                          155250  155176
PLOAD4         2   45453 -10.000                          155251  155177
PLOAD4         2   45454 -10.000                          155252  155178
PLOAD4         2   45455 -10.000                          155253  155179
PLOAD4         2   45456 -10.000                          155254  155180
PLOAD4         2   45457 -10.000                          155183  155181
PLOAD4         2   45458 -10.000                          155255  155183
PLOAD4         2   45459 -10.000                          155256  155184
PLOAD4         2   45460 -10.000                          155257  155185
PLOAD4         2   45461 -10.000                          155258  155186
PLOAD4         2   45462 -10.000                          155259  155187
PLOAD4         2   45463 -10.000                          155260  155188
PLOAD4         2   45464 -10.000                          155261  155189
PLOAD4         2   45465 -10.000                          155262  155190
PLOAD4         2   45466 -10.000                          155263  155191
PLOAD4         2   45467 -10.000                          155264  155192
PLOAD4         2   45468 -10.000                          155265  155193
PLOAD4         2   45469 -10.000                          155266  155194
PLOAD4         2   45470 -10.000                          155267  155195
PLOAD4         2   45471 -10.000                          155268  155196
PLOAD4         2   45472 -10.000                          155269  155197
PLOAD4         2   45473 -10.000                          155200  155198
PLOAD4         2   45474 -10.000                          155201  155269
PLOAD4         2   45475 -10.000                          155271  155201
PLOAD4         2   45476 -10.000                          155272  155202
PLOAD4         2   45477 -10.000                          155273  155203
PLOAD4         2   45478 -10.000                          155274  155204
PLOAD4         2   45479 -10.000                          155275  155205
PLOAD4         2   45480 -10.000                          155276  155206
PLOAD4         2   45481 -10.000                          155277  155207
PLOAD4         2   45482 -10.000                          155278  155208
PLOAD4         2   45483 -10.000                          155279  155209
PLOAD4         2   45484 -10.000                          155280  155210
PLOAD4         2   45485 -10.000                          155281  155211
PLOAD4         2   45486 -10.000                          155282  155212
PLOAD4         2   45487 -10.000                          155283  155213
PLOAD4         2   45488 -10.000                          155284  155214
PLOAD4         2   45489 -10.000                          155285  155215
PLOAD4         2   45490 -10.000                          155218  155216
PLOAD4         2   45491 -10.000                          155286  155218
PLOAD4         2   45492 -10.000                          155287  155219
PLOAD4         2   45493 -10.000                          155288  155220
PLOAD4         2   45494 -10.000                          155289  155221
PLOAD4         2   45495 -10.000                          155290  155222
PLOAD4         2   45496 -10.000                          155291  155223
PLOAD4         2   45497 -10.000                          155292  155224
PLOAD4         2   45498 -10.000                          155293  155225
PLOAD4         2   45499 -10.000                          155294  155226
PLOAD4         2   45500 -10.000                          155295  155227
PLOAD4         2   45501 -10.000                          155296  155228
PLOAD4         2   45502 -10.000                          155297  155229
PLOAD4         2   45503 -10.000                          155298  155230
PLOAD4         2   45504 -10.000                          155299  155231
PLOAD4         2   45505 -10.000                          155300  155232
PLOAD4         2   45506 -10.000                          155301  155233
PLOAD4         2   45507 -10.000                          155236  155234
PLOAD4         2   45508 -10.000                          155302  155236
PLOAD4         2   45509 -10.000                          155303  155237
PLOAD4         2   45510 -10.000                          155304  155238
PLOAD4         2   45511 -10.000                          155305  155239
PLOAD4         2   45512 -10.000                          155306  155240
PLOAD4         2   45513 -10.000                          155307  155241
PLOAD4         2   45514 -10.000                          155308  155242
PLOAD4         2   45515 -10.000                          155309  155243
PLOAD4         2   45516 -10.000                          155310  155244
PLOAD4         2   45517 -10.000                          155311  155245
PLOAD4         2   45518 -10.000                          155312  155246
PLOAD4         2   45519 -10.000                          155313  155247
PLOAD4         2   45520 -10.000                          155314  155248
PLOAD4         2   45521 -10.000                          155315  155249
PLOAD4         2   45522 -10.000                          155316  155250
PLOAD4         2   45523 -10.000                          155317  155251
PLOAD4         2   45524 -10.000                          155318  155252
PLOAD4         2   45525 -10.000                          155255  155253
PLOAD4         2   45526 -10.000                          155319  155255
PLOAD4         2   45527 -10.000                          155320  155256
PLOAD4         2   45528 -10.000                          155321  155257
PLOAD4         2   45529 -10.000                          155322  155258
PLOAD4         2   45530 -10.000                          155323  155259
PLOAD4         2   45531 -10.000                          155324  155260
PLOAD4         2   45532 -10.000                          155325  155261
PLOAD4         2   45533 -10.000                          155326  155262
PLOAD4         2   45534 -10.000                          155327  155263
PLOAD4         2   45535 -10.000                          155328  155264
PLOAD4         2   45536 -10.000                          155329  155265
PLOAD4         2   45537 -10.000                          155330  155266
PLOAD4         2   45538 -10.000                          155331  155267
PLOAD4         2   45539 -10.000                          155270  155268
PLOAD4         2   45540 -10.000                          155271  155331
PLOAD4         2   45541 -10.000                          155333  155271
PLOAD4         2   45542 -10.000                          155334  155272
PLOAD4         2   45543 -10.000                          155335  155273
PLOAD4         2   45544 -10.000                          155336  155274
PLOAD4         2   45545 -10.000                          155337  155275
PLOAD4         2   45546 -10.000                          155338  155276
PLOAD4         2   45547 -10.000                          155339  155277
PLOAD4         2   45548 -10.000                          155340  155278
PLOAD4         2   45549 -10.000                          155341  155279
PLOAD4         2   45550 -10.000                          155342  155280
PLOAD4         2   45551 -10.000                          155343  155281
PLOAD4         2   45552 -10.000                          155344  155282
PLOAD4         2   45553 -10.000                          155345  155283
PLOAD4         2   45554 -10.000                          155286  155284
PLOAD4         2   45555 -10.000                          155346  155286
PLOAD4         2   45556 -10.000                          155347  155287
PLOAD4         2   45557 -10.000                          155348  155288
PLOAD4         2   45558 -10.000                          155349  155289
PLOAD4         2   45559 -10.000                          155350  155290
PLOAD4         2   45560 -10.000                          155351  155291
PLOAD4         2   45561 -10.000                          155352  155292
PLOAD4         2   45562 -10.000                          155353  155293
PLOAD4         2   45563 -10.000                          155354  155294
PLOAD4         2   45564 -10.000                          155355  155295
PLOAD4         2   45565 -10.000                          155356  155296
PLOAD4         2   45566 -10.000                          155357  155297
PLOAD4         2   45567 -10.000                          155358  155298
PLOAD4         2   45568 -10.000                          155359  155299
PLOAD4         2   45569 -10.000                          155302  155300
PLOAD4         2   45570 -10.000                          155360  155302
PLOAD4         2   45571 -10.000                          155361  155303
PLOAD4         2   45572 -10.000                          155362  155304
PLOAD4         2   45573 -10.000                          155363  155305
PLOAD4         2   45574 -10.000                          155364  155306
PLOAD4         2   45575 -10.000                          155365  155307
PLOAD4         2   45576 -10.000                          155366  155308
PLOAD4         2   45577 -10.000                          155367  155309
PLOAD4         2   45578 -10.000                          155368  155310
PLOAD4         2   45579 -10.000                          155369  155311
PLOAD4         2   45580 -10.000                          155370  155312
PLOAD4         2   45581 -10.000                          155371  155313
PLOAD4         2   45582 -10.000                          155372  155314
PLOAD4         2   45583 -10.000                          155373  155315
PLOAD4         2   45584 -10.000                          155374  155316
PLOAD4         2   45585 -10.000                          155319  155317
PLOAD4         2   45586 -10.000                          155375  155319
PLOAD4         2   45587 -10.000                          155376  155320
PLOAD4         2   45588 -10.000                          155377  155321
PLOAD4         2   45589 -10.000                          155378  155322
PLOAD4         2   45590 -10.000                          155379  155323
PLOAD4         2   45591 -10.000                          155380  155324
PLOAD4         2   45592 -10.000                          155381  155325
PLOAD4         2   45593 -10.000                          155382  155326
PLOAD4         2   45594 -10.000                          155383  155327
PLOAD4         2   45595 -10.000                          155384  155328
PLOAD4         2   45596 -10.000                          155385  155329
PLOAD4         2   45597 -10.000                          155332  155330
PLOAD4         2   45598 -10.000                          155398  155386
PLOAD4         2   45599 -10.000                          155399  155387
PLOAD4         2   45600 -10.000                          155400  155388
PLOAD4         2   45601 -10.000                          155401  155389
PLOAD4         2   45602 -10.000                          155402  155390
PLOAD4         2   45603 -10.000                          155403  155391
PLOAD4         2   45604 -10.000                          155404  155392
PLOAD4         2   45605 -10.000                          155405  155393
PLOAD4         2   45606 -10.000                          155406  155394
PLOAD4         2   45607 -10.000                          155407  155395
PLOAD4         2   45608 -10.000                          155368  155396
PLOAD4         2   45609 -10.000                          155408  155368
PLOAD4         2   45610 -10.000                          155409  155369
PLOAD4         2   45611 -10.000                          155410  155370
PLOAD4         2   45612 -10.000                          155411  155371
PLOAD4         2   45613 -10.000                          155412  155372
PLOAD4         2   45614 -10.000                          155375  155373
PLOAD4         2   45615 -10.000                          155413  155375
PLOAD4         2   45616 -10.000                          155414  155376
PLOAD4         2   45617 -10.000                          155415  155377
PLOAD4         2   45618 -10.000                          155416  155378
PLOAD4         2   45619 -10.000                          155417  155379
PLOAD4         2   45620 -10.000                          155418  155380
PLOAD4         2   45621 -10.000                          155419  155381
PLOAD4         2   45622 -10.000                          155420  155382
PLOAD4         2   45623 -10.000                          155421  155383
PLOAD4         2   45624 -10.000                          155422  155384
PLOAD4         2   45625 -10.000                          155333  155385
PLOAD4         2   45626 -10.000                          155423  155333
PLOAD4         2   45627 -10.000                          155424  155334
PLOAD4         2   45628 -10.000                          155425  155335
PLOAD4         2   45629 -10.000                          155426  155336
PLOAD4         2   45630 -10.000                          155397  155337
PLOAD4         2   45631 -10.000                          155386  155338
PLOAD4         2   45632 -10.000                          155398  155426
PLOAD4         2   45633 -10.000                          155428  155398
PLOAD4         2   45634 -10.000                          155429  155399
PLOAD4         2   45635 -10.000                          155430  155400
PLOAD4         2   45636 -10.000                          155431  155401
PLOAD4         2   45637 -10.000                          155432  155402
PLOAD4         2   45638 -10.000                          155433  155403
PLOAD4         2   45639 -10.000                          155434  155404
PLOAD4         2   45640 -10.000                          155435  155405
PLOAD4         2   45641 -10.000                          155408  155406
PLOAD4         2   45642 -10.000                          155436  155408
PLOAD4         2   45643 -10.000                          155437  155409
PLOAD4         2   45644 -10.000                          155438  155410
PLOAD4         2   45645 -10.000                          155413  155411
PLOAD4         2   45646 -10.000                          155439  155413
PLOAD4         2   45647 -10.000                          155440  155414
PLOAD4         2   45648 -10.000                          155441  155415
PLOAD4         2   45649 -10.000                          155442  155416
PLOAD4         2   45650 -10.000                          155443  155417
PLOAD4         2   45651 -10.000                          155444  155418
PLOAD4         2   45652 -10.000                          155445  155419
PLOAD4         2   45653 -10.000                          155446  155420
PLOAD4         2   45654 -10.000                          155423  155421
PLOAD4         2   45655 -10.000                          155447  155423
PLOAD4         2   45656 -10.000                          155448  155424
PLOAD4         2   45657 -10.000                          155427  155425
PLOAD4         2   45658 -10.000                          155428  155448
PLOAD4         2   45659 -10.000                          155450  155428
PLOAD4         2   45660 -10.000                          155451  155429
PLOAD4         2   45661 -10.000                          155452  155430
PLOAD4         2   45662 -10.000                          155453  155431
PLOAD4         2   45663 -10.000                          155454  155432
PLOAD4         2   45664 -10.000                          155455  155433
PLOAD4         2   45665 -10.000                          155436  155434
PLOAD4         2   45666 -10.000                          155456  155436
PLOAD4         2   45667 -10.000                          155439  155437
PLOAD4         2   45668 -10.000                          155457  155439
PLOAD4         2   45669 -10.000                          155458  155440
PLOAD4         2   45670 -10.000                          155459  155441
PLOAD4         2   45671 -10.000                          155460  155442
PLOAD4         2   45672 -10.000                          155461  155443
PLOAD4         2   45673 -10.000                          155462  155444
PLOAD4         2   45674 -10.000                          155447  155445
PLOAD4         2   45675 -10.000                          155449  155447
PLOAD4         2   45676 -10.000                          155462  155450
PLOAD4         2   45677 -10.000                          155461  155451
PLOAD4         2   45678 -10.000                          155460  155452
PLOAD4         2   45679 -10.000                          155459  155453
PLOAD4         2   45680 -10.000                          155458  155454
PLOAD4         2   45681 -10.000                          155457  155455
PLOAD4         2   45682 -10.000                          155474  155468
PLOAD4         2   45683 -10.000                          155476  155469
PLOAD4         2   45684 -10.000                          155475  155352
PLOAD4         2   45685 -10.000                          155354  155475
PLOAD4         2   45686 -10.000                          155477  155354
PLOAD4         2   45687 -10.000                          155480  155476
PLOAD4         2   45688 -10.000                          155478  155480
PLOAD4         2   45689 -10.000                          155476  155473
PLOAD4         2   45690 -10.000                          155479  155481
PLOAD4         2   45691 -10.000                          155472  155479
PLOAD4         2   45692 -10.000                          155470  155362
PLOAD4         2   45693 -10.000                          155479  155470
PLOAD4         2   45694 -10.000                          155484  155478
PLOAD4         2   45695 -10.000                          155486  155477
PLOAD4         2   45696 -10.000                          155485  155355
PLOAD4         2   45697 -10.000                          155488  155484
PLOAD4         2   45698 -10.000                          155361  155488
PLOAD4         2   45699 -10.000                          155357  155485
PLOAD4         2   45700 -10.000                          155490  155359
PLOAD4         2   45701 -10.000                          155357  155490
PLOAD4         2   45702 -10.000                          155364  155470
PLOAD4         2   45703 -10.000                          155492  155364
PLOAD4         2   45704 -10.000                          155493  155365
PLOAD4         2   45705 -10.000                          155396  155366
PLOAD4         2   45706 -10.000                          155494  155396
PLOAD4         2   45707 -10.000                          155495  155395
PLOAD4         2   45708 -10.000                          155496  155394
PLOAD4         2   45709 -10.000                          155463  155393
PLOAD4         2   45710 -10.000                          155497  155463
PLOAD4         2   45711 -10.000                          155498  155464
PLOAD4         2   45712 -10.000                          155499  155465
PLOAD4         2   45713 -10.000                          155474  155466
PLOAD4         2   45714 -10.000                          155500  155474
PLOAD4         2   45715 -10.000                          155501  155473
PLOAD4         2   45716 -10.000                          155502  155472
PLOAD4         2   45717 -10.000                          155491  155471
PLOAD4         2   45718 -10.000                          155498  155500
PLOAD4         2   45719 -10.000                          155505  155501
PLOAD4         2   45720 -10.000                          155504  155502
PLOAD4         2   45721 -10.000                          155497  155495
PLOAD4         2   45722 -10.000                          155505  155497
PLOAD4         2   45723 -10.000                          155505  155507
PLOAD4         2   45724 -10.000                          155391  155463
PLOAD4         2   45725 -10.000                          155509  155391
PLOAD4         2   45726 -10.000                          155510  155390
PLOAD4         2   45727 -10.000                          155511  155389
PLOAD4         2   45728 -10.000                          155512  155388
PLOAD4         2   45729 -10.000                          155513  155387
PLOAD4         2   45730 -10.000                          155340  155386
PLOAD4         2   45731 -10.000                          155514  155340
PLOAD4         2   45732 -10.000                          155515  155341
PLOAD4         2   45733 -10.000                          155516  155342
PLOAD4         2   45734 -10.000                          155517  155343
PLOAD4         2   45735 -10.000                          155346  155344
PLOAD4         2   45736 -10.000                          155518  155346
PLOAD4         2   45737 -10.000                          155519  155347
PLOAD4         2   45738 -10.000                          155520  155348
PLOAD4         2   45739 -10.000                          155521  155349
PLOAD4         2   45740 -10.000                          155522  155350
PLOAD4         2   45741 -10.000                          155469  155351
PLOAD4         2   45742 -10.000                          155523  155469
PLOAD4         2   45743 -10.000                          155524  155468
PLOAD4         2   45744 -10.000                          155525  155467
PLOAD4         2   45745 -10.000                          155526  155466
PLOAD4         2   45746 -10.000                          155527  155465
PLOAD4         2   45747 -10.000                          155508  155464
PLOAD4         2   45748 -10.000                          155509  155527
PLOAD4         2   45749 -10.000                          155529  155509
PLOAD4         2   45750 -10.000                          155530  155510
PLOAD4         2   45751 -10.000                          155531  155511
PLOAD4         2   45752 -10.000                          155514  155512
PLOAD4         2   45753 -10.000                          155532  155514
PLOAD4         2   45754 -10.000                          155533  155515
PLOAD4         2   45755 -10.000                          155518  155516
PLOAD4         2   45756 -10.000                          155534  155518
PLOAD4         2   45757 -10.000                          155535  155519
PLOAD4         2   45758 -10.000                          155536  155520
PLOAD4         2   45759 -10.000                          155523  155521
PLOAD4         2   45760 -10.000                          155537  155523
PLOAD4         2   45761 -10.000                          155538  155524
PLOAD4         2   45762 -10.000                          155539  155525
PLOAD4         2   45763 -10.000                          155528  155526
PLOAD4         2   45764 -10.000                          155537  155535
PLOAD4         2   45765 -10.000                          155540  155537
PLOAD4         2   45766 -10.000                          155535  155542
PLOAD4         2   45767 -10.000                          155531  155544
PLOAD4         2   45768 -10.000                          155539  155540
PLOAD4         2   45769 -10.000                          155529  155539
PLOAD4         2   45770 -10.000                          155544  155529
PLOAD4         2   45771 -10.000                          155547  153546
PLOAD4         2   45772 -10.000                          155547  153548
PLOAD4         2   45773 -10.000                          154787  155547
PLOAD4         2   45774 -10.000                          154799  153821
PLOAD4         2   45775 -10.000                          154800  153820
PLOAD4         2   45776 -10.000                          154801  153819
PLOAD4         2   45777 -10.000                          154802  153818
PLOAD4         2   45778 -10.000                          154803  153817
PLOAD4         2   45779 -10.000                          154804  153816
PLOAD4         2   45780 -10.000                          154805  153815
PLOAD4         2   45781 -10.000                          154806  153814
PLOAD4         2   45782 -10.000                          154807  153813
PLOAD4         2   45783 -10.000                          154808  153812
PLOAD4         2   45784 -10.000                          154809  153811
PLOAD4         2   45785 -10.000                          154810  153661
PLOAD4         2   45786 -10.000                          154793  153827
PLOAD4         2   45787 -10.000                          154794  153826
PLOAD4         2   45788 -10.000                          154795  153825
PLOAD4         2   45789 -10.000                          154796  153824
PLOAD4         2   45790 -10.000                          154797  153823
PLOAD4         2   45791 -10.000                          154798  153822
PLOAD4         2   45792 -10.000                          154790  153830
PLOAD4         2   45793 -10.000                          154791  153829
PLOAD4         2   45794 -10.000                          154792  153828
PLOAD4         2   45795 -10.000                          154789  153831
PLOAD4         2   45796 -10.000                          154788  153832
PLOAD4         2   45797 -10.000                          155548  153548
PLOAD4         2   45798 -10.000                          155548  153550
PLOAD4         2   45799 -10.000                          154787  155548
PLOAD4         2   45800 -10.000                          153779  155549
PLOAD4         2   45801 -10.000                          155551  153779
PLOAD4         2   45802 -10.000                          155552  153780
PLOAD4         2   45803 -10.000                          155553  153781
PLOAD4         2   45804 -10.000                          155554  153782
PLOAD4         2   45805 -10.000                          155555  153783
PLOAD4         2   45806 -10.000                          155556  153784
PLOAD4         2   45807 -10.000                          155557  153785
PLOAD4         2   45808 -10.000                          155558  153786
PLOAD4         2   45809 -10.000                          155559  153787
PLOAD4         2   45810 -10.000                          153508  153788
PLOAD4         2   45811 -10.000                          155560  153508
PLOAD4         2   45812 -10.000                          155561  153509
PLOAD4         2   45813 -10.000                          155562  153510
PLOAD4         2   45814 -10.000                          155563  153511
PLOAD4         2   45815 -10.000                          153810  153512
PLOAD4         2   45816 -10.000                          155564  153810
PLOAD4         2   45817 -10.000                          155565  153809
PLOAD4         2   45818 -10.000                          155566  153808
PLOAD4         2   45819 -10.000                          155567  153807
PLOAD4         2   45820 -10.000                          155568  153806
PLOAD4         2   45821 -10.000                          155569  153805
PLOAD4         2   45822 -10.000                          155552  153804
PLOAD4         2   45823 -10.000                          155551  153803
PLOAD4         2   45824 -10.000                          155550  153802
PLOAD4         2   45825 -10.000                          155549  153801
PLOAD4         2   45826 -10.000                          155560  155558
PLOAD4         2   45827 -10.000                          155564  155562
PLOAD4         2   45828 -10.000                          155560  155564
PLOAD4         2   45829 -10.000                          155573  155552
PLOAD4         2   45830 -10.000                          155573  155554
PLOAD4         2   45831 -10.000                          155568  155573
PLOAD4         2   45832 -10.000                          155572  155567
PLOAD4         2   45833 -10.000                          155555  155572
PLOAD4         2   45834 -10.000                          155571  155556
PLOAD4         2   45835 -10.000                          155574  155557
PLOAD4         2   45836 -10.000                          155575  155558
PLOAD4         2   45837 -10.000                          155565  155570
PLOAD4         2   45838 -10.000                          155566  155575
PLOAD4         2   45839 -10.000                          155567  155574
PLOAD4         2   45840 -10.000                          153792  155576
PLOAD4         2   45841 -10.000                          153791  155580
PLOAD4         2   45842 -10.000                          153790  155579
PLOAD4         2   45843 -10.000                          153699  153789
PLOAD4         2   45844 -10.000                          155577  153699
PLOAD4         2   45845 -10.000                          155580  153771
PLOAD4         2   45846 -10.000                          155579  153770
PLOAD4         2   45847 -10.000                          155578  153769
PLOAD4         2   45848 -10.000                          153701  155577
PLOAD4         2   45849 -10.000                          153767  153701
PLOAD4         2   45850 -10.000                          155576  153772
PLOAD4         2   45851 -10.000                          155583  153773
PLOAD4         2   45852 -10.000                          155584  153774
PLOAD4         2   45853 -10.000                          155585  153775
PLOAD4         2   45854 -10.000                          155586  153776
PLOAD4         2   45855 -10.000                          155587  153777
PLOAD4         2   45856 -10.000                          155588  153778
PLOAD4         2   45857 -10.000                          153799  155549
PLOAD4         2   45858 -10.000                          153798  155588
PLOAD4         2   45859 -10.000                          153797  155587
PLOAD4         2   45860 -10.000                          153796  155586
PLOAD4         2   45861 -10.000                          153795  155585
PLOAD4         2   45862 -10.000                          153794  155584
PLOAD4         2   45863 -10.000                          153793  155583
PLOAD4         2   45864 -10.000                          153766  153742
PLOAD4         2   45865 -10.000                          155617  153373
PLOAD4         2   45866 -10.000                          155617  155616
PLOAD4         2   45867 -10.000                          153395  155617
PLOAD4         2   45868 -10.000                          155616  153741
PLOAD4         2   45869 -10.000                          155615  155614
PLOAD4         2   45870 -10.000                          155615  153374
PLOAD4         2   45871 -10.000                          155618  153375
PLOAD4         2   45872 -10.000                          155619  153376
PLOAD4         2   45873 -10.000                          153394  153766
PLOAD4         2   45874 -10.000                          155637  153743
PLOAD4         2   45875 -10.000                          153765  153762
PLOAD4         2   45876 -10.000                          155642  153451
PLOAD4         2   45877 -10.000                          155642  155641
PLOAD4         2   45878 -10.000                          153451  155638
PLOAD4         2   45879 -10.000                          155640  155639
PLOAD4         2   45880 -10.000                          155641  153761
PLOAD4         2   45881 -10.000                          155644  153453
PLOAD4         2   45882 -10.000                          155645  153454
PLOAD4         2   45883 -10.000                          155646  153455
PLOAD4         2   45884 -10.000                          155647  153456
PLOAD4         2   45885 -10.000                          155620  153457
PLOAD4         2   45886 -10.000                          155648  155620
PLOAD4         2   45887 -10.000                          155649  155621
PLOAD4         2   45888 -10.000                          155650  155622
PLOAD4         2   45889 -10.000                          155651  155623
PLOAD4         2   45890 -10.000                          155652  155624
PLOAD4         2   45891 -10.000                          155653  155625
PLOAD4         2   45892 -10.000                          155654  155626
PLOAD4         2   45893 -10.000                          155655  155627
PLOAD4         2   45894 -10.000                          155656  155628
PLOAD4         2   45895 -10.000                          155657  155629
PLOAD4         2   45896 -10.000                          155658  155630
PLOAD4         2   45897 -10.000                          155659  155631
PLOAD4         2   45898 -10.000                          155660  155632
PLOAD4         2   45899 -10.000                          155661  155633
PLOAD4         2   45900 -10.000                          155662  155634
PLOAD4         2   45901 -10.000                          155663  155635
PLOAD4         2   45902 -10.000                          153389  155636
PLOAD4         2   45903 -10.000                          155664  153389
PLOAD4         2   45904 -10.000                          155665  153390
PLOAD4         2   45905 -10.000                          155666  153391
PLOAD4         2   45906 -10.000                          155667  153392
PLOAD4         2   45907 -10.000                          155668  153393
PLOAD4         2   45908 -10.000                          155669  153394
PLOAD4         2   45909 -10.000                          153745  155637
PLOAD4         2   45910 -10.000                          155670  153745
PLOAD4         2   45911 -10.000                          155671  153746
PLOAD4         2   45912 -10.000                          155672  153747
PLOAD4         2   45913 -10.000                          155673  153748
PLOAD4         2   45914 -10.000                          155674  153749
PLOAD4         2   45915 -10.000                          155675  153750
PLOAD4         2   45916 -10.000                          155676  153751
PLOAD4         2   45917 -10.000                          155677  153752
PLOAD4         2   45918 -10.000                          155678  153753
PLOAD4         2   45919 -10.000                          155679  153754
PLOAD4         2   45920 -10.000                          155680  153755
PLOAD4         2   45921 -10.000                          155681  153756
PLOAD4         2   45922 -10.000                          155682  153757
PLOAD4         2   45923 -10.000                          155683  153758
PLOAD4         2   45924 -10.000                          155684  153759
PLOAD4         2   45925 -10.000                          155639  153760
PLOAD4         2   45926 -10.000                          155685  155639
PLOAD4         2   45927 -10.000                          155649  155686
PLOAD4         2   45928 -10.000                          155691  155687
PLOAD4         2   45929 -10.000                          155690  155688
PLOAD4         2   45930 -10.000                          155689  155682
PLOAD4         2   45931 -10.000                          155684  155689
PLOAD4         2   45932 -10.000                          155693  155684
PLOAD4         2   45933 -10.000                          155694  155690
PLOAD4         2   45934 -10.000                          155694  155643
PLOAD4         2   45935 -10.000                          155691  155648
PLOAD4         2   45936 -10.000                          155692  155691
PLOAD4         2   45937 -10.000                          155644  155692
PLOAD4         2   45938 -10.000                          155695  155647
PLOAD4         2   45939 -10.000                          155645  155695
PLOAD4         2   45940 -10.000                          155681  155688
PLOAD4         2   45941 -10.000                          155698  155687
PLOAD4         2   45942 -10.000                          155697  155686
PLOAD4         2   45943 -10.000                          155696  155650
PLOAD4         2   45944 -10.000                          155680  155698
PLOAD4         2   45945 -10.000                          155701  155697
PLOAD4         2   45946 -10.000                          155700  155696
PLOAD4         2   45947 -10.000                          155699  155651
PLOAD4         2   45948 -10.000                          155679  155701
PLOAD4         2   45949 -10.000                          155704  155700
PLOAD4         2   45950 -10.000                          155703  155699
PLOAD4         2   45951 -10.000                          155702  155652
PLOAD4         2   45952 -10.000                          155678  155704
PLOAD4         2   45953 -10.000                          155707  155703
PLOAD4         2   45954 -10.000                          155706  155702
PLOAD4         2   45955 -10.000                          155705  155653
PLOAD4         2   45956 -10.000                          155708  155669
PLOAD4         2   45957 -10.000                          155667  155708
PLOAD4         2   45958 -10.000                          155671  155708
PLOAD4         2   45959 -10.000                          155712  155671
PLOAD4         2   45960 -10.000                          155713  155672
PLOAD4         2   45961 -10.000                          155714  155673
PLOAD4         2   45962 -10.000                          155715  155674
PLOAD4         2   45963 -10.000                          155716  155675
PLOAD4         2   45964 -10.000                          155717  155676
PLOAD4         2   45965 -10.000                          155707  155677
PLOAD4         2   45966 -10.000                          155718  155707
PLOAD4         2   45967 -10.000                          155719  155706
PLOAD4         2   45968 -10.000                          155655  155705
PLOAD4         2   45969 -10.000                          155720  155655
PLOAD4         2   45970 -10.000                          155721  155656
PLOAD4         2   45971 -10.000                          155722  155657
PLOAD4         2   45972 -10.000                          155723  155658
PLOAD4         2   45973 -10.000                          155724  155659
PLOAD4         2   45974 -10.000                          155725  155660
PLOAD4         2   45975 -10.000                          155710  155661
PLOAD4         2   45976 -10.000                          155726  155710
PLOAD4         2   45977 -10.000                          155711  155709
PLOAD4         2   45978 -10.000                          155726  155712
PLOAD4         2   45979 -10.000                          155727  155713
PLOAD4         2   45980 -10.000                          155728  155714
PLOAD4         2   45981 -10.000                          155729  155715
PLOAD4         2   45982 -10.000                          155730  155716
PLOAD4         2   45983 -10.000                          155731  155717
PLOAD4         2   45984 -10.000                          155720  155718
PLOAD4         2   45985 -10.000                          155721  155731
PLOAD4         2   45986 -10.000                          155722  155730
PLOAD4         2   45987 -10.000                          155723  155729
PLOAD4         2   45988 -10.000                          155724  155728
PLOAD4         2   45989 -10.000                          155725  155727
PLOAD4         2   45990 -10.000                          155733  153763
PLOAD4         2   45991 -10.000                          155735  153447
PLOAD4         2   45992 -10.000                          155733  155735
PLOAD4         2   45993 -10.000                          153470  153764
PLOAD4         2   45994 -10.000                          155736  153447
PLOAD4         2   45995 -10.000                          155736  155733
PLOAD4         2   45996 -10.000                          153471  155736
PLOAD4         2   45997 -10.000                          155737  153464
PLOAD4         2   45998 -10.000                          155737  153466
PLOAD4         2   45999 -10.000                          153474  155737
PLOAD4         2   46000 -10.000                          153467  153473
PLOAD4         2   46001 -10.000                          155738  153445
PLOAD4         2   46002 -10.000                          155739  153446
PLOAD4         2   46003 -10.000                          153472  155739
PLOAD4         2   46004 -10.000                          153468  153472
PLOAD4         2   46005 -10.000                          155765  155740
PLOAD4         2   46006 -10.000                          155766  155741
PLOAD4         2   46007 -10.000                          155767  155742
PLOAD4         2   46008 -10.000                          155768  155743
PLOAD4         2   46009 -10.000                          155769  155744
PLOAD4         2   46010 -10.000                          155770  155745
PLOAD4         2   46011 -10.000                          155771  155746
PLOAD4         2   46012 -10.000                          155772  155747
PLOAD4         2   46013 -10.000                          155773  155748
PLOAD4         2   46014 -10.000                          155774  155749
PLOAD4         2   46015 -10.000                          155775  155750
PLOAD4         2   46016 -10.000                          155776  155751
PLOAD4         2   46017 -10.000                          155777  155752
PLOAD4         2   46018 -10.000                          155778  155753
PLOAD4         2   46019 -10.000                          155779  155754
PLOAD4         2   46020 -10.000                          155780  155755
PLOAD4         2   46021 -10.000                          155781  155756
PLOAD4         2   46022 -10.000                          155782  155757
PLOAD4         2   46023 -10.000                          155783  155758
PLOAD4         2   46024 -10.000                          155784  155759
PLOAD4         2   46025 -10.000                          155785  155760
PLOAD4         2   46026 -10.000                          155786  155761
PLOAD4         2   46027 -10.000                          155787  155762
PLOAD4         2   46028 -10.000                          153488  155763
PLOAD4         2   46029 -10.000                          155788  153488
PLOAD4         2   46030 -10.000                          155789  153489
PLOAD4         2   46031 -10.000                          155790  153490
PLOAD4         2   46032 -10.000                          155791  153491
PLOAD4         2   46033 -10.000                          155792  153492
PLOAD4         2   46034 -10.000                          155793  153493
PLOAD4         2   46035 -10.000                          155794  153494
PLOAD4         2   46036 -10.000                          155795  153495
PLOAD4         2   46037 -10.000                          155796  153496
PLOAD4         2   46038 -10.000                          155797  153497
PLOAD4         2   46039 -10.000                          155798  153498
PLOAD4         2   46040 -10.000                          155799  153499
PLOAD4         2   46041 -10.000                          155800  153500
PLOAD4         2   46042 -10.000                          155589  153501
PLOAD4         2   46043 -10.000                          155801  155589
PLOAD4         2   46044 -10.000                          155802  155590
PLOAD4         2   46045 -10.000                          155803  155591
PLOAD4         2   46046 -10.000                          155804  155592
PLOAD4         2   46047 -10.000                          155805  155593
PLOAD4         2   46048 -10.000                          155806  155594
PLOAD4         2   46049 -10.000                          155807  155595
PLOAD4         2   46050 -10.000                          155808  155596
PLOAD4         2   46051 -10.000                          155809  155597
PLOAD4         2   46052 -10.000                          155810  155598
PLOAD4         2   46053 -10.000                          155811  155599
PLOAD4         2   46054 -10.000                          155812  155600
PLOAD4         2   46055 -10.000                          155813  155601
PLOAD4         2   46056 -10.000                          155814  155602
PLOAD4         2   46057 -10.000                          155815  155603
PLOAD4         2   46058 -10.000                          155816  155604
PLOAD4         2   46059 -10.000                          155817  155605
PLOAD4         2   46060 -10.000                          155818  155606
PLOAD4         2   46061 -10.000                          155819  155607
PLOAD4         2   46062 -10.000                          155820  155608
PLOAD4         2   46063 -10.000                          155821  155609
PLOAD4         2   46064 -10.000                          155822  155610
PLOAD4         2   46065 -10.000                          155823  155611
PLOAD4         2   46066 -10.000                          155824  155612
PLOAD4         2   46067 -10.000                          155825  153703
PLOAD4         2   46068 -10.000                          155826  153704
PLOAD4         2   46069 -10.000                          153707  153705
PLOAD4         2   46070 -10.000                          155827  153707
PLOAD4         2   46071 -10.000                          155828  153708
PLOAD4         2   46072 -10.000                          155829  153709
PLOAD4         2   46073 -10.000                          155830  153710
PLOAD4         2   46074 -10.000                          155831  153711
PLOAD4         2   46075 -10.000                          155832  153712
PLOAD4         2   46076 -10.000                          155833  153713
PLOAD4         2   46077 -10.000                          155834  153714
PLOAD4         2   46078 -10.000                          155835  153715
PLOAD4         2   46079 -10.000                          155836  153716
PLOAD4         2   46080 -10.000                          155837  153717
PLOAD4         2   46081 -10.000                          155838  153718
PLOAD4         2   46082 -10.000                          155839  153719
PLOAD4         2   46083 -10.000                          155764  153720
PLOAD4         2   46084 -10.000                          155740  153721
PLOAD4         2   46085 -10.000                          155765  155839
PLOAD4         2   46086 -10.000                          155841  155765
PLOAD4         2   46087 -10.000                          155842  155766
PLOAD4         2   46088 -10.000                          155843  155767
PLOAD4         2   46089 -10.000                          155844  155768
PLOAD4         2   46090 -10.000                          155845  155769
PLOAD4         2   46091 -10.000                          155846  155770
PLOAD4         2   46092 -10.000                          155847  155771
PLOAD4         2   46093 -10.000                          155848  155772
PLOAD4         2   46094 -10.000                          155849  155773
PLOAD4         2   46095 -10.000                          155850  155774
PLOAD4         2   46096 -10.000                          155851  155775
PLOAD4         2   46097 -10.000                          155852  155776
PLOAD4         2   46098 -10.000                          155853  155777
PLOAD4         2   46099 -10.000                          155854  155778
PLOAD4         2   46100 -10.000                          155855  155779
PLOAD4         2   46101 -10.000                          155856  155780
PLOAD4         2   46102 -10.000                          155857  155781
PLOAD4         2   46103 -10.000                          155858  155782
PLOAD4         2   46104 -10.000                          155859  155783
PLOAD4         2   46105 -10.000                          155860  155784
PLOAD4         2   46106 -10.000                          155861  155785
PLOAD4         2   46107 -10.000                          155788  155786
PLOAD4         2   46108 -10.000                          155862  155788
PLOAD4         2   46109 -10.000                          155863  155789
PLOAD4         2   46110 -10.000                          155864  155790
PLOAD4         2   46111 -10.000                          155865  155791
PLOAD4         2   46112 -10.000                          155866  155792
PLOAD4         2   46113 -10.000                          155867  155793
PLOAD4         2   46114 -10.000                          155868  155794
PLOAD4         2   46115 -10.000                          155869  155795
PLOAD4         2   46116 -10.000                          155870  155796
PLOAD4         2   46117 -10.000                          155871  155797
PLOAD4         2   46118 -10.000                          155872  155798
PLOAD4         2   46119 -10.000                          155801  155799
PLOAD4         2   46120 -10.000                          155873  155801
PLOAD4         2   46121 -10.000                          155874  155802
PLOAD4         2   46122 -10.000                          155875  155803
PLOAD4         2   46123 -10.000                          155876  155804
PLOAD4         2   46124 -10.000                          155877  155805
PLOAD4         2   46125 -10.000                          155878  155806
PLOAD4         2   46126 -10.000                          155879  155807
PLOAD4         2   46127 -10.000                          155880  155808
PLOAD4         2   46128 -10.000                          155881  155809
PLOAD4         2   46129 -10.000                          155882  155810
PLOAD4         2   46130 -10.000                          155883  155811
PLOAD4         2   46131 -10.000                          155884  155812
PLOAD4         2   46132 -10.000                          155885  155813
PLOAD4         2   46133 -10.000                          155886  155814
PLOAD4         2   46134 -10.000                          155887  155815
PLOAD4         2   46135 -10.000                          155888  155816
PLOAD4         2   46136 -10.000                          155889  155817
PLOAD4         2   46137 -10.000                          155890  155818
PLOAD4         2   46138 -10.000                          155891  155819
PLOAD4         2   46139 -10.000                          155892  155820
PLOAD4         2   46140 -10.000                          155893  155821
PLOAD4         2   46141 -10.000                          155894  155822
PLOAD4         2   46142 -10.000                          155895  155823
PLOAD4         2   46143 -10.000                          155896  155824
PLOAD4         2   46144 -10.000                          155827  155825
PLOAD4         2   46145 -10.000                          155897  155827
PLOAD4         2   46146 -10.000                          155898  155828
PLOAD4         2   46147 -10.000                          155899  155829
PLOAD4         2   46148 -10.000                          155900  155830
PLOAD4         2   46149 -10.000                          155901  155831
PLOAD4         2   46150 -10.000                          155902  155832
PLOAD4         2   46151 -10.000                          155903  155833
PLOAD4         2   46152 -10.000                          155904  155834
PLOAD4         2   46153 -10.000                          155905  155835
PLOAD4         2   46154 -10.000                          155906  155836
PLOAD4         2   46155 -10.000                          155907  155837
PLOAD4         2   46156 -10.000                          155840  155838
PLOAD4         2   46157 -10.000                          155841  155907
PLOAD4         2   46158 -10.000                          155909  155841
PLOAD4         2   46159 -10.000                          155910  155842
PLOAD4         2   46160 -10.000                          155911  155843
PLOAD4         2   46161 -10.000                          155912  155844
PLOAD4         2   46162 -10.000                          155913  155845
PLOAD4         2   46163 -10.000                          155914  155846
PLOAD4         2   46164 -10.000                          155915  155847
PLOAD4         2   46165 -10.000                          155916  155848
PLOAD4         2   46166 -10.000                          155917  155849
PLOAD4         2   46167 -10.000                          155918  155850
PLOAD4         2   46168 -10.000                          155919  155851
PLOAD4         2   46169 -10.000                          155920  155852
PLOAD4         2   46170 -10.000                          155921  155853
PLOAD4         2   46171 -10.000                          155922  155854
PLOAD4         2   46172 -10.000                          155923  155855
PLOAD4         2   46173 -10.000                          155924  155856
PLOAD4         2   46174 -10.000                          155925  155857
PLOAD4         2   46175 -10.000                          155926  155858
PLOAD4         2   46176 -10.000                          155927  155859
PLOAD4         2   46177 -10.000                          155862  155860
PLOAD4         2   46178 -10.000                          155928  155862
PLOAD4         2   46179 -10.000                          155929  155863
PLOAD4         2   46180 -10.000                          155930  155864
PLOAD4         2   46181 -10.000                          155931  155865
PLOAD4         2   46182 -10.000                          155932  155866
PLOAD4         2   46183 -10.000                          155933  155867
PLOAD4         2   46184 -10.000                          155934  155868
PLOAD4         2   46185 -10.000                          155935  155869
PLOAD4         2   46186 -10.000                          155936  155870
PLOAD4         2   46187 -10.000                          155873  155871
PLOAD4         2   46188 -10.000                          155937  155873
PLOAD4         2   46189 -10.000                          155938  155874
PLOAD4         2   46190 -10.000                          155939  155875
PLOAD4         2   46191 -10.000                          155940  155876
PLOAD4         2   46192 -10.000                          155941  155877
PLOAD4         2   46193 -10.000                          155942  155878
PLOAD4         2   46194 -10.000                          155943  155879
PLOAD4         2   46195 -10.000                          155944  155880
PLOAD4         2   46196 -10.000                          155945  155881
PLOAD4         2   46197 -10.000                          155946  155882
PLOAD4         2   46198 -10.000                          155947  155883
PLOAD4         2   46199 -10.000                          155948  155884
PLOAD4         2   46200 -10.000                          155949  155885
PLOAD4         2   46201 -10.000                          155950  155886
PLOAD4         2   46202 -10.000                          155951  155887
PLOAD4         2   46203 -10.000                          155952  155888
PLOAD4         2   46204 -10.000                          155953  155889
PLOAD4         2   46205 -10.000                          155954  155890
PLOAD4         2   46206 -10.000                          155955  155891
PLOAD4         2   46207 -10.000                          155956  155892
PLOAD4         2   46208 -10.000                          155957  155893
PLOAD4         2   46209 -10.000                          155958  155894
PLOAD4         2   46210 -10.000                          155897  155895
PLOAD4         2   46211 -10.000                          155959  155897
PLOAD4         2   46212 -10.000                          155960  155898
PLOAD4         2   46213 -10.000                          155961  155899
PLOAD4         2   46214 -10.000                          155962  155900
PLOAD4         2   46215 -10.000                          155963  155901
PLOAD4         2   46216 -10.000                          155964  155902
PLOAD4         2   46217 -10.000                          155965  155903
PLOAD4         2   46218 -10.000                          155966  155904
PLOAD4         2   46219 -10.000                          155967  155905
PLOAD4         2   46220 -10.000                          155908  155906
PLOAD4         2   46221 -10.000                          155909  155967
PLOAD4         2   46222 -10.000                          155969  155909
PLOAD4         2   46223 -10.000                          155970  155910
PLOAD4         2   46224 -10.000                          155971  155911
PLOAD4         2   46225 -10.000                          155972  155912
PLOAD4         2   46226 -10.000                          155973  155913
PLOAD4         2   46227 -10.000                          155974  155914
PLOAD4         2   46228 -10.000                          155975  155915
PLOAD4         2   46229 -10.000                          155976  155916
PLOAD4         2   46230 -10.000                          155977  155917
PLOAD4         2   46231 -10.000                          155978  155918
PLOAD4         2   46232 -10.000                          155979  155919
PLOAD4         2   46233 -10.000                          155980  155920
PLOAD4         2   46234 -10.000                          155981  155921
PLOAD4         2   46235 -10.000                          155982  155922
PLOAD4         2   46236 -10.000                          155983  155923
PLOAD4         2   46237 -10.000                          155984  155924
PLOAD4         2   46238 -10.000                          155985  155925
PLOAD4         2   46239 -10.000                          155928  155926
PLOAD4         2   46240 -10.000                          155986  155928
PLOAD4         2   46241 -10.000                          155987  155929
PLOAD4         2   46242 -10.000                          155988  155930
PLOAD4         2   46243 -10.000                          155989  155931
PLOAD4         2   46244 -10.000                          155990  155932
PLOAD4         2   46245 -10.000                          155991  155933
PLOAD4         2   46246 -10.000                          155992  155934
PLOAD4         2   46247 -10.000                          155937  155935
PLOAD4         2   46248 -10.000                          155993  155937
PLOAD4         2   46249 -10.000                          155994  155938
PLOAD4         2   46250 -10.000                          155995  155939
PLOAD4         2   46251 -10.000                          155996  155940
PLOAD4         2   46252 -10.000                          155997  155941
PLOAD4         2   46253 -10.000                          155998  155942
PLOAD4         2   46254 -10.000                          155999  155943
PLOAD4         2   46255 -10.000                          156000  155944
PLOAD4         2   46256 -10.000                          156001  155945
PLOAD4         2   46257 -10.000                          156002  155946
PLOAD4         2   46258 -10.000                          156003  155947
PLOAD4         2   46259 -10.000                          156004  155948
PLOAD4         2   46260 -10.000                          156005  155949
PLOAD4         2   46261 -10.000                          156006  155950
PLOAD4         2   46262 -10.000                          156007  155951
PLOAD4         2   46263 -10.000                          156008  155952
PLOAD4         2   46264 -10.000                          156009  155953
PLOAD4         2   46265 -10.000                          156010  155954
PLOAD4         2   46266 -10.000                          156011  155955
PLOAD4         2   46267 -10.000                          156012  155956
PLOAD4         2   46268 -10.000                          155959  155957
PLOAD4         2   46269 -10.000                          156013  155959
PLOAD4         2   46270 -10.000                          156014  155960
PLOAD4         2   46271 -10.000                          156015  155961
PLOAD4         2   46272 -10.000                          156016  155962
PLOAD4         2   46273 -10.000                          156017  155963
PLOAD4         2   46274 -10.000                          156018  155964
PLOAD4         2   46275 -10.000                          156019  155965
PLOAD4         2   46276 -10.000                          155968  155966
PLOAD4         2   46277 -10.000                          155969  156019
PLOAD4         2   46278 -10.000                          156021  155969
PLOAD4         2   46279 -10.000                          156022  155970
PLOAD4         2   46280 -10.000                          156023  155971
PLOAD4         2   46281 -10.000                          156024  155972
PLOAD4         2   46282 -10.000                          156025  155973
PLOAD4         2   46283 -10.000                          156026  155974
PLOAD4         2   46284 -10.000                          156027  155975
PLOAD4         2   46285 -10.000                          156028  155976
PLOAD4         2   46286 -10.000                          156029  155977
PLOAD4         2   46287 -10.000                          156030  155978
PLOAD4         2   46288 -10.000                          156031  155979
PLOAD4         2   46289 -10.000                          156032  155980
PLOAD4         2   46290 -10.000                          156033  155981
PLOAD4         2   46291 -10.000                          156034  155982
PLOAD4         2   46292 -10.000                          156035  155983
PLOAD4         2   46293 -10.000                          155986  155984
PLOAD4         2   46294 -10.000                          156036  155986
PLOAD4         2   46295 -10.000                          156037  155987
PLOAD4         2   46296 -10.000                          156038  155988
PLOAD4         2   46297 -10.000                          156039  155989
PLOAD4         2   46298 -10.000                          156040  155990
PLOAD4         2   46299 -10.000                          155993  155991
PLOAD4         2   46300 -10.000                          156041  155993
PLOAD4         2   46301 -10.000                          156042  155994
PLOAD4         2   46302 -10.000                          156043  155995
PLOAD4         2   46303 -10.000                          156044  155996
PLOAD4         2   46304 -10.000                          156045  155997
PLOAD4         2   46305 -10.000                          156046  155998
PLOAD4         2   46306 -10.000                          156047  155999
PLOAD4         2   46307 -10.000                          156048  156000
PLOAD4         2   46308 -10.000                          156049  156001
PLOAD4         2   46309 -10.000                          156050  156002
PLOAD4         2   46310 -10.000                          156051  156003
PLOAD4         2   46311 -10.000                          156052  156004
PLOAD4         2   46312 -10.000                          156053  156005
PLOAD4         2   46313 -10.000                          156054  156006
PLOAD4         2   46314 -10.000                          156055  156007
PLOAD4         2   46315 -10.000                          156056  156008
PLOAD4         2   46316 -10.000                          156057  156009
PLOAD4         2   46317 -10.000                          156058  156010
PLOAD4         2   46318 -10.000                          156013  156011
PLOAD4         2   46319 -10.000                          156059  156013
PLOAD4         2   46320 -10.000                          156060  156014
PLOAD4         2   46321 -10.000                          156061  156015
PLOAD4         2   46322 -10.000                          156062  156016
PLOAD4         2   46323 -10.000                          156063  156017
PLOAD4         2   46324 -10.000                          156020  156018
PLOAD4         2   46325 -10.000                          156021  156063
PLOAD4         2   46326 -10.000                          156065  156021
PLOAD4         2   46327 -10.000                          156066  156022
PLOAD4         2   46328 -10.000                          156067  156023
PLOAD4         2   46329 -10.000                          156068  156024
PLOAD4         2   46330 -10.000                          156069  156025
PLOAD4         2   46331 -10.000                          156070  156026
PLOAD4         2   46332 -10.000                          156071  156027
PLOAD4         2   46333 -10.000                          156072  156028
PLOAD4         2   46334 -10.000                          156073  156029
PLOAD4         2   46335 -10.000                          156074  156030
PLOAD4         2   46336 -10.000                          156075  156031
PLOAD4         2   46337 -10.000                          156076  156032
PLOAD4         2   46338 -10.000                          156077  156033
PLOAD4         2   46339 -10.000                          156036  156034
PLOAD4         2   46340 -10.000                          156078  156036
PLOAD4         2   46341 -10.000                          156079  156037
PLOAD4         2   46342 -10.000                          156080  156038
PLOAD4         2   46343 -10.000                          156041  156039
PLOAD4         2   46344 -10.000                          156081  156041
PLOAD4         2   46345 -10.000                          156082  156042
PLOAD4         2   46346 -10.000                          156083  156043
PLOAD4         2   46347 -10.000                          156084  156044
PLOAD4         2   46348 -10.000                          156085  156045
PLOAD4         2   46349 -10.000                          156086  156046
PLOAD4         2   46350 -10.000                          156087  156047
PLOAD4         2   46351 -10.000                          156088  156048
PLOAD4         2   46352 -10.000                          156089  156049
PLOAD4         2   46353 -10.000                          156090  156050
PLOAD4         2   46354 -10.000                          156091  156051
PLOAD4         2   46355 -10.000                          156092  156052
PLOAD4         2   46356 -10.000                          156093  156053
PLOAD4         2   46357 -10.000                          156094  156054
PLOAD4         2   46358 -10.000                          156095  156055
PLOAD4         2   46359 -10.000                          156096  156056
PLOAD4         2   46360 -10.000                          156059  156057
PLOAD4         2   46361 -10.000                          156097  156059
PLOAD4         2   46362 -10.000                          156098  156060
PLOAD4         2   46363 -10.000                          156099  156061
PLOAD4         2   46364 -10.000                          156064  156062
PLOAD4         2   46365 -10.000                          156065  156099
PLOAD4         2   46366 -10.000                          156101  156065
PLOAD4         2   46367 -10.000                          156102  156066
PLOAD4         2   46368 -10.000                          156103  156067
PLOAD4         2   46369 -10.000                          156104  156068
PLOAD4         2   46370 -10.000                          156105  156069
PLOAD4         2   46371 -10.000                          156106  156070
PLOAD4         2   46372 -10.000                          156107  156071
PLOAD4         2   46373 -10.000                          156108  156072
PLOAD4         2   46374 -10.000                          156109  156073
PLOAD4         2   46375 -10.000                          156110  156074
PLOAD4         2   46376 -10.000                          156111  156075
PLOAD4         2   46377 -10.000                          156078  156076
PLOAD4         2   46378 -10.000                          156112  156078
PLOAD4         2   46379 -10.000                          156081  156079
PLOAD4         2   46380 -10.000                          156113  156081
PLOAD4         2   46381 -10.000                          156114  156082
PLOAD4         2   46382 -10.000                          156115  156083
PLOAD4         2   46383 -10.000                          156116  156084
PLOAD4         2   46384 -10.000                          156117  156085
PLOAD4         2   46385 -10.000                          156118  156086
PLOAD4         2   46386 -10.000                          156119  156087
PLOAD4         2   46387 -10.000                          156120  156088
PLOAD4         2   46388 -10.000                          156121  156089
PLOAD4         2   46389 -10.000                          156122  156090
PLOAD4         2   46390 -10.000                          156123  156091
PLOAD4         2   46391 -10.000                          156124  156092
PLOAD4         2   46392 -10.000                          156125  156093
PLOAD4         2   46393 -10.000                          156126  156094
PLOAD4         2   46394 -10.000                          156097  156095
PLOAD4         2   46395 -10.000                          156127  156097
PLOAD4         2   46396 -10.000                          156100  156098
PLOAD4         2   46397 -10.000                          156113  156111
PLOAD4         2   46398 -10.000                          156127  156125
PLOAD4         2   46399 -10.000                          156130  156101
PLOAD4         2   46400 -10.000                          156127  156130
PLOAD4         2   46401 -10.000                          156110  156132
PLOAD4         2   46402 -10.000                          156114  156110
PLOAD4         2   46403 -10.000                          156108  156132
PLOAD4         2   46404 -10.000                          156134  156131
PLOAD4         2   46405 -10.000                          156133  156114
PLOAD4         2   46406 -10.000                          156128  156122
PLOAD4         2   46407 -10.000                          156102  156128
PLOAD4         2   46408 -10.000                          156107  156134
PLOAD4         2   46409 -10.000                          156137  156133
PLOAD4         2   46410 -10.000                          156136  156115
PLOAD4         2   46411 -10.000                          156135  156121
PLOAD4         2   46412 -10.000                          156103  156135
PLOAD4         2   46413 -10.000                          156106  156137
PLOAD4         2   46414 -10.000                          156140  156136
PLOAD4         2   46415 -10.000                          156139  156116
PLOAD4         2   46416 -10.000                          156105  156140
PLOAD4         2   46417 -10.000                          156142  156139
PLOAD4         2   46418 -10.000                          156141  156117
PLOAD4         2   46419 -10.000                          156138  156120
PLOAD4         2   46420 -10.000                          156104  156138
PLOAD4         2   46421 -10.000                          156142  156104
PLOAD4         2   46422 -10.000                          156145  156142
PLOAD4         2   46423 -10.000                          156145  156118
PLOAD4         2   46424 -10.000                          156170  156147
PLOAD4         2   46425 -10.000                          156171  156175
PLOAD4         2   46426 -10.000                          153460  156172
PLOAD4         2   46427 -10.000                          156177  156174
PLOAD4         2   46428 -10.000                          156177  156172
PLOAD4         2   46429 -10.000                          156146  153477
PLOAD4         2   46430 -10.000                          156175  156146
PLOAD4         2   46431 -10.000                          156178  153476
PLOAD4         2   46432 -10.000                          156174  156178
PLOAD4         2   46433 -10.000                          156180  153476
PLOAD4         2   46434 -10.000                          155732  153463
PLOAD4         2   46435 -10.000                          153475  155732
PLOAD4         2   46436 -10.000                          156173  156179
PLOAD4         2   46437 -10.000                          156149  156170
PLOAD4         2   46438 -10.000                          156182  156149
PLOAD4         2   46439 -10.000                          156183  156150
PLOAD4         2   46440 -10.000                          156184  156151
PLOAD4         2   46441 -10.000                          156185  156152
PLOAD4         2   46442 -10.000                          156186  156153
PLOAD4         2   46443 -10.000                          156187  156154
PLOAD4         2   46444 -10.000                          156188  156155
PLOAD4         2   46445 -10.000                          156189  156156
PLOAD4         2   46446 -10.000                          156190  156157
PLOAD4         2   46447 -10.000                          156191  156158
PLOAD4         2   46448 -10.000                          156192  156159
PLOAD4         2   46449 -10.000                          156193  156160
PLOAD4         2   46450 -10.000                          156194  156161
PLOAD4         2   46451 -10.000                          156195  156162
PLOAD4         2   46452 -10.000                          156196  156163
PLOAD4         2   46453 -10.000                          156197  156164
PLOAD4         2   46454 -10.000                          156198  156165
PLOAD4         2   46455 -10.000                          156199  156166
PLOAD4         2   46456 -10.000                          156200  156167
PLOAD4         2   46457 -10.000                          156201  156168
PLOAD4         2   46458 -10.000                          153732  156169
PLOAD4         2   46459 -10.000                          156202  153732
PLOAD4         2   46460 -10.000                          156203  153733
PLOAD4         2   46461 -10.000                          153382  153734
PLOAD4         2   46462 -10.000                          156204  153382
PLOAD4         2   46463 -10.000                          156205  153383
PLOAD4         2   46464 -10.000                          156206  153384
PLOAD4         2   46465 -10.000                          156207  153385
PLOAD4         2   46466 -10.000                          156208  153386
PLOAD4         2   46467 -10.000                          156209  153387
PLOAD4         2   46468 -10.000                          156210  153388
PLOAD4         2   46469 -10.000                          156211  155636
PLOAD4         2   46470 -10.000                          156212  155635
PLOAD4         2   46471 -10.000                          156213  155634
PLOAD4         2   46472 -10.000                          156214  155633
PLOAD4         2   46473 -10.000                          156215  155632
PLOAD4         2   46474 -10.000                          156216  155631
PLOAD4         2   46475 -10.000                          156217  155630
PLOAD4         2   46476 -10.000                          156218  155629
PLOAD4         2   46477 -10.000                          156219  155628
PLOAD4         2   46478 -10.000                          156220  155627
PLOAD4         2   46479 -10.000                          156221  155626
PLOAD4         2   46480 -10.000                          156222  155625
PLOAD4         2   46481 -10.000                          156223  155624
PLOAD4         2   46482 -10.000                          156224  155623
PLOAD4         2   46483 -10.000                          156225  155622
PLOAD4         2   46484 -10.000                          156226  155621
PLOAD4         2   46485 -10.000                          156227  155620
PLOAD4         2   46486 -10.000                          156172  153458
PLOAD4         2   46487 -10.000                          156228  156172
PLOAD4         2   46488 -10.000                          156181  156171
PLOAD4         2   46489 -10.000                          156202  156200
PLOAD4         2   46490 -10.000                          156233  156205
PLOAD4         2   46491 -10.000                          156233  156232
PLOAD4         2   46492 -10.000                          156203  156233
PLOAD4         2   46493 -10.000                          156232  156199
PLOAD4         2   46494 -10.000                          156229  156232
PLOAD4         2   46495 -10.000                          156229  156207
PLOAD4         2   46496 -10.000                          156205  156229
PLOAD4         2   46497 -10.000                          156226  156237
PLOAD4         2   46498 -10.000                          156228  156226
PLOAD4         2   46499 -10.000                          156239  156182
PLOAD4         2   46500 -10.000                          156239  156237
PLOAD4         2   46501 -10.000                          156228  156239
PLOAD4         2   46502 -10.000                          156182  156234
PLOAD4         2   46503 -10.000                          156236  156235
PLOAD4         2   46504 -10.000                          156237  156224
PLOAD4         2   46505 -10.000                          156241  156242
PLOAD4         2   46506 -10.000                          156243  156244
PLOAD4         2   46507 -10.000                          156245  156246
PLOAD4         2   46508 -10.000                          156247  156248
PLOAD4         2   46509 -10.000                          156249  156250
PLOAD4         2   46510 -10.000                          156251  156252
PLOAD4         2   46511 -10.000                          156253  156254
PLOAD4         2   46512 -10.000                          156255  156256
PLOAD4         2   46513 -10.000                          156257  156258
PLOAD4         2   46514 -10.000                          156259  156260
PLOAD4         2   46515 -10.000                          156261  156262
PLOAD4         2   46516 -10.000                          156263  156264
PLOAD4         2   46517 -10.000                          156265  156266
PLOAD4         2   46518 -10.000                          156267  156268
PLOAD4         2   46519 -10.000                          156234  156184
PLOAD4         2   46520 -10.000                          156240  156185
PLOAD4         2   46521 -10.000                          156242  156186
PLOAD4         2   46522 -10.000                          156244  156187
PLOAD4         2   46523 -10.000                          156246  156188
PLOAD4         2   46524 -10.000                          156248  156189
PLOAD4         2   46525 -10.000                          156250  156190
PLOAD4         2   46526 -10.000                          156252  156191
PLOAD4         2   46527 -10.000                          156254  156192
PLOAD4         2   46528 -10.000                          156256  156193
PLOAD4         2   46529 -10.000                          156258  156194
PLOAD4         2   46530 -10.000                          156260  156195
PLOAD4         2   46531 -10.000                          156262  156196
PLOAD4         2   46532 -10.000                          156264  156197
PLOAD4         2   46533 -10.000                          156266  156198
PLOAD4         2   46534 -10.000                          156268  156199
PLOAD4         2   46535 -10.000                          156269  156230
PLOAD4         2   46536 -10.000                          156209  156229
PLOAD4         2   46537 -10.000                          156210  156269
PLOAD4         2   46538 -10.000                          156211  156267
PLOAD4         2   46539 -10.000                          156212  156265
PLOAD4         2   46540 -10.000                          156213  156263
PLOAD4         2   46541 -10.000                          156214  156261
PLOAD4         2   46542 -10.000                          156215  156259
PLOAD4         2   46543 -10.000                          156216  156257
PLOAD4         2   46544 -10.000                          156217  156255
PLOAD4         2   46545 -10.000                          156218  156253
PLOAD4         2   46546 -10.000                          156219  156251
PLOAD4         2   46547 -10.000                          156220  156249
PLOAD4         2   46548 -10.000                          156221  156247
PLOAD4         2   46549 -10.000                          156222  156245
PLOAD4         2   46550 -10.000                          156223  156243
PLOAD4         2   46551 -10.000                          156224  156241
PLOAD4         2   46552 -10.000                          156235  156240
PLOAD4         2   46553 -10.000                          153479  156146
PLOAD4         2   46554 -10.000                          156271  153479
PLOAD4         2   46555 -10.000                          156272  153480
PLOAD4         2   46556 -10.000                          156273  153481
PLOAD4         2   46557 -10.000                          156274  153482
PLOAD4         2   46558 -10.000                          156275  153483
PLOAD4         2   46559 -10.000                          156276  153484
PLOAD4         2   46560 -10.000                          156277  153485
PLOAD4         2   46561 -10.000                          155763  153486
PLOAD4         2   46562 -10.000                          156278  155763
PLOAD4         2   46563 -10.000                          156279  155762
PLOAD4         2   46564 -10.000                          156280  155761
PLOAD4         2   46565 -10.000                          156281  155760
PLOAD4         2   46566 -10.000                          156282  155759
PLOAD4         2   46567 -10.000                          156283  155758
PLOAD4         2   46568 -10.000                          156284  155757
PLOAD4         2   46569 -10.000                          156285  155756
PLOAD4         2   46570 -10.000                          156286  155755
PLOAD4         2   46571 -10.000                          156287  155754
PLOAD4         2   46572 -10.000                          156288  155753
PLOAD4         2   46573 -10.000                          156289  155752
PLOAD4         2   46574 -10.000                          156290  155751
PLOAD4         2   46575 -10.000                          156291  155750
PLOAD4         2   46576 -10.000                          156292  155749
PLOAD4         2   46577 -10.000                          156293  155748
PLOAD4         2   46578 -10.000                          156294  155747
PLOAD4         2   46579 -10.000                          156295  155746
PLOAD4         2   46580 -10.000                          156296  155745
PLOAD4         2   46581 -10.000                          156297  155744
PLOAD4         2   46582 -10.000                          156298  155743
PLOAD4         2   46583 -10.000                          156299  155742
PLOAD4         2   46584 -10.000                          156300  155741
PLOAD4         2   46585 -10.000                          153723  155740
PLOAD4         2   46586 -10.000                          156301  153723
PLOAD4         2   46587 -10.000                          156302  153724
PLOAD4         2   46588 -10.000                          156303  153725
PLOAD4         2   46589 -10.000                          156304  153726
PLOAD4         2   46590 -10.000                          156305  153727
PLOAD4         2   46591 -10.000                          156306  153728
PLOAD4         2   46592 -10.000                          156307  153729
PLOAD4         2   46593 -10.000                          156169  153730
PLOAD4         2   46594 -10.000                          156308  156169
PLOAD4         2   46595 -10.000                          156309  156168
PLOAD4         2   46596 -10.000                          156310  156167
PLOAD4         2   46597 -10.000                          156311  156166
PLOAD4         2   46598 -10.000                          156312  156165
PLOAD4         2   46599 -10.000                          156313  156164
PLOAD4         2   46600 -10.000                          156314  156163
PLOAD4         2   46601 -10.000                          156315  156162
PLOAD4         2   46602 -10.000                          156316  156161
PLOAD4         2   46603 -10.000                          156317  156160
PLOAD4         2   46604 -10.000                          156318  156159
PLOAD4         2   46605 -10.000                          156319  156158
PLOAD4         2   46606 -10.000                          156320  156157
PLOAD4         2   46607 -10.000                          156321  156156
PLOAD4         2   46608 -10.000                          156322  156155
PLOAD4         2   46609 -10.000                          156323  156154
PLOAD4         2   46610 -10.000                          156324  156153
PLOAD4         2   46611 -10.000                          156325  156152
PLOAD4         2   46612 -10.000                          156326  156151
PLOAD4         2   46613 -10.000                          156327  156150
PLOAD4         2   46614 -10.000                          156328  156149
PLOAD4         2   46615 -10.000                          156329  156148
PLOAD4         2   46616 -10.000                          156270  156147
PLOAD4         2   46617 -10.000                          156271  156329
PLOAD4         2   46618 -10.000                          156331  156271
PLOAD4         2   46619 -10.000                          156332  156272
PLOAD4         2   46620 -10.000                          156333  156273
PLOAD4         2   46621 -10.000                          156334  156274
PLOAD4         2   46622 -10.000                          156335  156275
PLOAD4         2   46623 -10.000                          156278  156276
PLOAD4         2   46624 -10.000                          156336  156278
PLOAD4         2   46625 -10.000                          156337  156279
PLOAD4         2   46626 -10.000                          156338  156280
PLOAD4         2   46627 -10.000                          156339  156281
PLOAD4         2   46628 -10.000                          156340  156282
PLOAD4         2   46629 -10.000                          156341  156283
PLOAD4         2   46630 -10.000                          156342  156284
PLOAD4         2   46631 -10.000                          156343  156285
PLOAD4         2   46632 -10.000                          156344  156286
PLOAD4         2   46633 -10.000                          156345  156287
PLOAD4         2   46634 -10.000                          156346  156288
PLOAD4         2   46635 -10.000                          156347  156289
PLOAD4         2   46636 -10.000                          156348  156290
PLOAD4         2   46637 -10.000                          156349  156291
PLOAD4         2   46638 -10.000                          156350  156292
PLOAD4         2   46639 -10.000                          156351  156293
PLOAD4         2   46640 -10.000                          156352  156294
PLOAD4         2   46641 -10.000                          156353  156295
PLOAD4         2   46642 -10.000                          156354  156296
PLOAD4         2   46643 -10.000                          156355  156297
PLOAD4         2   46644 -10.000                          156356  156298
PLOAD4         2   46645 -10.000                          156301  156299
PLOAD4         2   46646 -10.000                          156357  156301
PLOAD4         2   46647 -10.000                          156358  156302
PLOAD4         2   46648 -10.000                          156359  156303
PLOAD4         2   46649 -10.000                          156360  156304
PLOAD4         2   46650 -10.000                          156361  156305
PLOAD4         2   46651 -10.000                          156308  156306
PLOAD4         2   46652 -10.000                          156362  156308
PLOAD4         2   46653 -10.000                          156363  156309
PLOAD4         2   46654 -10.000                          156364  156310
PLOAD4         2   46655 -10.000                          156365  156311
PLOAD4         2   46656 -10.000                          156366  156312
PLOAD4         2   46657 -10.000                          156367  156313
PLOAD4         2   46658 -10.000                          156368  156314
PLOAD4         2   46659 -10.000                          156369  156315
PLOAD4         2   46660 -10.000                          156370  156316
PLOAD4         2   46661 -10.000                          156371  156317
PLOAD4         2   46662 -10.000                          156372  156318
PLOAD4         2   46663 -10.000                          156373  156319
PLOAD4         2   46664 -10.000                          156374  156320
PLOAD4         2   46665 -10.000                          156375  156321
PLOAD4         2   46666 -10.000                          156376  156322
PLOAD4         2   46667 -10.000                          156377  156323
PLOAD4         2   46668 -10.000                          156378  156324
PLOAD4         2   46669 -10.000                          156379  156325
PLOAD4         2   46670 -10.000                          156380  156326
PLOAD4         2   46671 -10.000                          156381  156327
PLOAD4         2   46672 -10.000                          156330  156328
PLOAD4         2   46673 -10.000                          156331  156381
PLOAD4         2   46674 -10.000                          156383  156331
PLOAD4         2   46675 -10.000                          156384  156332
PLOAD4         2   46676 -10.000                          156385  156333
PLOAD4         2   46677 -10.000                          156336  156334
PLOAD4         2   46678 -10.000                          156386  156336
PLOAD4         2   46679 -10.000                          156387  156337
PLOAD4         2   46680 -10.000                          156388  156338
PLOAD4         2   46681 -10.000                          156389  156339
PLOAD4         2   46682 -10.000                          156390  156340
PLOAD4         2   46683 -10.000                          156391  156341
PLOAD4         2   46684 -10.000                          156392  156342
PLOAD4         2   46685 -10.000                          156393  156343
PLOAD4         2   46686 -10.000                          156394  156344
PLOAD4         2   46687 -10.000                          156395  156345
PLOAD4         2   46688 -10.000                          156396  156346
PLOAD4         2   46689 -10.000                          156397  156347
PLOAD4         2   46690 -10.000                          156398  156348
PLOAD4         2   46691 -10.000                          156399  156349
PLOAD4         2   46692 -10.000                          156400  156350
PLOAD4         2   46693 -10.000                          156401  156351
PLOAD4         2   46694 -10.000                          156402  156352
PLOAD4         2   46695 -10.000                          156403  156353
PLOAD4         2   46696 -10.000                          156404  156354
PLOAD4         2   46697 -10.000                          156357  156355
PLOAD4         2   46698 -10.000                          156405  156357
PLOAD4         2   46699 -10.000                          156406  156358
PLOAD4         2   46700 -10.000                          156407  156359
PLOAD4         2   46701 -10.000                          156362  156360
PLOAD4         2   46702 -10.000                          156408  156362
PLOAD4         2   46703 -10.000                          156409  156363
PLOAD4         2   46704 -10.000                          156410  156364
PLOAD4         2   46705 -10.000                          156411  156365
PLOAD4         2   46706 -10.000                          156412  156366
PLOAD4         2   46707 -10.000                          156413  156367
PLOAD4         2   46708 -10.000                          156414  156368
PLOAD4         2   46709 -10.000                          156415  156369
PLOAD4         2   46710 -10.000                          156416  156370
PLOAD4         2   46711 -10.000                          156417  156371
PLOAD4         2   46712 -10.000                          156418  156372
PLOAD4         2   46713 -10.000                          156419  156373
PLOAD4         2   46714 -10.000                          156420  156374
PLOAD4         2   46715 -10.000                          156421  156375
PLOAD4         2   46716 -10.000                          156422  156376
PLOAD4         2   46717 -10.000                          156423  156377
PLOAD4         2   46718 -10.000                          156424  156378
PLOAD4         2   46719 -10.000                          156425  156379
PLOAD4         2   46720 -10.000                          156382  156380
PLOAD4         2   46721 -10.000                          156383  156425
PLOAD4         2   46722 -10.000                          156427  156383
PLOAD4         2   46723 -10.000                          156386  156384
PLOAD4         2   46724 -10.000                          156428  156386
PLOAD4         2   46725 -10.000                          156429  156387
PLOAD4         2   46726 -10.000                          156430  156388
PLOAD4         2   46727 -10.000                          156431  156389
PLOAD4         2   46728 -10.000                          156432  156390
PLOAD4         2   46729 -10.000                          156433  156391
PLOAD4         2   46730 -10.000                          156434  156392
PLOAD4         2   46731 -10.000                          156435  156393
PLOAD4         2   46732 -10.000                          156436  156394
PLOAD4         2   46733 -10.000                          156437  156395
PLOAD4         2   46734 -10.000                          156438  156396
PLOAD4         2   46735 -10.000                          156439  156397
PLOAD4         2   46736 -10.000                          156440  156398
PLOAD4         2   46737 -10.000                          156441  156399
PLOAD4         2   46738 -10.000                          156442  156400
PLOAD4         2   46739 -10.000                          156443  156401
PLOAD4         2   46740 -10.000                          156444  156402
PLOAD4         2   46741 -10.000                          156405  156403
PLOAD4         2   46742 -10.000                          156445  156405
PLOAD4         2   46743 -10.000                          156408  156406
PLOAD4         2   46744 -10.000                          156446  156408
PLOAD4         2   46745 -10.000                          156447  156409
PLOAD4         2   46746 -10.000                          156448  156410
PLOAD4         2   46747 -10.000                          156449  156411
PLOAD4         2   46748 -10.000                          156450  156412
PLOAD4         2   46749 -10.000                          156451  156413
PLOAD4         2   46750 -10.000                          156452  156414
PLOAD4         2   46751 -10.000                          156453  156415
PLOAD4         2   46752 -10.000                          156454  156416
PLOAD4         2   46753 -10.000                          156455  156417
PLOAD4         2   46754 -10.000                          156456  156418
PLOAD4         2   46755 -10.000                          156457  156419
PLOAD4         2   46756 -10.000                          156458  156420
PLOAD4         2   46757 -10.000                          156459  156421
PLOAD4         2   46758 -10.000                          156460  156422
PLOAD4         2   46759 -10.000                          156461  156423
PLOAD4         2   46760 -10.000                          156426  156424
PLOAD4         2   46761 -10.000                          156426  156428
PLOAD4         2   46762 -10.000                          156461  156429
PLOAD4         2   46763 -10.000                          156460  156430
PLOAD4         2   46764 -10.000                          156459  156431
PLOAD4         2   46765 -10.000                          156458  156432
PLOAD4         2   46766 -10.000                          156457  156433
PLOAD4         2   46767 -10.000                          156456  156434
PLOAD4         2   46768 -10.000                          156455  156435
PLOAD4         2   46769 -10.000                          156454  156436
PLOAD4         2   46770 -10.000                          156453  156437
PLOAD4         2   46771 -10.000                          156452  156438
PLOAD4         2   46772 -10.000                          156451  156439
PLOAD4         2   46773 -10.000                          156450  156440
PLOAD4         2   46774 -10.000                          156449  156441
PLOAD4         2   46775 -10.000                          156448  156442
PLOAD4         2   46776 -10.000                          156447  156443
PLOAD4         2   46777 -10.000                          156446  156444
PLOAD4         2   46778 -10.000                          156463  153741
PLOAD4         2   46779 -10.000                          153739  156463
PLOAD4         2   46780 -10.000                          153378  153738
PLOAD4         2   46781 -10.000                          153736  153382
PLOAD4         2   46782 -10.000                          156464  153380
PLOAD4         2   46783 -10.000                          156465  153381
PLOAD4         2   46784 -10.000                          153737  156465
PLOAD4         2   46785 -10.000                          153379  153737
PLOAD4         2   46786 -10.000                          156467  153503
PLOAD4         2   46787 -10.000                          156467  153505
PLOAD4         2   46788 -10.000                          155589  156467
PLOAD4         2   46789 -10.000                          155601  153777
PLOAD4         2   46790 -10.000                          155602  153776
PLOAD4         2   46791 -10.000                          155603  153775
PLOAD4         2   46792 -10.000                          155604  153774
PLOAD4         2   46793 -10.000                          155605  153773
PLOAD4         2   46794 -10.000                          155606  153772
PLOAD4         2   46795 -10.000                          155607  153771
PLOAD4         2   46796 -10.000                          155608  153770
PLOAD4         2   46797 -10.000                          155609  153769
PLOAD4         2   46798 -10.000                          155610  153768
PLOAD4         2   46799 -10.000                          155611  153767
PLOAD4         2   46800 -10.000                          155612  153702
PLOAD4         2   46801 -10.000                          155595  153783
PLOAD4         2   46802 -10.000                          155596  153782
PLOAD4         2   46803 -10.000                          155597  153781
PLOAD4         2   46804 -10.000                          155598  153780
PLOAD4         2   46805 -10.000                          155599  153779
PLOAD4         2   46806 -10.000                          155600  153778
PLOAD4         2   46807 -10.000                          155592  153786
PLOAD4         2   46808 -10.000                          155593  153785
PLOAD4         2   46809 -10.000                          155594  153784
PLOAD4         2   46810 -10.000                          155591  153787
PLOAD4         2   46811 -10.000                          155590  153788
PLOAD4         2   46812 -10.000                          156468  153505
PLOAD4         2   46813 -10.000                          156468  153507
PLOAD4         2   46814 -10.000                          155589  156468
PLOAD4         2   46815 -10.000                          155473  155483
PLOAD4         2   46816 -10.000                          155476  155483
PLOAD4         2   46817 -10.000                          156469  153448
PLOAD4         2   46818 -10.000                          156469  153450
PLOAD4         2   46819 -10.000                          156469  153765
PLOAD4         2   46820 -10.000                          154076  154078
PLOAD4         2   46821 -10.000                          153812  154780
PLOAD4         2   46822 -10.000                          154780  154779
PLOAD4         2   46823 -10.000                          154776  153833
PLOAD4         2   46824 -10.000                          155487  155360
PLOAD4         2   46825 -10.000                          155507  155495
PLOAD4         2   46826 -10.000                          155492  155502
PLOAD4         2   46827 -10.000                          155504  155492
PLOAD4         2   46828 -10.000                          155507  155493
PLOAD4         2   46829 -10.000                          155543  155545
PLOAD4         2   46830 -10.000                          155543  155541
PLOAD4         2   46831 -10.000                          155532  155543
PLOAD4         2   46832 -10.000                          155533  155542
PLOAD4         2   46833 -10.000                          153768  155582
PLOAD4         2   46834 -10.000                          155582  155581
PLOAD4         2   46835 -10.000                          155578  153789
PLOAD4         2   46836 -10.000                          155619  155614
PLOAD4         2   46837 -10.000                          156463  155613
PLOAD4         2   46838 -10.000                          153452  155685
PLOAD4         2   46839 -10.000                          155643  153452
PLOAD4         2   46840 -10.000                          155709  155666
PLOAD4         2   46841 -10.000                          155666  155664
PLOAD4         2   46842 -10.000                          155710  155663
PLOAD4         2   46843 -10.000                          156124  156128
PLOAD4         2   46844 -10.000                          156130  156125
PLOAD4         2   46845 -10.000                          156143  156119
PLOAD4         2   46846 -10.000                          156144  156143
PLOAD4         2   46847 -10.000                          153462  156180
PLOAD4         2   46848 -10.000                          153461  156173
PLOAD4         2   46849 -10.000                          153460  156177
PLOAD4         2   46850 -10.000                          153738  153376
PLOAD4         2   46851 -10.000                          156462  153738
PLOAD4         2   46852 -10.000                          155488  155490
PLOAD4         2   46853 -10.000                          155489  155486
PLOAD4         2   46854 -10.000                          156470  153443
PLOAD4         2   46855 -10.000                          156470  153421
PLOAD4         2   46856 -10.000                          156470  153592
PLOAD4         2   46857 -10.000                          156471  153400
PLOAD4         2   46858 -10.000                          156471  153402
PLOAD4         2   46859 -10.000                          156471  153617
PLOAD4         2   46860 -10.000                          156472  153417
PLOAD4         2   46861 -10.000                          156472  153419
PLOAD4         2   46862 -10.000                          156472  153622
PLOAD4         2   46863 -10.000                          153624  154079
PLOAD4         2   46864 -10.000                          154078  153625
PLOAD4         2   46865 -10.000                          153416  154076
PLOAD4         2   46866 -10.000                          154074  153416
PLOAD4         2   46867 -10.000                          173894  173895
PLOAD4         2   46868 -10.000                          173938  173948
PLOAD4         2   46869 -10.000                          173893  173949
PLOAD4         2   46870 -10.000                          173895  173978
PLOAD4         2   46871 -10.000                          173896  173944
PLOAD4         2   46872 -10.000                          173934  173943
PLOAD4         2   46873 -10.000                          173933  173896
PLOAD4         2   46874 -10.000                          173976  173894
PLOAD4         2   46875 -10.000                          173939  173893
PLOAD4         2   46876 -10.000                          174005  172759
PLOAD4         2   46877 -10.000                          173984  173770
PLOAD4         2   46878 -10.000                          173985  173938
PLOAD4         2   46879 -10.000                          174016  173939
PLOAD4         2   46880 -10.000                          174022  173985
PLOAD4         2   46881 -10.000                          174006  173984
PLOAD4         2   46882 -10.000                          174048  172789
PLOAD4         2   46883 -10.000                          174026  173785
PLOAD4         2   46884 -10.000                          174027  174005
PLOAD4         2   46885 -10.000                          174058  174006
PLOAD4         2   46886 -10.000                          174064  174027
PLOAD4         2   46887 -10.000                          174047  174026
PLOAD4         2   46888 -10.000                          174089  172601
PLOAD4         2   46889 -10.000                          174068  173797
PLOAD4         2   46890 -10.000                          174069  174048
PLOAD4         2   46891 -10.000                          174094  174047
PLOAD4         2   46892 -10.000                          174106  174069
PLOAD4         2   46893 -10.000                          174090  174068
PLOAD4         2   46894 -10.000                          174132  172765
PLOAD4         2   46895 -10.000                          174112  173798
PLOAD4         2   46896 -10.000                          174113  174089
PLOAD4         2   46897 -10.000                          174142  174090
PLOAD4         2   46898 -10.000                          174148  174113
PLOAD4         2   46899 -10.000                          174131  174112
PLOAD4         2   46900 -10.000                          174176  172592
PLOAD4         2   46901 -10.000                          174152  173791
PLOAD4         2   46902 -10.000                          174153  174132
PLOAD4         2   46903 -10.000                          174173  174131
PLOAD4         2   46904 -10.000                          174190  174153
PLOAD4         2   46905 -10.000                          174177  174152
PLOAD4         2   46906 -10.000                          174215  172783
PLOAD4         2   46907 -10.000                          174194  173792
PLOAD4         2   46908 -10.000                          174195  174176
PLOAD4         2   46909 -10.000                          174226  174177
PLOAD4         2   46910 -10.000                          174232  174195
PLOAD4         2   46911 -10.000                          174216  174194
PLOAD4         2   46912 -10.000                          174239  174240
PLOAD4         2   46913 -10.000                          173944  174279
PLOAD4         2   46914 -10.000                          174238  174280
PLOAD4         2   46915 -10.000                          174240  173784
PLOAD4         2   46916 -10.000                          174241  174215
PLOAD4         2   46917 -10.000                          174275  174216
PLOAD4         2   46918 -10.000                          174274  174241
PLOAD4         2   46919 -10.000                          173977  174239
PLOAD4         2   46920 -10.000                          173943  174238
PLOAD4         2   46921 -10.000                          173872  174314
PLOAD4         2   46922 -10.000                          174303  174313
PLOAD4         2   46923 -10.000                          174302  174328
PLOAD4         2   46924 -10.000                          174335  174336
PLOAD4         2   46925 -10.000                          174314  174372
PLOAD4         2   46926 -10.000                          174334  174373
PLOAD4         2   46927 -10.000                          174336  174404
PLOAD4         2   46928 -10.000                          174337  174378
PLOAD4         2   46929 -10.000                          174383  174377
PLOAD4         2   46930 -10.000                          174382  174337
PLOAD4         2   46931 -10.000                          174328  174335
PLOAD4         2   46932 -10.000                          174313  174334
PLOAD4         2   46933 -10.000                          174413  174414
PLOAD4         2   46934 -10.000                          174378  174461
PLOAD4         2   46935 -10.000                          174412  174462
PLOAD4         2   46936 -10.000                          174414  173877
PLOAD4         2   46937 -10.000                          174415  174451
PLOAD4         2   46938 -10.000                          174467  174450
PLOAD4         2   46939 -10.000                          174466  174415
PLOAD4         2   46940 -10.000                          174405  174413
PLOAD4         2   46941 -10.000                          174377  174412
PLOAD4         2   46942 -10.000                          173877  174491
PLOAD4         2   46943 -10.000                          174451  174490
PLOAD4         2   46944 -10.000                          174450  174502
PLOAD4         2   46945 -10.000                          174491  172931
PLOAD4         2   46946 -10.000                          174508  173864
PLOAD4         2   46947 -10.000                          174509  174528
PLOAD4         2   46948 -10.000                          174538  174527
PLOAD4         2   46949 -10.000                          174502  174509
PLOAD4         2   46950 -10.000                          174490  174508
PLOAD4         2   46951 -10.000                          174528  172724
PLOAD4         2   46952 -10.000                          174548  173863
PLOAD4         2   46953 -10.000                          174549  174573
PLOAD4         2   46954 -10.000                          174569  174572
PLOAD4         2   46955 -10.000                          174544  174549
PLOAD4         2   46956 -10.000                          174527  174548
PLOAD4         2   46957 -10.000                          174573  172915
PLOAD4         2   46958 -10.000                          174590  173871
PLOAD4         2   46959 -10.000                          174591  174612
PLOAD4         2   46960 -10.000                          174622  174611
PLOAD4         2   46961 -10.000                          174586  174591
PLOAD4         2   46962 -10.000                          174572  174590
PLOAD4         2   46963 -10.000                          174612  172740
PLOAD4         2   46964 -10.000                          174632  173872
PLOAD4         2   46965 -10.000                          174633  174303
PLOAD4         2   46966 -10.000                          174651  174302
PLOAD4         2   46967 -10.000                          174628  174633
PLOAD4         2   46968 -10.000                          174611  174632
PLOAD4         2   46969 -10.000                          174690  172617
PLOAD4         2   46970 -10.000                          174659  173805
PLOAD4         2   46971 -10.000                          174660  174685
PLOAD4         2   46972 -10.000                          174682  174686
PLOAD4         2   46973 -10.000                          174710  174660
PLOAD4         2   46974 -10.000                          174691  174659
PLOAD4         2   46975 -10.000                          174737  172813
PLOAD4         2   46976 -10.000                          174716  173806
PLOAD4         2   46977 -10.000                          174717  174690
PLOAD4         2   46978 -10.000                          174748  174691
PLOAD4         2   46979 -10.000                          174754  174717
PLOAD4         2   46980 -10.000                          174738  174716
PLOAD4         2   46981 -10.000                          174780  172849
PLOAD4         2   46982 -10.000                          174760  173813
PLOAD4         2   46983 -10.000                          174761  174737
PLOAD4         2   46984 -10.000                          174790  174738
PLOAD4         2   46985 -10.000                          174796  174761
PLOAD4         2   46986 -10.000                          174779  174760
PLOAD4         2   46987 -10.000                          174822  172571
PLOAD4         2   46988 -10.000                          174800  173773
PLOAD4         2   46989 -10.000                          174801  174780
PLOAD4         2   46990 -10.000                          174826  174779
PLOAD4         2   46991 -10.000                          174838  174801
PLOAD4         2   46992 -10.000                          174821  174800
PLOAD4         2   46993 -10.000                          174864  172807
PLOAD4         2   46994 -10.000                          174844  173774
PLOAD4         2   46995 -10.000                          174845  174822
PLOAD4         2   46996 -10.000                          174874  174821
PLOAD4         2   46997 -10.000                          174880  174845
PLOAD4         2   46998 -10.000                          174863  174844
PLOAD4         2   46999 -10.000                          174906  172644
PLOAD4         2   47000 -10.000                          174884  173823
PLOAD4         2   47001 -10.000                          174885  174864
PLOAD4         2   47002 -10.000                          174910  174863
PLOAD4         2   47003 -10.000                          174922  174885
PLOAD4         2   47004 -10.000                          174905  174884
PLOAD4         2   47005 -10.000                          174947  172819
PLOAD4         2   47006 -10.000                          174926  173824
PLOAD4         2   47007 -10.000                          174927  174906
PLOAD4         2   47008 -10.000                          174958  174905
PLOAD4         2   47009 -10.000                          174964  174927
PLOAD4         2   47010 -10.000                          174948  174926
PLOAD4         2   47011 -10.000                          174685  172843
PLOAD4         2   47012 -10.000                          174968  173817
PLOAD4         2   47013 -10.000                          174969  174947
PLOAD4         2   47014 -10.000                          174987  174948
PLOAD4         2   47015 -10.000                          174711  174969
PLOAD4         2   47016 -10.000                          174686  174968
PLOAD4         2   47017 -10.000                          175024  172708
PLOAD4         2   47018 -10.000                          174995  173855
PLOAD4         2   47019 -10.000                          174996  175019
PLOAD4         2   47020 -10.000                          175028  175018
PLOAD4         2   47021 -10.000                          175047  174996
PLOAD4         2   47022 -10.000                          175023  174995
PLOAD4         2   47023 -10.000                          175019  172873
PLOAD4         2   47024 -10.000                          175054  173848
PLOAD4         2   47025 -10.000                          175055  175073
PLOAD4         2   47026 -10.000                          175084  175074
PLOAD4         2   47027 -10.000                          175046  175055
PLOAD4         2   47028 -10.000                          175018  175054
PLOAD4         2   47029 -10.000                          175073  172692
PLOAD4         2   47030 -10.000                          175094  173847
PLOAD4         2   47031 -10.000                          175095  175119
PLOAD4         2   47032 -10.000                          175115  175118
PLOAD4         2   47033 -10.000                          175090  175095
PLOAD4         2   47034 -10.000                          175074  175094
PLOAD4         2   47035 -10.000                          175119  172891
PLOAD4         2   47036 -10.000                          175136  173831
PLOAD4         2   47037 -10.000                          175137  175158
PLOAD4         2   47038 -10.000                          175168  175157
PLOAD4         2   47039 -10.000                          175132  175137
PLOAD4         2   47040 -10.000                          175118  175136
PLOAD4         2   47041 -10.000                          175158  172660
PLOAD4         2   47042 -10.000                          175178  173832
PLOAD4         2   47043 -10.000                          175179  175203
PLOAD4         2   47044 -10.000                          175199  175202
PLOAD4         2   47045 -10.000                          175174  175179
PLOAD4         2   47046 -10.000                          175157  175178
PLOAD4         2   47047 -10.000                          175203  172867
PLOAD4         2   47048 -10.000                          175220  173839
PLOAD4         2   47049 -10.000                          175221  175241
PLOAD4         2   47050 -10.000                          175252  175242
PLOAD4         2   47051 -10.000                          175216  175221
PLOAD4         2   47052 -10.000                          175202  175220
PLOAD4         2   47053 -10.000                          175241  172676
PLOAD4         2   47054 -10.000                          175262  173840
PLOAD4         2   47055 -10.000                          175263  175284
PLOAD4         2   47056 -10.000                          175288  175283
PLOAD4         2   47057 -10.000                          175258  175263
PLOAD4         2   47058 -10.000                          175242  175262
PLOAD4         2   47059 -10.000                          175284  172897
PLOAD4         2   47060 -10.000                          175304  173856
PLOAD4         2   47061 -10.000                          175305  175024
PLOAD4         2   47062 -10.000                          175323  175023
PLOAD4         2   47063 -10.000                          175300  175305
PLOAD4         2   47064 -10.000                          175283  175304
PLOAD4         2   47065 -10.000                          175366  172855
PLOAD4         2   47066 -10.000                          175331  173777
PLOAD4         2   47067 -10.000                          175332  175354
PLOAD4         2   47068 -10.000                          175376  175355
PLOAD4         2   47069 -10.000                          175384  175332
PLOAD4         2   47070 -10.000                          175365  175331
PLOAD4         2   47071 -10.000                          175409  172636
PLOAD4         2   47072 -10.000                          175388  173820
PLOAD4         2   47073 -10.000                          175389  175366
PLOAD4         2   47074 -10.000                          175414  175365
PLOAD4         2   47075 -10.000                          175426  175389
PLOAD4         2   47076 -10.000                          175410  175388
PLOAD4         2   47077 -10.000                          175452  172831
PLOAD4         2   47078 -10.000                          175432  173819
PLOAD4         2   47079 -10.000                          175433  175409
PLOAD4         2   47080 -10.000                          175462  175410
PLOAD4         2   47081 -10.000                          175468  175433
PLOAD4         2   47082 -10.000                          175451  175432
PLOAD4         2   47083 -10.000                          175494  172652
PLOAD4         2   47084 -10.000                          175472  173827
PLOAD4         2   47085 -10.000                          175473  175452
PLOAD4         2   47086 -10.000                          175498  175451
PLOAD4         2   47087 -10.000                          175510  175473
PLOAD4         2   47088 -10.000                          175493  175472
PLOAD4         2   47089 -10.000                          175536  172861
PLOAD4         2   47090 -10.000                          175516  173828
PLOAD4         2   47091 -10.000                          175517  175494
PLOAD4         2   47092 -10.000                          175546  175493
PLOAD4         2   47093 -10.000                          175552  175517
PLOAD4         2   47094 -10.000                          175535  175516
PLOAD4         2   47095 -10.000                          175578  172825
PLOAD4         2   47096 -10.000                          175558  173816
PLOAD4         2   47097 -10.000                          175559  175536
PLOAD4         2   47098 -10.000                          175588  175535
PLOAD4         2   47099 -10.000                          175594  175559
PLOAD4         2   47100 -10.000                          175577  175558
PLOAD4         2   47101 -10.000                          175622  172625
PLOAD4         2   47102 -10.000                          175598  173809
PLOAD4         2   47103 -10.000                          175599  175578
PLOAD4         2   47104 -10.000                          175619  175577
PLOAD4         2   47105 -10.000                          175636  175599
PLOAD4         2   47106 -10.000                          175623  175598
PLOAD4         2   47107 -10.000                          175354  172837
PLOAD4         2   47108 -10.000                          175640  173810
PLOAD4         2   47109 -10.000                          175641  175622
PLOAD4         2   47110 -10.000                          175659  175623
PLOAD4         2   47111 -10.000                          175382  175641
PLOAD4         2   47112 -10.000                          175355  175640
PLOAD4         2   47113 -10.000                          175702  172909
PLOAD4         2   47114 -10.000                          175667  173844
PLOAD4         2   47115 -10.000                          175668  175690
PLOAD4         2   47116 -10.000                          175712  175691
PLOAD4         2   47117 -10.000                          175720  175668
PLOAD4         2   47118 -10.000                          175701  175667
PLOAD4         2   47119 -10.000                          175690  172684
PLOAD4         2   47120 -10.000                          175724  173843
PLOAD4         2   47121 -10.000                          175725  175749
PLOAD4         2   47122 -10.000                          175745  175748
PLOAD4         2   47123 -10.000                          175718  175725
PLOAD4         2   47124 -10.000                          175691  175724
PLOAD4         2   47125 -10.000                          175749  172879
PLOAD4         2   47126 -10.000                          175768  173836
PLOAD4         2   47127 -10.000                          175769  175788
PLOAD4         2   47128 -10.000                          175798  175787
PLOAD4         2   47129 -10.000                          175762  175769
PLOAD4         2   47130 -10.000                          175748  175768
PLOAD4         2   47137 -10.000                          175833  172903
PLOAD4         2   47138 -10.000                          175850  173852
PLOAD4         2   47139 -10.000                          175851  175871
PLOAD4         2   47140 -10.000                          175882  175872
PLOAD4         2   47141 -10.000                          175846  175851
PLOAD4         2   47142 -10.000                          175832  175850
PLOAD4         2   47143 -10.000                          175871  172700
PLOAD4         2   47143 -10.000                          173852  175878
PLOAD4         2   47144 -10.000                          175892  173851
PLOAD4         2   47145 -10.000                          175893  175914
PLOAD4         2   47146 -10.000                          175918  175913
PLOAD4         2   47147 -10.000                          175888  175893
PLOAD4         2   47147 -10.000                          175872  175889
PLOAD4         2   47148 -10.000                          175872  175892
PLOAD4         2   47148 -10.000                          175871  175877
PLOAD4         2   47149 -10.000                          175914  172885
PLOAD4         2   47150 -10.000                          175934  173860
PLOAD4         2   47151 -10.000                          175935  175956
PLOAD4         2   47152 -10.000                          175966  175955
PLOAD4         2   47153 -10.000                          175930  175935
PLOAD4         2   47154 -10.000                          175913  175934
PLOAD4         2   47155 -10.000                          175956  172716
PLOAD4         2   47156 -10.000                          175976  173859
PLOAD4         2   47157 -10.000                          175977  175702
PLOAD4         2   47158 -10.000                          175995  175701
PLOAD4         2   47159 -10.000                          175972  175977
PLOAD4         2   47160 -10.000                          175955  175976
PLOAD4         2   47161 -10.000                          176006  176007
PLOAD4         2   47162 -10.000                          176051  176060
PLOAD4         2   47163 -10.000                          176005  176061
PLOAD4         2   47164 -10.000                          176007  176090
PLOAD4         2   47165 -10.000                          176008  176055
PLOAD4         2   47166 -10.000                          176046  176056
PLOAD4         2   47167 -10.000                          176045  176008
PLOAD4         2   47168 -10.000                          176088  176006
PLOAD4         2   47169 -10.000                          176050  176005
PLOAD4         2   47170 -10.000                          176099  176100
PLOAD4         2   47171 -10.000                          176055  176152
PLOAD4         2   47172 -10.000                          176098  176153
PLOAD4         2   47173 -10.000                          176100  173787
PLOAD4         2   47174 -10.000                          176101  176136
PLOAD4         2   47175 -10.000                          176148  176137
PLOAD4         2   47176 -10.000                          176147  176101
PLOAD4         2   47177 -10.000                          176089  176099
PLOAD4         2   47178 -10.000                          176056  176098
PLOAD4         2   47179 -10.000                          176136  172584
PLOAD4         2   47180 -10.000                          176171  173788
PLOAD4         2   47181 -10.000                          176172  176193
PLOAD4         2   47182 -10.000                          176197  176192
PLOAD4         2   47183 -10.000                          176167  176172
PLOAD4         2   47184 -10.000                          176137  176171
PLOAD4         2   47185 -10.000                          176193  172795
PLOAD4         2   47186 -10.000                          176213  173795
PLOAD4         2   47187 -10.000                          176214  176234
PLOAD4         2   47188 -10.000                          176245  176235
PLOAD4         2   47189 -10.000                          176209  176214
PLOAD4         2   47190 -10.000                          176192  176213
PLOAD4         2   47191 -10.000                          176234  172777
PLOAD4         2   47192 -10.000                          176255  173801
PLOAD4         2   47193 -10.000                          176256  176277
PLOAD4         2   47194 -10.000                          176287  176276
PLOAD4         2   47195 -10.000                          176251  176256
PLOAD4         2   47196 -10.000                          176235  176255
PLOAD4         2   47197 -10.000                          176277  172609
PLOAD4         2   47198 -10.000                          176297  173802
PLOAD4         2   47199 -10.000                          176298  176319
PLOAD4         2   47200 -10.000                          176323  176318
PLOAD4         2   47201 -10.000                          176293  176298
PLOAD4         2   47202 -10.000                          176276  176297
PLOAD4         2   47203 -10.000                          176319  172801
PLOAD4         2   47204 -10.000                          176341  173772
PLOAD4         2   47205 -10.000                          176342  176360
PLOAD4         2   47206 -10.000                          176371  176361
PLOAD4         2   47207 -10.000                          176335  176342
PLOAD4         2   47208 -10.000                          176318  176341
PLOAD4         2   47209 -10.000                          176360  172771
PLOAD4         2   47210 -10.000                          176381  173781
PLOAD4         2   47211 -10.000                          176382  176051
PLOAD4         2   47212 -10.000                          176400  176050
PLOAD4         2   47213 -10.000                          176377  176382
PLOAD4         2   47214 -10.000                          176361  176381
PLOAD4         2   47215 -10.000                          176442  172943
PLOAD4         2   47216 -10.000                          176408  173875
PLOAD4         2   47217 -10.000                          176409  176432
PLOAD4         2   47218 -10.000                          176453  176431
PLOAD4         2   47219 -10.000                          176461  176409
PLOAD4         2   47220 -10.000                          176443  176408
PLOAD4         2   47221 -10.000                          176432  172921
PLOAD4         2   47222 -10.000                          176467  173868
PLOAD4         2   47223 -10.000                          176468  176486
PLOAD4         2   47224 -10.000                          176497  176487
PLOAD4         2   47225 -10.000                          176459  176468
PLOAD4         2   47226 -10.000                          176431  176467
PLOAD4         2   47227 -10.000                          176486  172732
PLOAD4         2   47228 -10.000                          176507  173867
PLOAD4         2   47229 -10.000                          176508  176532
PLOAD4         2   47230 -10.000                          176528  176531
PLOAD4         2   47231 -10.000                          176503  176508
PLOAD4         2   47232 -10.000                          176487  176507
PLOAD4         2   47233 -10.000                          176532  172937
PLOAD4         2   47234 -10.000                          176551  173779
PLOAD4         2   47235 -10.000                          176552  176571
PLOAD4         2   47236 -10.000                          176581  176570
PLOAD4         2   47237 -10.000                          176545  176552
PLOAD4         2   47238 -10.000                          176531  176551
PLOAD4         2   47239 -10.000                          173779  176595
PLOAD4         2   47240 -10.000                          176571  176596
PLOAD4         2   47241 -10.000                          176570  176608
PLOAD4         2   47242 -10.000                          176615  176616
PLOAD4         2   47243 -10.000                          176595  176652
PLOAD4         2   47244 -10.000                          176614  176653
PLOAD4         2   47245 -10.000                          176616  176684
PLOAD4         2   47246 -10.000                          176617  176658
PLOAD4         2   47247 -10.000                          176663  176657
PLOAD4         2   47248 -10.000                          176662  176617
PLOAD4         2   47249 -10.000                          176608  176615
PLOAD4         2   47250 -10.000                          176596  176614
PLOAD4         2   47251 -10.000                          176695  176696
PLOAD4         2   47252 -10.000                          176658  176741
PLOAD4         2   47253 -10.000                          176694  176742
PLOAD4         2   47254 -10.000                          176696  173882
PLOAD4         2   47255 -10.000                          176697  176730
PLOAD4         2   47256 -10.000                          176747  176731
PLOAD4         2   47257 -10.000                          176746  176697
PLOAD4         2   47258 -10.000                          176685  176695
PLOAD4         2   47259 -10.000                          176657  176694
PLOAD4         2   47260 -10.000                          173882  176442
PLOAD4         2   47261 -10.000                          176730  176443
PLOAD4         2   47262 -10.000                          176731  176461
ENDDATA b17aa7b4
